%nprocshared=20
%mem=72GB
%chk=/inspire/hdd/project/materialscienceresearch/lipenghui-253107030018/g16/00-B-DFT-Shift/04-output/BF3OEt2_C6D6/BF3OEt2_C6D6.chk

# nmr=giao wb97xd/aug-cc-pvdz opt freq integral=(acc2e=12,grid=ultrafine) scrf=(cpcm,solvent=benzene)

BF3OEt2_C6D6 | solvent model: C6D6 as benzene

0 1
B   -1.668578    0.658294   -0.068017
F   -1.736601    1.907804   -0.967472
F   -1.888130    1.080442    1.397468
F   -2.888462   -0.188219   -0.481460
O   -0.389196   -0.034782   -0.252324
C   -0.467876   -1.428577    0.044008
C    0.748365   -2.257544   -0.405198
C    0.701272    0.583985    0.427955
C    0.916943    2.070699    0.100171
H   -0.657873   -1.595740    1.131351
H   -1.332394   -1.881140   -0.500475
H    0.512791   -3.347170   -0.402925
H    1.059816   -1.983745   -1.439370
H    1.620931   -2.129751    0.273956
H    0.607926    0.461676    1.533613
H    1.658368    0.089091    0.133942
H    1.886270    2.433346    0.514603
H    0.942905    2.239820   -1.000776
H    0.127062    2.717492    0.543365

