%nprocshared=20
%mem=72GB
%chk=/inspire/hdd/project/materialscienceresearch/lipenghui-253107030018/g16/00-B-DFT-Shift/04-output/Mol-B-1-UFF_CDCl3/Mol-B-1-UFF_CDCl3.chk

# nmr=giao wb97xd/aug-cc-pvdz opt freq integral=(acc2e=12,grid=ultrafine) scrf=(cpcm,solvent=chloroform)

Mol-B-1-UFF_CDCl3 | solvent model: CDCl3 as chloroform

0 1
C      0.7841535660   -0.1852318498   -3.1790525923
C      1.5173840471    1.1989718108   -3.1118766951
O      1.5599736887    1.5322706988   -1.7412761340
B      0.5119290211    0.7016222344   -1.1102690422
O     -0.1849601701   -0.0539267257   -2.1763751168
C      0.0769746773   -0.4848730160   -4.5201479123
C      1.6313687698   -1.4582672326   -2.8568567904
C      2.9507387920    1.1677225708   -3.6795880797
C      0.7735314557    2.3698925912   -3.8136176910
C      1.3775288667   -0.1830904403    3.0394148601
C      2.0918249681    1.2046227156    2.8688497062
O      1.1712399478    2.0125819790    2.1699172532
B      0.2953623755    1.0456049688    1.4819449907
O      0.7053443621   -0.3353504263    1.8185408419
C      2.3300160106   -1.3830968696    3.2331185243
C      0.3174388014   -0.2940253001    4.1823642292
C      2.4601211711    1.8776658919    4.2080102322
C      3.3809476796    1.1837282605    1.9987888818
C     -0.4032512059    1.3188330563    0.0617187755
C     -1.8680612988    0.8137207812    0.0852861465
C     -2.0914486084   -0.7019960100    0.2946882422
C     -3.4823362700   -1.2773780659    0.2952120383
C     -4.6613160458   -0.4998047101    0.3264576949
C     -5.9174514058   -1.1197410949    0.3982759472
C     -6.0157784851   -2.5182669347    0.4343675171
C     -4.8562156398   -3.3029003104    0.3937983252
C     -3.6000408135   -2.6864420692    0.3309396374
H     -0.5112333391   -1.4258481113   -4.4820174633
H      0.8091541328   -0.5771268256   -5.3486133728
H     -0.6609043521    0.2867673346   -4.8153320000
H      2.2111674621   -1.3651071207   -1.9146328983
H      0.9814655408   -2.3491534687   -2.7196609865
H      2.3666497139   -1.6978941465   -3.6493543854
H      3.4629671931    2.1472596403   -3.5854650563
H      2.9501536829    0.8865208252   -4.7529516543
H      3.6002670021    0.4453217324   -3.1472956382
H     -0.2833522830    2.4533865092   -3.4846271031
H      1.2442341735    3.3510477403   -3.5948735262
H      0.7630792696    2.2663932074   -4.9184544939
H      1.7840252751   -2.3492724168    3.2636847954
H      2.9043062118   -1.2935697152    4.1778105480
H      3.0601494504   -1.5006032342    2.4086468162
H     -0.4175860027    0.5375937505    4.1702459130
H     -0.2832894001   -1.2248007525    4.0928001515
H      0.7711811741   -0.2879980118    5.1933762845
H      2.9125292607    2.8805299175    4.0645361383
H      3.1802791765    1.2596930410    4.7833591947
H      1.5799418201    2.0471769994    4.8595673092
H      3.2156295485    0.6934572269    1.0161918706
H      3.7372890352    2.2109236552    1.7737236989
H      4.2206745056    0.6525359598    2.4907633382
H     -0.4216424913    2.4210342049   -0.0819865623
H     -2.4186291542    1.3619284333    0.8836852111
H     -2.3548088533    1.1152683186   -0.8686991309
H     -1.5226766059   -1.2570336438   -0.4821760052
H     -1.6593225719   -1.0028457912    1.2734095774
H     -4.6321568949    0.5813775174    0.2955184120
H     -6.8132852098   -0.5152116041    0.4224438884
H     -6.9862723688   -2.9935416287    0.4905860196
H     -4.9248078972   -4.3822238312    0.4217136675
H     -2.7201984620   -3.3188282151    0.3314406522

