%nprocshared=20
%mem=72GB
%chk=/inspire/hdd/project/materialscienceresearch/lipenghui-253107030018/g16/00-B-DFT-Shift/04-output/Mol-B-9-MM2_CDCl3/Mol-B-9-MM2_CDCl3.chk

# nmr=giao wb97xd/aug-cc-pvdz opt freq integral=(acc2e=12,grid=ultrafine) scrf=(cpcm,solvent=chloroform)

Mol-B-9-MM2_CDCl3 | solvent model: CDCl3 as chloroform

0 1
O    2.946467   -0.006956    1.376738
C    1.882705   -0.852840    1.722475
C    0.825157   -0.819260    0.617535
C    0.291365    0.618102    0.379308
C    1.511604    1.550951    0.238174
C    2.542224    1.337932    1.345682
C   -0.704359    0.658297   -0.780564
C   -1.778122   -0.155591   -0.776212
C   -2.674069   -0.156973   -1.775194
C   -2.518810    0.673472   -2.816452
C   -1.465047    1.502551   -2.837518
C   -0.578047    1.493638   -1.829780
N   -3.359167    0.676825   -3.765102
C    1.653999   -1.858937   -2.984151
C    2.334823   -3.009706   -2.196919
O    1.744693   -3.066749   -0.931516
B    1.429967   -1.474988   -0.701580
O    1.626105   -0.739022   -2.151586
C    2.404556   -1.445117   -4.254708
C    0.199813   -2.181571   -3.366423
C    2.147344   -4.389934   -2.836395
C    3.839713   -2.770956   -1.990854
C   -2.127749    1.047719    3.338201
C   -1.409321    2.423493    3.354241
O   -0.890694    2.651318    2.076575
B   -0.562474    1.109503    1.632180
O   -1.266724    0.127712    2.735820
C   -2.450758    0.500995    4.733074
C   -3.426163    1.070389    2.514446
C   -2.337591    3.601490    3.670507
C   -0.231191    2.457365    4.341509
H    2.296332   -1.883309    1.824253
H    1.473071   -0.562739    2.715703
H   -0.006330   -1.487729    0.945273
H    2.031437    1.361045   -0.730059
H    1.191627    2.619566    0.240314
H    3.451381    1.953113    1.149383
H    2.149823    1.637985    2.343050
H   -1.949200   -0.848247    0.063199
H   -3.536069   -0.844326   -1.730259
H   -1.319525    2.197959   -3.681981
H    0.264137    2.198236   -1.899661
H   -3.233876    1.329245   -4.577409
H   -4.182915    0.027102   -3.743717
H    1.859919   -0.638025   -4.795751
H    2.519507   -2.298809   -4.958881
H    3.417189   -1.040943   -4.034181
H   -0.402539   -2.521077   -2.494317
H   -0.314692   -1.286503   -3.784612
H    0.144630   -2.970721   -4.148777
H    2.681103   -5.176339   -2.255740
H    2.544408   -4.417128   -3.875398
H    1.079072   -4.698663   -2.867663
H    4.053951   -1.765403   -1.564257
H    4.273665   -3.518793   -1.288445
H    4.406166   -2.866607   -2.943837
H   -2.994033   -0.469047    4.666685
H   -3.093306    1.202947    5.309496
H   -1.534150    0.302569    5.331336
H   -3.278378    1.504584    1.500373
H   -3.829128    0.042052    2.368980
H   -4.225118    1.655161    3.022307
H   -1.770697    4.559609    3.705304
H   -2.838256    3.475632    4.656107
H   -3.126990    3.735558    2.898241
H    0.456895    1.592990    4.208364
H    0.378658    3.380315    4.210342
H   -0.579665    2.455227    5.398306

