%nprocshared=20
%mem=72GB
%chk=/inspire/hdd/project/materialscienceresearch/lipenghui-253107030018/g16/00-B-DFT-Shift/04-output/Mol-B-4-MM2_DMSO-d6/Mol-B-4-MM2_DMSO-d6.chk

# nmr=giao wb97xd/genecp opt freq integral=(acc2e=12,grid=ultrafine) scrf=(cpcm,solvent=dmso)

Mol-B-4-MM2_DMSO-d6 | solvent model: DMSO-d6 as DMSO

0 1
C   -4.229358    0.524746    0.222984
C   -3.612012   -0.476214   -0.441386
C   -2.277068   -0.608719   -0.522438
C   -1.428553    0.254653    0.056795
C   -2.027909    1.256449    0.728328
C   -3.363230    1.382696    0.804172
C   -0.080043    0.202811    0.031384
C    0.811864   -0.624623   -0.542703
B    0.564126   -1.905090   -1.458050
F    1.872895   -2.410467   -2.094287
F   -0.225828   -3.015764   -0.741951
F   -0.245496   -1.446764   -2.687516
C    4.502431    0.486291   -0.553780
C    4.505045   -0.642441    0.514304
O    3.381871   -1.445471    0.293319
B    2.343683   -0.305400   -0.259154
O    3.218670    1.040802   -0.588925
C    5.471483    1.633046   -0.242393
C    4.818944   -0.040701   -1.963198
C    5.730008   -1.562053    0.439113
C    4.402462   -0.094359    1.947399
C   -5.583468    0.654525    0.300613
C   -6.189713    1.663093    0.969132
C   -7.523149    1.801854    1.052523
C   -8.333851    0.918838    0.458126
C   -7.778048   -0.095380   -0.214704
C   -6.441798   -0.213160   -0.284300
H   -4.165571   -1.266634   -0.969362
H   -1.910295   -1.472340   -1.088361
H   -1.422562    2.022682    1.246352
H   -3.690832    2.255459    1.387722
H    0.432680    1.003898    0.598735
H    5.461638    2.396830   -1.052998
H    6.518249    1.269715   -0.141749
H    5.202479    2.171051    0.693345
H    4.186754   -0.913290   -2.240454
H    4.646237    0.743097   -2.735659
H    5.884129   -0.348284   -2.058153
H    5.702910   -2.331259    1.244226
H    6.678625   -0.992565    0.555637
H    5.779780   -2.121610   -0.521070
H    3.555558    0.617623    2.067876
H    4.241568   -0.915658    2.682672
H    5.335197    0.427527    2.256920
H   -5.636338    2.451999    1.498517
H   -7.961854    2.645968    1.612261
H   -9.429304    1.024124    0.520814
H   -8.429467   -0.834538   -0.712321
H   -6.111862   -1.086570   -0.864928
Cs   2.258046   -4.024936    0.209935

C H B F O 0
aug-cc-pVDZ
****
Cs 0
SDD
****

Cs 0
SDD

