%nprocshared=20
%mem=72GB
%chk=/inspire/hdd/project/materialscienceresearch/lipenghui-253107030018/g16/00-B-DFT-Shift/04-output/Mol-B-3-UFF_CDCl3/Mol-B-3-UFF_CDCl3.chk

# nmr=giao wb97xd/aug-cc-pvdz opt freq integral=(acc2e=12,grid=ultrafine) scrf=(cpcm,solvent=chloroform)

Mol-B-3-UFF_CDCl3 | solvent model: CDCl3 as chloroform

0 1
C      0.3596962481    1.9585302928   -1.6929033163
C      1.8905586890    1.7299365613   -1.5566371066
O      2.0720563414    0.3655978671   -1.8739060882
B      0.8537521519   -0.2402253610   -1.3226230319
O     -0.1743048332    0.8072787565   -1.1187597876
C     -0.1636122231    3.2136530810   -0.9573263722
C     -0.2005239405    1.9860417712   -3.1351523566
C      2.6900895760    2.6229915748   -2.5213773199
C      2.4579368472    1.9545210674   -0.1253520072
C      0.4886573018   -1.7963344916   -1.0397205533
C      0.3209568403   -2.4058084205   -2.4197920478
C      1.6728493047   -2.4564934463   -0.3126077355
C      0.5349651986   -3.7231929546   -2.8404205213
C      0.1985289853   -3.7347237375   -4.1788624927
C     -0.2071696297   -2.4507605427   -4.4730194805
O     -0.1681105236   -1.6811954455   -3.4083898846
C     -0.7794822767   -1.8956247579   -0.1961681528
C     -1.6746930563   -2.9522478180   -0.3006308434
C     -1.9924642218    0.2306910535    2.7184286201
C     -0.5377098027   -0.2089000885    3.0478663686
O      0.0384241013   -0.3780845120    1.7798314400
B     -1.0946185110   -0.8673358337    0.9631412248
O     -2.3689849053   -0.6169208693    1.6537882374
C     -2.9616444116    0.0496004920    3.9045358326
C     -2.1253485799    1.7030894547    2.2396671686
C      0.2590274628    0.8296748877    3.8683438950
C     -0.4173754253   -1.5738432417    3.7783740989
H     -1.2681590389    3.3245827748   -1.0308044168
H      0.2985657174    4.1273278436   -1.3890306268
H      0.0659985248    3.2218960776    0.1307205778
H      0.1649790773    1.1115296163   -3.7142985475
H     -1.3128707584    1.9383485661   -3.1434588788
H      0.1270810392    2.9016859250   -3.6600973258
H      3.7820368864    2.4700361795   -2.4140851841
H      2.4798434870    3.7010290361   -2.3373838255
H      2.4569392754    2.4212743868   -3.5888021610
H      2.4056911441    3.0190199193    0.1764855967
H      1.8893629328    1.3696183770    0.6321636819
H      3.5130209436    1.6140466756   -0.0658390771
H      1.4669373638   -3.5240263908   -0.0620216390
H      2.6047090413   -2.4487038026   -0.9248251158
H      1.8974797847   -1.9439945279    0.6430152787
H      0.8798891284   -4.5783969275   -2.2580139359
H      0.2289953941   -4.5724860833   -4.8715473925
H     -0.5377196112   -2.0039901533   -5.3954198817
H     -2.5683645315   -3.0108882250    0.3055617057
H     -1.5257396907   -3.7768873911   -0.9871606802
H     -3.9915899612    0.3845038929    3.6590598611
H     -2.6270978282    0.6269380798    4.7964136291
H     -3.0602713360   -1.0114265998    4.2209765776
H     -1.4214306107    1.9128485738    1.4096631969
H     -3.1464961207    1.9139609255    1.8561070710
H     -1.8991381640    2.4278008124    3.0522581158
H      1.2914371467    0.4870598998    4.0957685595
H     -0.2435122582    1.0382111442    4.8406995082
H      0.3773176757    1.8040866130    3.3452732002
H     -0.9938815929   -2.3603405392    3.2412256899
H      0.6373593237   -1.9199045237    3.8128016989
H     -0.8152410910   -1.5180674940    4.8091369516

