%nprocshared=20
%mem=72GB
%chk=/inspire/hdd/project/materialscienceresearch/lipenghui-253107030018/g16/00-B-DFT-Shift/04-output/Mol-B-5-MM2_D2O/Mol-B-5-MM2_D2O.chk

# nmr=giao wb97xd/aug-cc-pvdz opt freq integral=(acc2e=12,grid=ultrafine) scrf=(cpcm,solvent=water)

Mol-B-5-MM2_D2O | solvent model: D2O as water

0 1
B    3.748697    1.078269    0.413586
O    2.569911    0.297315    1.288718
B    1.111909    0.608047    0.618378
O    1.448299    0.986217   -0.931769
B    1.901882    2.576689   -0.835577
O    3.370775    2.541714   -0.173524
O    0.799213    3.797720   -0.864395
O    5.163456    0.374630   -0.054234
O    0.497889    1.795369    1.210352
C   -0.670669    1.570974    1.510290
C   -1.051016    0.293294    1.365949
C    0.067799   -0.569630    0.854062
C   -1.532786    2.498083    1.950212
C   -2.786467    2.119816    2.250857
C   -3.165089    0.836660    2.116953
C   -2.297758   -0.089058    1.674984
N   -0.322624   -1.444359   -0.317866
C   -1.113135   -0.779629   -1.423282
C   -1.535844   -1.891822   -2.380049
O   -0.417184   -2.560281   -2.907129
C    0.300700   -3.207046   -1.886437
C    0.857266   -2.205293   -0.878793
H    0.203403    3.747791   -0.135700
H    5.691496    0.940088   -0.588582
H    0.425514   -1.222642    1.683909
H   -1.218043    3.548231    2.063646
H   -3.509786    2.868853    2.614792
H   -4.196467    0.540090    2.371603
H   -2.600287   -1.142254    1.562614
H   -0.964065   -2.170114    0.082844
H   -2.021953   -0.279845   -1.018735
H   -0.512164   -0.021479   -1.969462
H   -2.093198   -1.455236   -3.241990
H   -2.214227   -2.623770   -1.884726
H    1.140341   -3.756945   -2.372704
H   -0.349497   -3.965319   -1.392889
H    1.385433   -2.748182   -0.060676
H    1.582857   -1.517122   -1.368451

