%nprocshared=20
%mem=72GB
%chk=/inspire/hdd/project/materialscienceresearch/lipenghui-253107030018/g16/00-B-DFT-Shift/04-output/Mol-B-8-MM2_CDCl3/Mol-B-8-MM2_CDCl3.chk

# nmr=giao wb97xd/aug-cc-pvdz opt freq integral=(acc2e=12,grid=ultrafine) scrf=(cpcm,solvent=chloroform)

Mol-B-8-MM2_CDCl3 | solvent model: CDCl3 as chloroform

0 1
C   -0.340336   -0.758528   -1.599501
C    1.085276   -0.282225   -1.383595
C    1.356223    0.872389   -0.742297
C   -0.930781   -1.459096   -0.364440
C   -2.329807   -2.030431   -0.648452
C    2.146611   -1.213816   -1.941424
C    2.264086   -2.542729   -1.180532
C    3.471493   -3.371404   -1.648881
C    3.573634   -4.703367   -0.893859
C   -1.419378    3.514087   -0.139812
C   -1.623596    2.568450    1.073690
O   -0.428910    1.875220    1.293149
B    0.146909    1.770217   -0.234975
O   -0.743969    2.804528   -1.137555
C   -2.729611    4.009825   -0.765075
C   -0.575544    4.746811    0.218319
C   -1.954257    3.300509    2.380414
C   -2.730309    1.533058    0.823785
C   -2.948635   -2.630728    0.596814
C   -2.483862   -3.788762    1.099638
C   -3.021009   -4.327509    2.205285
C   -4.038255   -3.711125    2.825606
C   -4.513937   -2.557567    2.333144
C   -3.971830   -2.025415    1.226724
Si   3.066403    1.567676   -0.373853
C    2.893487    3.145858    0.642807
C    3.964424    2.026702   -1.964479
C    4.071834    0.338764    0.638667
H   -0.986020    0.105208   -1.878910
H   -0.378941   -1.444329   -2.476756
H   -0.261935   -2.283568   -0.030198
H   -0.983572   -0.742778    0.486715
H   -2.985193   -1.230249   -1.062994
H   -2.265821   -2.817283   -1.436516
H    1.923482   -1.409448   -3.016130
H    3.144451   -0.731105   -1.949427
H    2.363815   -2.335273   -0.088400
H    1.340622   -3.148615   -1.333886
H    3.383764   -3.572989   -2.743330
H    4.411544   -2.790243   -1.491196
H    4.452502   -5.293638   -1.241783
H    3.689933   -4.535633    0.201345
H    2.663391   -5.325952   -1.051598
H   -2.531376    4.727488   -1.593496
H   -3.367445    4.531939   -0.017420
H   -3.327275    3.183305   -1.209266
H    0.342437    4.474795    0.781493
H   -0.253016    5.299478   -0.693376
H   -1.146942    5.468605    0.843846
H   -2.143756    2.578524    3.207138
H   -2.863949    3.932812    2.275279
H   -1.120740    3.951819    2.724693
H   -2.607646    1.020067   -0.154754
H   -2.733852    0.749591    1.615276
H   -3.741960    1.996340    0.834420
H   -1.648313   -4.307100    0.600546
H   -2.626369   -5.276779    2.604783
H   -4.481703   -4.150738    3.734553
H   -5.351009   -2.046760    2.838076
H   -4.377732   -1.077231    0.837678
H    2.287849    2.929098    1.549882
H    3.913110    3.483234    0.932379
H    2.409245    3.914955    0.002704
H    4.174946    1.117127   -2.565432
H    4.919173    2.525472   -1.686389
H    3.316928    2.727172   -2.536993
H    5.010481    0.843005    0.958120
H    3.469383    0.044878    1.526477
H    4.315255   -0.552394    0.022468

