%nprocshared=20
%mem=72GB
%chk=/inspire/hdd/project/materialscienceresearch/lipenghui-253107030018/g16/00-B-DFT-Shift/04-output/Mol-B-2-UFF_C6D6/Mol-B-2-UFF_C6D6.chk

# nmr=giao wb97xd/aug-cc-pvdz opt freq integral=(acc2e=12,grid=ultrafine) scrf=(cpcm,solvent=benzene)

Mol-B-2-UFF_C6D6 | solvent model: C6D6 as benzene

0 1
C     -2.1879870000   -2.8736980000   -1.8706800000
C     -1.3214860000   -2.6549060000   -0.8762590000
C     -1.3110740000   -3.4605230000    0.1907190000
C     -2.1671630000   -4.4849330000    0.2632750000
C     -3.0336650000   -4.7037250000   -0.7311460000
C     -3.0440760000   -3.8981080000   -1.7981240000
C     -0.3629480000   -1.5079040000   -0.9574980000
O     -0.4329070000   -3.2387850000    1.1985290000
C     -0.5888680000   -4.1930370000    2.2137540000
O     -0.5637340000   -0.8144270000   -2.1593210000
C     -1.5587020000    1.1036340000    1.7553490000
C     -0.4857680000    0.2733090000    2.4473770000
O      0.3832380000   -0.0910890000    1.4092800000
B     -0.6085820000   -0.5251080000    0.2680130000
O     -1.9630070000    0.3043810000    0.6767680000
C     -2.7255110000    1.3722440000    2.6965900000
C     -1.0494880000    2.4695770000    1.3144090000
C      0.2436960000    1.0998470000    3.4982090000
C     -1.0594250000   -0.9312640000    3.1818510000
C      2.1826850000    2.0162470000   -1.4919010000
C      2.0989020000    1.8963400000   -3.0078600000
O      0.7680570000    1.5249960000   -3.2456860000
B      0.5223220000    0.4144270000   -2.1590310000
O      1.6396090000    0.8106750000   -1.0257810000
C      3.6293460000    2.1679340000   -1.0405800000
C      1.4443480000    3.2368930000   -0.9586010000
C      2.4158460000    3.2287380000   -3.6740370000
C      3.0971070000    0.8943750000   -3.5728200000
H     -2.1965530000   -2.2108870000   -2.7485230000
H     -2.1585970000   -5.1477440000    1.1411180000
H     -3.7380010000   -5.5465460000   -0.6714520000
H     -3.7569790000   -4.0781170000   -2.6162720000
H      0.6805400000   -1.8934160000   -0.9216860000
H      0.1414960000   -3.9909930000    3.0289330000
H     -1.6232900000   -4.1355350000    2.6204900000
H     -0.4087110000   -5.2096290000    1.7979980000
H     -3.4954960000    1.9793490000    2.1699820000
H     -2.3611740000    1.9290530000    3.5887740000
H     -3.1723400000    0.4051080000    3.0187090000
H      0.0218980000    2.5755360000    1.5966740000
H     -1.1528710000    2.5647630000    0.2103170000
H     -1.6450670000    3.2662640000    1.8137540000
H      1.0214220000    0.4733600000    3.9895610000
H     -0.4842520000    1.4535510000    4.2622470000
H      0.7267680000    1.9762250000    3.0110030000
H     -2.1650490000   -0.9514870000    3.0555380000
H     -0.6214460000   -1.8643070000    2.7618820000
H     -0.8111270000   -0.8583280000    4.2643470000
H      3.6654820000    2.2536080000    0.0685290000
H      4.0657750000    3.0842670000   -1.4973440000
H      4.2137060000    1.2772180000   -1.3629440000
H      0.9895380000    3.7959150000   -1.8067820000
H      0.6432030000    2.9088980000   -0.2590610000
H      2.1603760000    3.8975820000   -0.4204910000
H      2.3484970000    3.1167980000   -4.7793440000
H      3.4456890000    3.5462820000   -3.3959070000
H      1.6853320000    3.9964640000   -3.3338680000
H      3.6899840000    0.4515360000   -2.7414590000
H      2.5489830000    0.0869520000   -4.1079810000
H      3.7815010000    1.4121490000   -4.2815400000

