%nprocshared=20
%mem=72GB
%chk=/inspire/hdd/project/materialscienceresearch/lipenghui-253107030018/g16/00-B-DFT-Shift/04-output/Mol-B-6-MM2_CDCl3/Mol-B-6-MM2_CDCl3.chk

# nmr=giao wb97xd/aug-cc-pvdz opt freq integral=(acc2e=12,grid=ultrafine) scrf=(cpcm,solvent=chloroform)

Mol-B-6-MM2_CDCl3 | solvent model: CDCl3 as chloroform

0 1
B    1.000377   -3.163100   -0.072081
F    1.842661   -4.193927   -0.851243
F    1.922608   -1.932938    0.003093
F   -0.240896   -2.978148   -0.962751
F    0.767437   -3.849785    1.285282
C    1.217880    1.262019    0.602696
C    0.619967    0.172925    1.118014
C   -0.372231   -0.505165    0.511826
N   -0.703411   -1.504730    1.300397
C    0.142300   -1.335645    2.285180
O    0.876152   -0.360169    2.189429
C   -0.785960   -0.060232   -0.684940
C   -0.240833    1.024717   -1.265900
C    0.746708    1.650079   -0.597891
C    2.362227    2.053323    1.256501
C    2.839777    1.536851    2.632248
C    1.912489    3.517934    1.466753
C    3.594750    2.017364    0.322538
C   -1.670043   -2.401737    1.301008
C   -1.778667   -3.328047    2.283553
C   -2.745061   -4.259245    2.332907
C   -3.688222   -4.303754    1.385289
C   -3.640274   -3.390847    0.408616
C   -2.661138   -2.471854    0.385926
C   -0.684322    1.546709   -2.641796
C   -1.833085    0.739813   -3.291762
C    0.513118    1.493877   -3.617245
C   -1.180688    3.003809   -2.503305
H    0.254728   -1.861684    3.239662
H   -1.561622   -0.585672   -1.239542
H    1.202114    2.531226   -1.070432
H    3.237089    0.498474    2.572302
H    3.673384    2.157751    3.031922
H    2.033303    1.585601    3.398183
H    1.675280    4.042989    0.515844
H    2.706826    4.121006    1.961939
H    1.004523    3.564326    2.110525
H    4.460085    2.558275    0.767995
H    3.916003    0.967788    0.131830
H    3.409043    2.494359   -0.664471
H   -1.066835   -3.393278    3.120220
H   -2.771031   -4.993132    3.156811
H   -4.489430   -5.059999    1.416862
H   -4.420970   -3.393407   -0.371644
H   -2.754286   -1.764890   -0.442252
H   -2.756198    0.753744   -2.668879
H   -2.119108    1.166795   -4.279713
H   -1.543407   -0.317692   -3.486516
H    1.358672    2.143181   -3.300772
H    0.221813    1.834881   -4.636443
H    0.904495    0.454912   -3.708811
H   -1.541561    3.404267   -3.477628
H   -2.025193    3.067953   -1.779715
H   -0.388010    3.701842   -2.155649

