%nprocshared=20
%mem=72GB
%chk=/inspire/hdd/project/materialscienceresearch/lipenghui-253107030018/g16/00-B-DFT-Shift/04-output/Mol-B-10-MM2_CDCl3/Mol-B-10-MM2_CDCl3.chk

# nmr=giao wb97xd/aug-cc-pvdz opt freq integral=(acc2e=12,grid=ultrafine) scrf=(cpcm,solvent=chloroform)

Mol-B-10-MM2_CDCl3 | solvent model: CDCl3 as chloroform

0 1
C   1.729267  0.764526  2.445355
C   0.814012 -0.443461  2.159322
C   0.369334 -0.619512  0.696311
C  -0.214498  0.677965  0.078554
C   0.770124  1.839691  0.317238
C   1.125048  2.026555  1.799993
C  -0.615130  0.457940 -1.382496
C  -1.512341 -0.496404 -1.698967
C  -1.897387 -0.722095 -2.964469
C  -1.387774  0.014924 -3.961847
C  -0.497024  0.974692 -3.672893
C  -0.122889  1.189041 -2.401472
N  -1.744072 -0.192926 -5.160163
C   3.030764 -2.862180 -1.029000
C   2.684783 -1.813476 -2.119246
O   2.272692 -0.645322 -1.474041
B   1.520168 -1.292985 -0.172785
O   2.001583 -2.856726 -0.083936
C   3.130439 -4.296456 -1.562393
C   4.339696 -2.537154 -0.292261
C   3.872608 -1.429342 -3.008676
C   1.532194 -2.269298 -3.028858
C  -3.729049  0.795695  1.645859
C  -3.300182  2.278902  1.798095
O  -2.303957  2.534041  0.851805
B  -1.582250  1.063502  0.801443
O  -2.566407  0.023552  1.596599
C  -4.559976  0.267122  2.820286
C  -4.509784  0.538654  0.346277
C  -4.429667  3.279955  1.530755
C  -2.708349  2.576578  3.185696
C   1.814490  0.975196  3.975251
C   3.164958  0.521689  1.938333
H   1.303207 -1.379354  2.517811
H  -0.107376 -0.327227  2.778927
H  -0.438965 -1.392321  0.717010
H   1.710841  1.673363 -0.254342
H   0.327738  2.794584 -0.055494
H   1.832786  2.881575  1.912996
H   0.202087  2.316190  2.353391
H  -1.961354 -1.122696 -0.911795
H  -2.634143 -1.516213 -3.174243
H  -0.064457  1.593937 -4.477399
H   0.611166  1.990032 -2.228146
H  -1.342014  0.386418 -5.937231
H  -2.441458 -0.945242 -5.381164
H   3.426163 -5.004741 -0.755283
H   3.888633 -4.380063 -2.372518
H   2.159931 -4.668439 -1.959071
H   4.371901 -1.485553  0.066329
H   4.474281 -3.188754  0.601111
H   5.228819 -2.700215 -0.941329
H   3.565072 -0.704056 -3.796122
H   4.302126 -2.317536 -3.523149
H   4.687574 -0.935382 -2.434782
H   0.639068 -2.593268 -2.449222
H   1.202667 -1.446972 -3.703289
H   1.835539 -3.111120 -3.689983
H  -4.869667 -0.788783  2.647989
H  -5.486423  0.865108  2.968592
H  -3.990773  0.271171  3.776057
H  -3.989516  0.945930 -0.549255
H  -4.650934 -0.552167  0.169665
H  -5.527038  0.988211  0.382250
H  -4.082038  4.326408  1.687762
H  -5.295276  3.111998  2.209278
H  -4.799247  3.229145  0.482726
H  -1.923928  1.843408  3.478166
H  -2.237577  3.585739  3.215691
H  -3.491070  2.568405  3.976608
H   2.458914  1.846847  4.230076
H   2.240952  0.080499  4.483011
H   0.813576  1.165879  4.424431
H   3.598372 -0.405345  2.376968
H   3.216463  0.421971  0.835331
H   3.838440  1.365451  2.210204

