%nprocshared=20
%mem=72GB
%chk=/inspire/hdd/project/materialscienceresearch/lipenghui-253107030018/g16/00-B-DFT-Shift/04-output/Mol-B-7-MM2_CDCl3/Mol-B-7-MM2_CDCl3.chk

# nmr=giao wb97xd/aug-cc-pvdz opt freq integral=(acc2e=12,grid=ultrafine) scrf=(cpcm,solvent=chloroform)

Mol-B-7-MM2_CDCl3 | solvent model: CDCl3 as chloroform

0 1
B   -0.193377    0.582497   -3.666453
F   -1.052148    1.082059   -4.845383
F    1.233540    1.079497   -3.966300
F   -0.763568    1.289064   -2.424534
F   -0.282085   -0.952834   -3.723668
C    1.326313    2.078402    0.588624
C    1.187687    1.009024   -0.212564
C    0.216742    0.091140   -0.077609
N    0.359274   -0.793970   -1.038238
C   -0.310538   -1.910879   -1.243526
C    0.366491   -3.076660   -1.493704
C   -0.326662   -4.219950   -1.663576
C   -1.656875   -4.275453   -1.599277
C   -2.311624   -3.142754   -1.350274
C   -1.674968   -1.971591   -1.160852
C    1.455040   -0.357508   -1.601259
O    1.909949    0.685356   -1.145299
C   -0.589023    0.169109    0.992393
C   -0.498784    1.201987    1.852935
C    0.441145    2.134748    1.602131
C    2.396352    3.171449    0.446838
C    3.345244    3.026178   -0.764024
C    3.283209    3.180938    1.712814
C    1.697519    4.542835    0.291215
C    1.898050   -3.253042   -1.434596
C    2.488090   -4.613366   -1.877839
C    2.407397   -2.986826   -0.003017
C   -2.646901   -0.782789   -1.092206
C   -3.735550   -0.954454   -0.010305
C   -3.364768   -0.557190   -2.440989
C   -1.376395    1.344894    3.105934
C   -2.386685    0.196218    3.314801
C   -2.192744    2.653730    3.013836
C   -0.477158    1.376033    4.363508
H    0.159882   -5.189773   -1.835904
H   -2.198719   -5.224469   -1.748567
H   -3.410491   -3.211850   -1.343470
H    2.025042   -0.741478   -2.450472
H   -1.292389   -0.648459    1.180176
H    0.520028    2.980298    2.299178
H    2.789472    3.025656   -1.729043
H    4.062725    3.875877   -0.821661
H    3.973938    2.110213   -0.694925
H    2.715095    3.415071    2.639623
H    4.088570    3.946368    1.639271
H    3.772062    2.190993    1.861127
H    2.436600    5.365054    0.158848
H    1.027528    4.546519   -0.598881
H    1.082678    4.823637    1.173908
H    2.389103   -2.577403   -2.165168
H    2.177194   -4.886907   -2.912681
H    3.602440   -4.578829   -1.894008
H    2.226446   -5.442058   -1.181703
H    2.156390   -1.973832    0.376333
H    3.515890   -3.076090    0.057745
H    1.967599   -3.719841    0.711250
H   -2.114296    0.168630   -0.882931
H   -3.328635   -1.396397    0.924300
H   -4.206104    0.024453    0.239045
H   -4.566179   -1.621815   -0.328960
H   -2.650418   -0.432181   -3.280951
H   -3.996124    0.360506   -2.408050
H   -4.033723   -1.401535   -2.718672
H   -1.888597   -0.796529    3.390264
H   -2.965603    0.328333    4.256752
H   -3.140496    0.169697    2.499443
H   -1.553374    3.563139    2.988012
H   -2.869331    2.772070    3.890268
H   -2.825006    2.662745    2.096586
H    0.142065    0.452403    4.430375
H    0.215103    2.245739    4.384972
H   -1.082955    1.442752    5.295385

