 Entering Gaussian System, Link 0=g16
 Initial command:
 /inspire/hdd/project/materialscienceresearch/lipenghui-253107030018/software/g16/l1.exe "/inspire/hdd/project/materialscienceresearch/lipenghui-253107030018/g16/tmp/Gau-353524.inp" -scrdir="/inspire/hdd/project/materialscienceresearch/lipenghui-253107030018/g16/tmp/"
 Entering Link 1 = /inspire/hdd/project/materialscienceresearch/lipenghui-253107030018/software/g16/l1.exe PID=    353526.
  
 Copyright (c) 1988-2019, Gaussian, Inc.  All Rights Reserved.
  
 This is part of the Gaussian(R) 16 program.  It is based on
 the Gaussian(R) 09 system (copyright 2009, Gaussian, Inc.),
 the Gaussian(R) 03 system (copyright 2003, Gaussian, Inc.),
 the Gaussian(R) 98 system (copyright 1998, Gaussian, Inc.),
 the Gaussian(R) 94 system (copyright 1995, Gaussian, Inc.),
 the Gaussian 92(TM) system (copyright 1992, Gaussian, Inc.),
 the Gaussian 90(TM) system (copyright 1990, Gaussian, Inc.),
 the Gaussian 88(TM) system (copyright 1988, Gaussian, Inc.),
 the Gaussian 86(TM) system (copyright 1986, Carnegie Mellon
 University), and the Gaussian 82(TM) system (copyright 1983,
 Carnegie Mellon University). Gaussian is a federally registered
 trademark of Gaussian, Inc.
  
 This software contains proprietary and confidential information,
 including trade secrets, belonging to Gaussian, Inc.
  
 This software is provided under written license and may be
 used, copied, transmitted, or stored only in accord with that
 written license.
  
 The following legend is applicable only to US Government
 contracts under FAR:
  
                    RESTRICTED RIGHTS LEGEND
  
 Use, reproduction and disclosure by the US Government is
 subject to restrictions as set forth in subparagraphs (a)
 and (c) of the Commercial Computer Software - Restricted
 Rights clause in FAR 52.227-19.
  
 Gaussian, Inc.
 340 Quinnipiac St., Bldg. 40, Wallingford CT 06492
  
  
 ---------------------------------------------------------------
 Warning -- This program may not be used in any manner that
 competes with the business of Gaussian, Inc. or will provide
 assistance to any competitor of Gaussian, Inc.  The licensee
 of this program is prohibited from giving any competitor of
 Gaussian, Inc. access to this program.  By using this program,
 the user acknowledges that Gaussian, Inc. is engaged in the
 business of creating and licensing software in the field of
 computational chemistry and represents and warrants to the
 licensee that it is not a competitor of Gaussian, Inc. and that
 it will not use this program in any manner prohibited above.
 ---------------------------------------------------------------
  

 Cite this work as:
 Gaussian 16, Revision C.01,
 M. J. Frisch, G. W. Trucks, H. B. Schlegel, G. E. Scuseria, 
 M. A. Robb, J. R. Cheeseman, G. Scalmani, V. Barone, 
 G. A. Petersson, H. Nakatsuji, X. Li, M. Caricato, A. V. Marenich, 
 J. Bloino, B. G. Janesko, R. Gomperts, B. Mennucci, H. P. Hratchian, 
 J. V. Ortiz, A. F. Izmaylov, J. L. Sonnenberg, D. Williams-Young, 
 F. Ding, F. Lipparini, F. Egidi, J. Goings, B. Peng, A. Petrone, 
 T. Henderson, D. Ranasinghe, V. G. Zakrzewski, J. Gao, N. Rega, 
 G. Zheng, W. Liang, M. Hada, M. Ehara, K. Toyota, R. Fukuda, 
 J. Hasegawa, M. Ishida, T. Nakajima, Y. Honda, O. Kitao, H. Nakai, 
 T. Vreven, K. Throssell, J. A. Montgomery, Jr., J. E. Peralta, 
 F. Ogliaro, M. J. Bearpark, J. J. Heyd, E. N. Brothers, K. N. Kudin, 
 V. N. Staroverov, T. A. Keith, R. Kobayashi, J. Normand, 
 K. Raghavachari, A. P. Rendell, J. C. Burant, S. S. Iyengar, 
 J. Tomasi, M. Cossi, J. M. Millam, M. Klene, C. Adamo, R. Cammi, 
 J. W. Ochterski, R. L. Martin, K. Morokuma, O. Farkas, 
 J. B. Foresman, and D. J. Fox, Gaussian, Inc., Wallingford CT, 2019.
 
 ******************************************
 Gaussian 16:  ES64L-G16RevC.01  3-Jul-2019
                24-May-2026 
 ******************************************
 %nprocshared=20
 Will use up to   20 processors via shared memory.
 %mem=72GB
 %chk=/inspire/hdd/project/materialscienceresearch/lipenghui-253107030018/g16/00-
 B-DFT-Shift/04-output/BF3OEt2_THF/BF3OEt2_THF.chk
 ----------------------------------------------------------------------
 # nmr=giao wb97xd/aug-cc-pvdz opt freq integral=(acc2e=12,grid=ultrafi
 ne) scrf=(cpcm,solvent=thf)
 ----------------------------------------------------------------------
 1/18=20,19=15,26=6,38=1/1,3;
 2/9=110,12=2,17=6,18=5,40=1/2;
 3/5=16,7=10,11=2,25=1,27=12,30=1,70=2101,71=1,72=20,74=-58,75=-5/1,2,3;
 4//1;
 5/5=2,38=5,53=20,87=12/2;
 6/7=2,8=2,9=2,10=2,28=1,87=12/1;
 7/87=12/1,2,3,16;
 1/18=20,19=15,26=6/3(2);
 2/9=110/2;
 99//99;
 2/9=110/2;
 3/5=16,7=10,11=2,25=1,27=12,30=1,70=2105,71=1,72=20,74=-58,75=-5/1,2,3;
 4/5=5,16=3,69=1/1;
 5/5=2,38=5,53=20,87=12/2;
 7/87=12/1,2,3,16;
 1/18=20,19=15,26=6/3(-5);
 2/9=110/2;
 6/7=2,8=2,9=2,10=2,19=2,28=1,87=12/1;
 99/9=1/99;
 --------------------------------
 BF3OEt2_THF | solvent model: THF
 --------------------------------
 Symbolic Z-matrix:
 Charge =  0 Multiplicity = 1
 B                    -1.66858   0.65829  -0.06802 
 F                    -1.7366    1.9078   -0.96747 
 F                    -1.88813   1.08044   1.39747 
 F                    -2.88846  -0.18822  -0.48146 
 O                    -0.3892   -0.03478  -0.25232 
 C                    -0.46788  -1.42858   0.04401 
 C                     0.74837  -2.25754  -0.4052 
 C                     0.70127   0.58399   0.42796 
 C                     0.91694   2.0707    0.10017 
 H                    -0.65787  -1.59574   1.13135 
 H                    -1.33239  -1.88114  -0.50048 
 H                     0.51279  -3.34717  -0.40293 
 H                     1.05982  -1.98375  -1.43937 
 H                     1.62093  -2.12975   0.27396 
 H                     0.60793   0.46168   1.53361 
 H                     1.65837   0.08909   0.13394 
 H                     1.88627   2.43335   0.5146 
 H                     0.94291   2.23982  -1.00078 
 H                     0.12706   2.71749   0.54337 
 

 GradGradGradGradGradGradGradGradGradGradGradGradGradGradGradGradGradGrad
 Berny optimization.
 Initialization pass.
                           ----------------------------
                           !    Initial Parameters    !
                           ! (Angstroms and Degrees)  !
 --------------------------                            --------------------------
 ! Name  Definition              Value          Derivative Info.                !
 --------------------------------------------------------------------------------
 ! R1    R(1,2)                  1.5411         estimate D2E/DX2                !
 ! R2    R(1,3)                  1.5408         estimate D2E/DX2                !
 ! R3    R(1,4)                  1.5413         estimate D2E/DX2                !
 ! R4    R(1,5)                  1.4667         estimate D2E/DX2                !
 ! R5    R(5,6)                  1.4271         estimate D2E/DX2                !
 ! R6    R(5,8)                  1.4265         estimate D2E/DX2                !
 ! R7    R(6,7)                  1.5389         estimate D2E/DX2                !
 ! R8    R(6,10)                 1.1164         estimate D2E/DX2                !
 ! R9    R(6,11)                 1.1174         estimate D2E/DX2                !
 ! R10   R(7,12)                 1.1148         estimate D2E/DX2                !
 ! R11   R(7,13)                 1.1142         estimate D2E/DX2                !
 ! R12   R(7,14)                 1.1131         estimate D2E/DX2                !
 ! R13   R(8,9)                  1.5376         estimate D2E/DX2                !
 ! R14   R(8,15)                 1.1163         estimate D2E/DX2                !
 ! R15   R(8,16)                 1.1169         estimate D2E/DX2                !
 ! R16   R(9,17)                 1.1148         estimate D2E/DX2                !
 ! R17   R(9,18)                 1.1142         estimate D2E/DX2                !
 ! R18   R(9,19)                 1.113          estimate D2E/DX2                !
 ! A1    A(2,1,3)              109.0681         estimate D2E/DX2                !
 ! A2    A(2,1,4)              104.7032         estimate D2E/DX2                !
 ! A3    A(2,1,5)              110.3836         estimate D2E/DX2                !
 ! A4    A(3,1,4)              107.0273         estimate D2E/DX2                !
 ! A5    A(3,1,5)              111.9184         estimate D2E/DX2                !
 ! A6    A(4,1,5)              113.4001         estimate D2E/DX2                !
 ! A7    A(1,5,6)              112.7884         estimate D2E/DX2                !
 ! A8    A(1,5,8)              113.6987         estimate D2E/DX2                !
 ! A9    A(6,5,8)              111.5166         estimate D2E/DX2                !
 ! A10   A(5,6,7)              114.9554         estimate D2E/DX2                !
 ! A11   A(5,6,10)             110.9687         estimate D2E/DX2                !
 ! A12   A(5,6,11)             109.6955         estimate D2E/DX2                !
 ! A13   A(7,6,10)             109.7641         estimate D2E/DX2                !
 ! A14   A(7,6,11)             104.5398         estimate D2E/DX2                !
 ! A15   A(10,6,11)            106.3956         estimate D2E/DX2                !
 ! A16   A(6,7,12)             111.033          estimate D2E/DX2                !
 ! A17   A(6,7,13)             111.0681         estimate D2E/DX2                !
 ! A18   A(6,7,14)             112.3092         estimate D2E/DX2                !
 ! A19   A(12,7,13)            107.5262         estimate D2E/DX2                !
 ! A20   A(12,7,14)            106.059          estimate D2E/DX2                !
 ! A21   A(13,7,14)            108.6016         estimate D2E/DX2                !
 ! A22   A(5,8,9)              115.1494         estimate D2E/DX2                !
 ! A23   A(5,8,15)             111.1554         estimate D2E/DX2                !
 ! A24   A(5,8,16)             109.7153         estimate D2E/DX2                !
 ! A25   A(9,8,15)             109.1965         estimate D2E/DX2                !
 ! A26   A(9,8,16)             104.6032         estimate D2E/DX2                !
 ! A27   A(15,8,16)            106.4897         estimate D2E/DX2                !
 ! A28   A(8,9,17)             110.9302         estimate D2E/DX2                !
 ! A29   A(8,9,18)             111.1421         estimate D2E/DX2                !
 ! A30   A(8,9,19)             112.1772         estimate D2E/DX2                !
 ! A31   A(17,9,18)            107.3192         estimate D2E/DX2                !
 ! A32   A(17,9,19)            106.2605         estimate D2E/DX2                !
 ! A33   A(18,9,19)            108.7726         estimate D2E/DX2                !
 ! D1    D(2,1,5,6)           -153.845          estimate D2E/DX2                !
 ! D2    D(2,1,5,8)             77.9211         estimate D2E/DX2                !
 ! D3    D(3,1,5,6)             84.4748         estimate D2E/DX2                !
 ! D4    D(3,1,5,8)            -43.7591         estimate D2E/DX2                !
 ! D5    D(4,1,5,6)            -36.727          estimate D2E/DX2                !
 ! D6    D(4,1,5,8)           -164.9609         estimate D2E/DX2                !
 ! D7    D(1,5,6,7)            167.8746         estimate D2E/DX2                !
 ! D8    D(1,5,6,10)           -66.8319         estimate D2E/DX2                !
 ! D9    D(1,5,6,11)            50.4426         estimate D2E/DX2                !
 ! D10   D(8,5,6,7)            -62.7613         estimate D2E/DX2                !
 ! D11   D(8,5,6,10)            62.5323         estimate D2E/DX2                !
 ! D12   D(8,5,6,11)           179.8068         estimate D2E/DX2                !
 ! D13   D(1,5,8,9)            -54.7332         estimate D2E/DX2                !
 ! D14   D(1,5,8,15)            70.0989         estimate D2E/DX2                !
 ! D15   D(1,5,8,16)          -172.386          estimate D2E/DX2                !
 ! D16   D(6,5,8,9)            176.3833         estimate D2E/DX2                !
 ! D17   D(6,5,8,15)           -58.7846         estimate D2E/DX2                !
 ! D18   D(6,5,8,16)            58.7305         estimate D2E/DX2                !
 ! D19   D(5,6,7,12)          -164.4459         estimate D2E/DX2                !
 ! D20   D(5,6,7,13)           -44.8499         estimate D2E/DX2                !
 ! D21   D(5,6,7,14)            76.9909         estimate D2E/DX2                !
 ! D22   D(10,6,7,12)           69.6361         estimate D2E/DX2                !
 ! D23   D(10,6,7,13)         -170.7679         estimate D2E/DX2                !
 ! D24   D(10,6,7,14)          -48.9272         estimate D2E/DX2                !
 ! D25   D(11,6,7,12)          -44.133          estimate D2E/DX2                !
 ! D26   D(11,6,7,13)           75.463          estimate D2E/DX2                !
 ! D27   D(11,6,7,14)         -162.6963         estimate D2E/DX2                !
 ! D28   D(5,8,9,17)          -169.4774         estimate D2E/DX2                !
 ! D29   D(5,8,9,18)           -50.1609         estimate D2E/DX2                !
 ! D30   D(5,8,9,19)            71.8607         estimate D2E/DX2                !
 ! D31   D(15,8,9,17)           64.6753         estimate D2E/DX2                !
 ! D32   D(15,8,9,18)         -176.0082         estimate D2E/DX2                !
 ! D33   D(15,8,9,19)          -53.9867         estimate D2E/DX2                !
 ! D34   D(16,8,9,17)          -48.9842         estimate D2E/DX2                !
 ! D35   D(16,8,9,18)           70.3323         estimate D2E/DX2                !
 ! D36   D(16,8,9,19)         -167.6462         estimate D2E/DX2                !
 --------------------------------------------------------------------------------
 Trust Radius=3.00D-01 FncErr=5.00D-06 GrdErr=5.00D-06 EigMax=2.50D+02 EigMin=1.00D-04
 Number of steps in this run=     97 maximum allowed number of steps=    114.
 GradGradGradGradGradGradGradGradGradGradGradGradGradGradGradGradGradGrad

                          Input orientation:                          
 ---------------------------------------------------------------------
 Center     Atomic      Atomic             Coordinates (Angstroms)
 Number     Number       Type             X           Y           Z
 ---------------------------------------------------------------------
      1          5           0       -1.668578    0.658294   -0.068017
      2          9           0       -1.736601    1.907804   -0.967472
      3          9           0       -1.888130    1.080442    1.397468
      4          9           0       -2.888462   -0.188219   -0.481460
      5          8           0       -0.389196   -0.034782   -0.252324
      6          6           0       -0.467876   -1.428577    0.044008
      7          6           0        0.748365   -2.257544   -0.405198
      8          6           0        0.701272    0.583985    0.427955
      9          6           0        0.916943    2.070699    0.100171
     10          1           0       -0.657873   -1.595740    1.131351
     11          1           0       -1.332394   -1.881140   -0.500475
     12          1           0        0.512791   -3.347170   -0.402925
     13          1           0        1.059816   -1.983745   -1.439370
     14          1           0        1.620931   -2.129751    0.273956
     15          1           0        0.607926    0.461676    1.533613
     16          1           0        1.658368    0.089091    0.133942
     17          1           0        1.886270    2.433346    0.514603
     18          1           0        0.942905    2.239820   -1.000776
     19          1           0        0.127062    2.717492    0.543365
 ---------------------------------------------------------------------
                    Distance matrix (angstroms):
                    1          2          3          4          5
     1  B    0.000000
     2  F    1.541078   0.000000
     3  F    1.540798   2.510066   0.000000
     4  F    1.541310   2.440554   2.478010   0.000000
     5  O    1.466677   2.469935   2.492457   2.514434   0.000000
     6  C    2.410242   3.710013   3.184988   2.770170   1.427119
     7  C    3.802291   4.882759   4.619833   4.185025   2.501617
     8  C    2.422333   3.105308   2.809169   3.782793   1.426455
     9  C    2.950948   2.864907   3.245308   4.463419   2.502659
    10  H    2.746029   4.224161   2.957415   3.091570   2.103172
    11  H    2.597838   3.838954   3.561179   2.299498   2.088119
    12  H    4.573213   5.743973   5.348793   4.642592   3.436303
    13  H    4.037959   4.815266   5.111485   4.441892   2.703178
    14  H    4.325622   5.395926   4.886832   4.967376   2.950674
    15  H    2.790403   3.720688   2.575209   4.087495   2.104826
    16  H    3.381324   4.005826   3.893189   4.596660   2.087358
    17  H    4.015869   3.949422   4.105593   5.537401   3.443483
    18  H    3.192351   2.700203   3.887221   4.565571   2.740162
    19  H    2.799716   2.532087   2.733208   4.311242   2.911126
                    6          7          8          9         10
     6  C    0.000000
     7  C    1.538900   0.000000
     8  C    2.358968   2.961528   0.000000
     9  C    3.763750   4.360906   1.537620   0.000000
    10  H    1.116404   2.185514   2.663314   4.121426   0.000000
    11  H    1.117437   2.116676   3.327855   4.586646   1.788655
    12  H    2.200558   1.114803   4.022420   5.456166   2.606140
    13  H    2.200560   1.114217   3.195105   4.339253   3.116025
    14  H    2.215318   1.113082   2.869469   4.262579   2.492637
    15  H    2.636158   3.342584   1.116312   2.176971   2.448882
    16  H    2.613870   2.573999   1.116869   2.116039   3.032895
    17  H    4.547297   4.913788   2.198150   1.114837   4.804849
    18  H    4.066819   4.540797   2.200329   1.114163   4.671186
    19  H    4.218198   5.102624   2.212440   1.112957   4.423327
                   11         12         13         14         15
    11  H    0.000000
    12  H    2.358700   0.000000
    13  H    2.571910   1.797883   0.000000
    14  H    3.063279   1.779958   1.808771   0.000000
    15  H    3.659391   4.273937   3.875941   3.054244   0.000000
    16  H    3.637163   3.661757   2.670248   2.223570   1.789225
    17  H    5.477679   6.011877   4.900176   4.577136   2.561255
    18  H    4.733878   5.635324   4.247886   4.601936   3.114022
    19  H    4.936297   6.150153   5.186800   5.079369   2.510085
                   16         17         18         19
    16  H    0.000000
    17  H    2.385870   0.000000
    18  H    2.534780   1.795484   0.000000
    19  H    3.069368   1.782240   1.810564   0.000000
 Stoichiometry    C4H10BF3O
 Framework group  C1[X(C4H10BF3O)]
 Deg. of freedom    51
 Full point group                 C1      NOp   1
 Largest Abelian subgroup         C1      NOp   1
 Largest concise Abelian subgroup C1      NOp   1
                         Standard orientation:                         
 ---------------------------------------------------------------------
 Center     Atomic      Atomic             Coordinates (Angstroms)
 Number     Number       Type             X           Y           Z
 ---------------------------------------------------------------------
      1          5           0       -0.876547   -0.566638   -0.025366
      2          9           0       -1.904806   -0.016820   -1.032990
      3          9           0       -1.405118   -0.344947    1.404853
      4          9           0       -0.863288   -2.088216   -0.270846
      5          8           0        0.429692    0.067932   -0.230796
      6          6           0        1.515920   -0.750378    0.201807
      7          6           0        2.907813   -0.273618   -0.249354
      8          6           0        0.518835    1.384751    0.310329
      9          6           0       -0.564093    2.364063   -0.171842
     10          1           0        1.502103   -0.879264    1.310660
     11          1           0        1.414300   -1.773469   -0.235941
     12          1           0        3.666489   -1.081209   -0.126912
     13          1           0        2.901514    0.020716   -1.323974
     14          1           0        3.275052    0.587669    0.352537
     15          1           0        0.522743    1.362271    1.426408
     16          1           0        1.482760    1.855429   -0.000649
     17          1           0       -0.323820    3.407651    0.138085
     18          1           0       -0.645056    2.358385   -1.283045
     19          1           0       -1.562840    2.132486    0.261230
 ---------------------------------------------------------------------
 Rotational constants (GHZ):           1.7576319           1.3302101           0.9590643
 Standard basis: Aug-CC-pVDZ (5D, 7F)
 There are   315 symmetry adapted cartesian basis functions of A   symmetry.
 There are   297 symmetry adapted basis functions of A   symmetry.
   297 basis functions,   497 primitive gaussians,   315 cartesian basis functions
    37 alpha electrons       37 beta electrons
       nuclear repulsion energy       514.0244593470 Hartrees.
 NAtoms=   19 NActive=   19 NUniq=   19 SFac= 1.00D+00 NAtFMM=   60 NAOKFM=F Big=F
 Integral buffers will be    131072 words long.
 Raffenetti 2 integral format.
 Two-electron integral symmetry is turned on.
 Nuclear repulsion after empirical dispersion term =      514.0122201598 Hartrees.
 Force PCM accuracy= 1.00D-12.
 ------------------------------------------------------------------------------
 Polarizable Continuum Model (PCM)
 =================================
 Model                : C-PCM.
 Atomic radii         : UFF (Universal Force Field).
 Polarization charges : Total charges.
 Charge compensation  : None.
 Solution method      : On-the-fly selection.
 Cavity type          : Scaled VdW (van der Waals Surface) (Alpha=1.100).
 Cavity algorithm     : GePol (No added spheres)
                        Default sphere list used, NSphG=   19.
                        Lebedev-Laikov grids with approx.  5.0 points / Ang**2.
                        Smoothing algorithm: York/Karplus (Gamma=1.0000).
                        Polarization charges: spherical gaussians, with
                                              point-specific exponents (IZeta= 3).
                        Self-potential: point-specific (ISelfS= 7).
                        Self-field    : sphere-specific E.n sum rule (ISelfD= 2).
 1st derivatives      : Analytical E(r).r(x)/FMM algorithm (CHGder, D1EAlg=3).
                        Cavity 1st derivative terms included.
 Solvent              : TetraHydroFuran, Eps=   7.425700 Eps(inf)=   1.974025
 ------------------------------------------------------------------------------
 Spheres list:
 ISph  on   Nord     Re0    Alpha      Xe            Ye            Ze
    1   B      1    2.0415  1.100     -0.876547     -0.566638     -0.025366
    2   F      2    1.6820  1.100     -1.904806     -0.016820     -1.032990
    3   F      3    1.6820  1.100     -1.405118     -0.344947      1.404853
    4   F      4    1.6820  1.100     -0.863288     -2.088216     -0.270846
    5   O      5    1.7500  1.100      0.429692      0.067932     -0.230796
    6   C      6    1.9255  1.100      1.515920     -0.750378      0.201807
    7   C      7    1.9255  1.100      2.907813     -0.273618     -0.249354
    8   C      8    1.9255  1.100      0.518835      1.384751      0.310329
    9   C      9    1.9255  1.100     -0.564093      2.364063     -0.171842
   10   H     10    1.4430  1.100      1.502103     -0.879264      1.310660
   11   H     11    1.4430  1.100      1.414300     -1.773469     -0.235941
   12   H     12    1.4430  1.100      3.666489     -1.081209     -0.126912
   13   H     13    1.4430  1.100      2.901514      0.020716     -1.323974
   14   H     14    1.4430  1.100      3.275052      0.587669      0.352537
   15   H     15    1.4430  1.100      0.522743      1.362271      1.426408
   16   H     16    1.4430  1.100      1.482760      1.855429     -0.000649
   17   H     17    1.4430  1.100     -0.323820      3.407651      0.138085
   18   H     18    1.4430  1.100     -0.645056      2.358385     -1.283045
   19   H     19    1.4430  1.100     -1.562840      2.132486      0.261230
 ------------------------------------------------------------------------------
 One-electron integrals computed using PRISM.
 NBasis=   297 RedAO= T EigKep=  3.04D-05  NBF=   297
 NBsUse=   297 1.00D-06 EigRej= -1.00D+00 NBFU=   297
 ExpMin= 2.38D-02 ExpMax= 1.47D+04 ExpMxC= 5.03D+02 IAcc=3 IRadAn=         5 AccDes= 0.00D+00
 Harris functional with IExCor= 4639 and IRadAn=       5 diagonalized for initial guess.
 HarFok:  IExCor= 4639 AccDes= 0.00D+00 IRadAn=         5 IDoV= 1 UseB2=F ITyADJ=14
 ICtDFT=  3500011 ScaDFX=  1.000000  1.000000  1.000000  1.000000
 FoFCou: FMM=F IPFlag=           0 FMFlag=      100000 FMFlg1=           0
         NFxFlg=           0 DoJE=T BraDBF=F KetDBF=T FulRan=T
         wScrn=  0.000000 ICntrl=       500 IOpCl=  0 I1Cent=   200000004 NGrid=           0
         NMat0=    1 NMatS0=      1 NMatT0=    0 NMatD0=    1 NMtDS0=    0 NMtDT0=    0
 Petite list used in FoFCou.
 Requested convergence on RMS density matrix=1.00D-08 within 128 cycles.
 Requested convergence on MAX density matrix=1.00D-06.
 Requested convergence on             energy=1.00D-06.
 No special actions if energy rises.
 Inv3:  Mode=1 IEnd=     6976875.
 Iteration    1 A*A^-1 deviation from unit magnitude is 3.11D-15 for   1508.
 Iteration    1 A*A^-1 deviation from orthogonality  is 3.27D-15 for   1508    972.
 Iteration    1 A^-1*A deviation from unit magnitude is 3.11D-15 for   1508.
 Iteration    1 A^-1*A deviation from orthogonality  is 1.51D-15 for   1515   1182.
 Error on total polarization charges =  0.00995
 SCF Done:  E(RwB97XD) =  -558.097304962     A.U. after   12 cycles
            NFock= 12  Conv=0.69D-08     -V/T= 2.0075

 **********************************************************************

            Population analysis using the SCF Density.

 **********************************************************************

 Orbital symmetries:
       Occupied  (A) (A) (A) (A) (A) (A) (A) (A) (A) (A) (A) (A)
                 (A) (A) (A) (A) (A) (A) (A) (A) (A) (A) (A) (A)
                 (A) (A) (A) (A) (A) (A) (A) (A) (A) (A) (A) (A)
                 (A)
       Virtual   (A) (A) (A) (A) (A) (A) (A) (A) (A) (A) (A) (A)
                 (A) (A) (A) (A) (A) (A) (A) (A) (A) (A) (A) (A)
                 (A) (A) (A) (A) (A) (A) (A) (A) (A) (A) (A) (A)
                 (A) (A) (A) (A) (A) (A) (A) (A) (A) (A) (A) (A)
                 (A) (A) (A) (A) (A) (A) (A) (A) (A) (A) (A) (A)
                 (A) (A) (A) (A) (A) (A) (A) (A) (A) (A) (A) (A)
                 (A) (A) (A) (A) (A) (A) (A) (A) (A) (A) (A) (A)
                 (A) (A) (A) (A) (A) (A) (A) (A) (A) (A) (A) (A)
                 (A) (A) (A) (A) (A) (A) (A) (A) (A) (A) (A) (A)
                 (A) (A) (A) (A) (A) (A) (A) (A) (A) (A) (A) (A)
                 (A) (A) (A) (A) (A) (A) (A) (A) (A) (A) (A) (A)
                 (A) (A) (A) (A) (A) (A) (A) (A) (A) (A) (A) (A)
                 (A) (A) (A) (A) (A) (A) (A) (A) (A) (A) (A) (A)
                 (A) (A) (A) (A) (A) (A) (A) (A) (A) (A) (A) (A)
                 (A) (A) (A) (A) (A) (A) (A) (A) (A) (A) (A) (A)
                 (A) (A) (A) (A) (A) (A) (A) (A) (A) (A) (A) (A)
                 (A) (A) (A) (A) (A) (A) (A) (A) (A) (A) (A) (A)
                 (A) (A) (A) (A) (A) (A) (A) (A) (A) (A) (A) (A)
                 (A) (A) (A) (A) (A) (A) (A) (A) (A) (A) (A) (A)
                 (A) (A) (A) (A) (A) (A) (A) (A) (A) (A) (A) (A)
                 (A) (A) (A) (A) (A) (A) (A) (A) (A) (A) (A) (A)
                 (A) (A) (A) (A) (A) (A) (A) (A)
 The electronic state is 1-A.
 Alpha  occ. eigenvalues --  -24.80732 -24.80482 -24.79980 -19.42325 -10.39500
 Alpha  occ. eigenvalues --  -10.39498 -10.32036 -10.31349  -7.04432  -1.29986
 Alpha  occ. eigenvalues --   -1.26049  -1.24291  -1.23787  -0.91976  -0.87961
 Alpha  occ. eigenvalues --   -0.78572  -0.76745  -0.69760  -0.64782  -0.63374
 Alpha  occ. eigenvalues --   -0.61337  -0.56546  -0.56236  -0.54957  -0.51471
 Alpha  occ. eigenvalues --   -0.50891  -0.50335  -0.49226  -0.49063  -0.48567
 Alpha  occ. eigenvalues --   -0.47463  -0.46725  -0.46153  -0.46017  -0.45455
 Alpha  occ. eigenvalues --   -0.44092  -0.43694
 Alpha virt. eigenvalues --    0.03573   0.04590   0.04909   0.05006   0.06607
 Alpha virt. eigenvalues --    0.06788   0.07047   0.07336   0.07656   0.09195
 Alpha virt. eigenvalues --    0.09212   0.09684   0.11031   0.11143   0.13641
 Alpha virt. eigenvalues --    0.13743   0.14059   0.14522   0.14584   0.15277
 Alpha virt. eigenvalues --    0.15620   0.16679   0.17427   0.17584   0.18137
 Alpha virt. eigenvalues --    0.18177   0.18659   0.19132   0.20026   0.20880
 Alpha virt. eigenvalues --    0.21682   0.22240   0.22540   0.22849   0.24250
 Alpha virt. eigenvalues --    0.24695   0.25250   0.25696   0.26680   0.27049
 Alpha virt. eigenvalues --    0.27971   0.28140   0.28758   0.29420   0.29772
 Alpha virt. eigenvalues --    0.31623   0.32017   0.32527   0.33067   0.33241
 Alpha virt. eigenvalues --    0.34487   0.35138   0.36069   0.36586   0.37368
 Alpha virt. eigenvalues --    0.38214   0.38410   0.39408   0.39890   0.40611
 Alpha virt. eigenvalues --    0.41013   0.41770   0.42288   0.42416   0.43109
 Alpha virt. eigenvalues --    0.43606   0.44494   0.45035   0.46121   0.46461
 Alpha virt. eigenvalues --    0.46835   0.48000   0.48821   0.50660   0.51441
 Alpha virt. eigenvalues --    0.51940   0.53016   0.53122   0.53871   0.54625
 Alpha virt. eigenvalues --    0.55765   0.56322   0.57145   0.57915   0.58227
 Alpha virt. eigenvalues --    0.59055   0.59975   0.60431   0.60784   0.62008
 Alpha virt. eigenvalues --    0.63636   0.63809   0.64511   0.65855   0.66394
 Alpha virt. eigenvalues --    0.67160   0.67881   0.69744   0.69938   0.70473
 Alpha virt. eigenvalues --    0.71741   0.72046   0.73234   0.74039   0.75137
 Alpha virt. eigenvalues --    0.75871   0.76501   0.77418   0.78032   0.78461
 Alpha virt. eigenvalues --    0.79098   0.80675   0.80953   0.82259   0.83242
 Alpha virt. eigenvalues --    0.84041   0.86032   0.86434   0.88595   0.89043
 Alpha virt. eigenvalues --    0.91858   0.93830   0.95591   0.96471   0.97781
 Alpha virt. eigenvalues --    0.98929   1.01205   1.03691   1.05194   1.06067
 Alpha virt. eigenvalues --    1.07411   1.09770   1.11060   1.13300   1.14399
 Alpha virt. eigenvalues --    1.19762   1.19948   1.21045   1.23020   1.23984
 Alpha virt. eigenvalues --    1.29865   1.31034   1.32760   1.33513   1.34630
 Alpha virt. eigenvalues --    1.36754   1.38222   1.39028   1.40386   1.41862
 Alpha virt. eigenvalues --    1.43326   1.44685   1.45612   1.47757   1.48392
 Alpha virt. eigenvalues --    1.48853   1.49707   1.52423   1.54536   1.55178
 Alpha virt. eigenvalues --    1.56648   1.57659   1.59659   1.61324   1.62499
 Alpha virt. eigenvalues --    1.63763   1.65755   1.67024   1.67373   1.68157
 Alpha virt. eigenvalues --    1.69745   1.70366   1.72322   1.73610   1.75217
 Alpha virt. eigenvalues --    1.76205   1.78220   1.78666   1.80670   1.82911
 Alpha virt. eigenvalues --    1.84128   1.85317   1.86886   1.87398   1.89772
 Alpha virt. eigenvalues --    1.91714   1.92229   1.95389   1.95800   1.96476
 Alpha virt. eigenvalues --    1.96999   1.99215   2.01224   2.03071   2.04521
 Alpha virt. eigenvalues --    2.06846   2.07240   2.08511   2.10165   2.12008
 Alpha virt. eigenvalues --    2.14013   2.15667   2.17455   2.19585   2.20985
 Alpha virt. eigenvalues --    2.21894   2.23395   2.26672   2.27517   2.28225
 Alpha virt. eigenvalues --    2.31863   2.33203   2.35560   2.39219   2.42093
 Alpha virt. eigenvalues --    2.44559   2.46627   2.48381   2.51980   2.52593
 Alpha virt. eigenvalues --    2.56765   2.58171   2.59462   2.61108   2.66177
 Alpha virt. eigenvalues --    2.68189   2.71779   2.76072   2.79127   2.80222
 Alpha virt. eigenvalues --    2.84776   2.86690   2.88250   2.95163   2.98011
 Alpha virt. eigenvalues --    3.03342   3.08252   3.23007   3.29000   3.38909
 Alpha virt. eigenvalues --    3.57957   3.67312   3.68066   3.83311   3.92181
 Alpha virt. eigenvalues --    4.64311   4.64509   4.65895   4.66833   4.70687
 Alpha virt. eigenvalues --    4.72938   4.74560   4.76153   4.78178   4.79044
 Alpha virt. eigenvalues --    4.80153   4.82823   4.86347   4.91884   4.92443
          Condensed to atoms (all electrons):
               1          2          3          4          5          6
     1  B    3.463697   0.047505   0.090920   0.159301  -0.230079  -0.097744
     2  F    0.047505   9.649068  -0.107961  -0.098985   0.133851   0.059433
     3  F    0.090920  -0.107961   9.784871  -0.147562  -0.023775  -0.042915
     4  F    0.159301  -0.098985  -0.147562   9.863706  -0.157745  -0.060846
     5  O   -0.230079   0.133851  -0.023775  -0.157745   9.850154   0.050365
     6  C   -0.097744   0.059433  -0.042915  -0.060846   0.050365   5.134593
     7  C    0.034096   0.006600  -0.018194   0.010963  -0.170874   0.290827
     8  C   -0.000969  -0.115873   0.026261   0.024150  -0.025812  -0.134172
     9  C    0.004284   0.018203  -0.019043   0.009851  -0.107266  -0.100066
    10  H   -0.068530   0.003453   0.028221  -0.007752   0.105177  -0.166784
    11  H    0.037167  -0.001261   0.015623  -0.005135  -0.310823   0.186055
    12  H    0.002611   0.001875  -0.001549  -0.001700   0.091187   0.068159
    13  H   -0.004975  -0.000127   0.000057  -0.001843  -0.098921  -0.123876
    14  H    0.015558  -0.001686   0.001243   0.003486  -0.094872   0.008241
    15  H   -0.082355   0.003083   0.013061   0.005690   0.102644   0.071630
    16  H    0.086680   0.002593  -0.003011  -0.002973  -0.302762  -0.148774
    17  H    0.007731   0.004836   0.001188  -0.000011   0.071240   0.006282
    18  H   -0.013926   0.000975   0.001821   0.004700  -0.049221   0.001771
    19  H    0.044250  -0.018054   0.029337   0.005320  -0.087091  -0.035208
               7          8          9         10         11         12
     1  B    0.034096  -0.000969   0.004284  -0.068530   0.037167   0.002611
     2  F    0.006600  -0.115873   0.018203   0.003453  -0.001261   0.001875
     3  F   -0.018194   0.026261  -0.019043   0.028221   0.015623  -0.001549
     4  F    0.010963   0.024150   0.009851  -0.007752  -0.005135  -0.001700
     5  O   -0.170874  -0.025812  -0.107266   0.105177  -0.310823   0.091187
     6  C    0.290827  -0.134172  -0.100066  -0.166784   0.186055   0.068159
     7  C    4.716543  -0.032239   0.012491  -0.115222  -0.148677   0.316266
     8  C   -0.032239   4.970558   0.170051   0.041561   0.009598  -0.029669
     9  C    0.012491   0.170051   4.801818   0.049553  -0.027413   0.011747
    10  H   -0.115222   0.041561   0.049553   1.658247  -0.225213  -0.062638
    11  H   -0.148677   0.009598  -0.027413  -0.225213   1.945918  -0.159339
    12  H    0.316266  -0.029669   0.011747  -0.062638  -0.159339   1.498483
    13  H    0.361001   0.023794   0.000813   0.105209  -0.089812  -0.236707
    14  H    0.272170   0.033469  -0.018544  -0.130124   0.123235  -0.309732
    15  H   -0.023816   0.004288  -0.091284  -0.015893  -0.001586  -0.000866
    16  H    0.062151   0.103132  -0.157517   0.016784   0.022384  -0.010198
    17  H    0.004260   0.048583   0.262630   0.001214  -0.002257   0.001629
    18  H   -0.015177  -0.124977   0.391266  -0.000669  -0.000452  -0.000689
    19  H    0.009619   0.040542   0.287266   0.001200  -0.002273   0.000321
              13         14         15         16         17         18
     1  B   -0.004975   0.015558  -0.082355   0.086680   0.007731  -0.013926
     2  F   -0.000127  -0.001686   0.003083   0.002593   0.004836   0.000975
     3  F    0.000057   0.001243   0.013061  -0.003011   0.001188   0.001821
     4  F   -0.001843   0.003486   0.005690  -0.002973  -0.000011   0.004700
     5  O   -0.098921  -0.094872   0.102644  -0.302762   0.071240  -0.049221
     6  C   -0.123876   0.008241   0.071630  -0.148774   0.006282   0.001771
     7  C    0.361001   0.272170  -0.023816   0.062151   0.004260  -0.015177
     8  C    0.023794   0.033469   0.004288   0.103132   0.048583  -0.124977
     9  C    0.000813  -0.018544  -0.091284  -0.157517   0.262630   0.391266
    10  H    0.105209  -0.130124  -0.015893   0.016784   0.001214  -0.000669
    11  H   -0.089812   0.123235  -0.001586   0.022384  -0.002257  -0.000452
    12  H   -0.236707  -0.309732  -0.000866  -0.010198   0.001629  -0.000689
    13  H    1.395171  -0.230132  -0.002219  -0.001642  -0.002092   0.001850
    14  H   -0.230132   1.392665  -0.014503   0.013219  -0.002474  -0.000254
    15  H   -0.002219  -0.014503   1.550115  -0.306472  -0.069644   0.107780
    16  H   -0.001642   0.013219  -0.306472   2.201567  -0.095091  -0.121733
    17  H   -0.002092  -0.002474  -0.069644  -0.095091   1.445941  -0.228863
    18  H    0.001850  -0.000254   0.107780  -0.121733  -0.228863   1.385366
    19  H    0.000876   0.001920  -0.134156   0.101941  -0.278835  -0.241976
              19
     1  B    0.044250
     2  F   -0.018054
     3  F    0.029337
     4  F    0.005320
     5  O   -0.087091
     6  C   -0.035208
     7  C    0.009619
     8  C    0.040542
     9  C    0.287266
    10  H    0.001200
    11  H   -0.002273
    12  H    0.000321
    13  H    0.000876
    14  H    0.001920
    15  H   -0.134156
    16  H    0.101941
    17  H   -0.278835
    18  H   -0.241976
    19  H    1.373118
 Mulliken charges:
               1
     1  B    1.504779
     2  F   -0.587528
     3  F   -0.628594
     4  F   -0.602616
     5  O   -0.745377
     6  C    1.033029
     7  C    0.427211
     8  C    0.967724
     9  C    0.501162
    10  H   -0.217794
    11  H   -0.365738
    12  H   -0.179191
    13  H   -0.096425
    14  H   -0.062886
    15  H   -0.115498
    16  H   -0.460278
    17  H   -0.176268
    18  H   -0.097593
    19  H   -0.098120
 Sum of Mulliken charges =  -0.00000
 Mulliken charges with hydrogens summed into heavy atoms:
               1
     1  B    1.504779
     2  F   -0.587528
     3  F   -0.628594
     4  F   -0.602616
     5  O   -0.745377
     6  C    0.449497
     7  C    0.088709
     8  C    0.391948
     9  C    0.129181
 Electronic spatial extent (au):  <R**2>=           1311.1932
 Charge=             -0.0000 electrons
 Dipole moment (field-independent basis, Debye):
    X=              8.8707    Y=              4.3620    Z=              0.6108  Tot=              9.9040
 Quadrupole moment (field-independent basis, Debye-Ang):
   XX=            -53.7929   YY=            -51.8712   ZZ=            -56.9432
   XY=             -5.1257   XZ=              0.0127   YZ=              0.3464
 Traceless Quadrupole moment (field-independent basis, Debye-Ang):
   XX=              0.4095   YY=              2.3312   ZZ=             -2.7408
   XY=             -5.1257   XZ=              0.0127   YZ=              0.3464
 Octapole moment (field-independent basis, Debye-Ang**2):
  XXX=             19.5487  YYY=             15.6946  ZZZ=             -1.7245  XYY=              5.6252
  XXY=             -5.0727  XXZ=              2.3758  XZZ=              4.9165  YZZ=             -1.0979
  YYZ=              2.8665  XYZ=              0.0315
 Hexadecapole moment (field-independent basis, Debye-Ang**3):
 XXXX=           -771.9224 YYYY=           -569.9138 ZZZZ=           -190.3828 XXXY=             -8.8171
 XXXZ=             -7.4470 YYYX=             -7.8124 YYYZ=              1.8438 ZZZX=              4.8522
 ZZZY=              0.7369 XXYY=           -222.9307 XXZZ=           -177.1592 YYZZ=           -128.3980
 XXYZ=              1.5877 YYXZ=              0.6708 ZZXY=              1.1533
 N-N= 5.140122201598D+02 E-N=-2.343337502042D+03  KE= 5.539471373691D+02
 D1PCM: C-PCM CHGder 1st derivatives, ID1Alg=3 FixD1E=F DoIter=F DoCFld=F I1PDM=0.
 Calling FoFJK, ICntrl=      2127 FMM=F ISym2X=0 I1Cent= 0 IOpClX= 0 NMat=1 NMatS=1 NMatT=0.
 ***** Axes restored to original set *****
 -------------------------------------------------------------------
 Center     Atomic                   Forces (Hartrees/Bohr)
 Number     Number              X              Y              Z
 -------------------------------------------------------------------
      1        5          -0.099008725    0.056293695    0.001000322
      2        9           0.008866787   -0.054903692    0.038937498
      3        9           0.015701053   -0.020890068   -0.062185611
      4        9           0.059310064    0.029483104    0.017755235
      5        8          -0.006717199    0.003017797   -0.006277239
      6        6          -0.010599916   -0.074837589    0.003202934
      7        6           0.014427013    0.007958365   -0.000183923
      8        6           0.063485469    0.030231264    0.026207532
      9        6          -0.010743263    0.009861101   -0.005437484
     10        1           0.002767977    0.010187765   -0.010346683
     11        1           0.007683185    0.019749125    0.006040375
     12        1          -0.004379427    0.013885937    0.001351468
     13        1          -0.003835295   -0.002305101    0.009332211
     14        1          -0.007355591   -0.000341619   -0.007078715
     15        1          -0.007161770   -0.003114768   -0.013894720
     16        1          -0.019915349   -0.002570940   -0.001625482
     17        1          -0.008529851   -0.011911827   -0.002036859
     18        1          -0.000694155   -0.002400649    0.011260851
     19        1           0.006698994   -0.007391901   -0.006021710
 -------------------------------------------------------------------
 Cartesian Forces:  Max     0.099008725 RMS     0.026843510

 GradGradGradGradGradGradGradGradGradGradGradGradGradGradGradGradGradGrad
 Berny optimization.
 FormGI is forming the generalized inverse of G from B-inverse, IUseBI=4.
 Internal  Forces:  Max     0.067895391 RMS     0.014939809
 Search for a local minimum.
 Step number   1 out of a maximum of   97
 All quantities printed in internal units (Hartrees-Bohrs-Radians)
 Mixed Optimization -- RFO/linear search
 Second derivative matrix not updated -- first step.
 ITU=  0
     Eigenvalues ---    0.00251   0.00268   0.01333   0.01339   0.01342
     Eigenvalues ---    0.02840   0.03984   0.03993   0.05267   0.05280
     Eigenvalues ---    0.05449   0.05478   0.05624   0.05636   0.09809
     Eigenvalues ---    0.09828   0.10871   0.11337   0.13172   0.13184
     Eigenvalues ---    0.16000   0.16000   0.16000   0.16000   0.16000
     Eigenvalues ---    0.16000   0.18004   0.18380   0.21989   0.21998
     Eigenvalues ---    0.25000   0.25000   0.25000   0.28403   0.28424
     Eigenvalues ---    0.28448   0.28617   0.28731   0.31825   0.31883
     Eigenvalues ---    0.31931   0.31941   0.32093   0.32097   0.32158
     Eigenvalues ---    0.32163   0.32276   0.32289   0.36141   0.41406
     Eigenvalues ---    0.41503
 RFO step:  Lambda=-5.93387638D-02 EMin= 2.51369611D-03
 Linear search not attempted -- first point.
 Maximum step size (   0.300) exceeded in Quadratic search.
    -- Step size scaled by   0.717
 Iteration  1 RMS(Cart)=  0.03390735 RMS(Int)=  0.00078921
 Iteration  2 RMS(Cart)=  0.00081065 RMS(Int)=  0.00035344
 Iteration  3 RMS(Cart)=  0.00000137 RMS(Int)=  0.00035344
 Iteration  4 RMS(Cart)=  0.00000000 RMS(Int)=  0.00035344
 Variable       Old X    -DE/DX   Delta X   Delta X   Delta X     New X
                                 (Linear)    (Quad)   (Total)
    R1        2.91222  -0.06763   0.00000  -0.14114  -0.14114   2.77108
    R2        2.91169  -0.06711   0.00000  -0.13995  -0.13995   2.77174
    R3        2.91265  -0.06790   0.00000  -0.14177  -0.14177   2.77088
    R4        2.77162   0.01735   0.00000   0.02956   0.02956   2.80118
    R5        2.69686   0.02566   0.00000   0.03886   0.03886   2.73573
    R6        2.69561   0.02723   0.00000   0.04115   0.04115   2.73676
    R7        2.90810  -0.01224   0.00000  -0.02541  -0.02541   2.88269
    R8        2.10970  -0.01207   0.00000  -0.02286  -0.02286   2.08684
    R9        2.11165  -0.01689   0.00000  -0.03206  -0.03206   2.07959
   R10        2.10667  -0.01264   0.00000  -0.02384  -0.02384   2.08283
   R11        2.10556  -0.01030   0.00000  -0.01939  -0.01939   2.08617
   R12        2.10342  -0.01012   0.00000  -0.01899  -0.01899   2.08443
   R13        2.90568  -0.01283   0.00000  -0.02655  -0.02655   2.87914
   R14        2.10952  -0.01282   0.00000  -0.02427  -0.02427   2.08525
   R15        2.11058  -0.01550   0.00000  -0.02939  -0.02939   2.08119
   R16        2.10674  -0.01205   0.00000  -0.02272  -0.02272   2.08402
   R17        2.10546  -0.01151   0.00000  -0.02166  -0.02166   2.08381
   R18        2.10318  -0.01145   0.00000  -0.02147  -0.02147   2.08171
    A1        1.90360   0.00788   0.00000   0.01844   0.01831   1.92191
    A2        1.82742   0.01251   0.00000   0.03231   0.03221   1.85962
    A3        1.92656  -0.00523   0.00000  -0.01024  -0.01036   1.91620
    A4        1.86798   0.01124   0.00000   0.02280   0.02229   1.89027
    A5        1.95334  -0.00922   0.00000  -0.02313  -0.02346   1.92988
    A6        1.97921  -0.01473   0.00000  -0.03427  -0.03459   1.94462
    A7        1.96853  -0.00094   0.00000   0.00240   0.00220   1.97073
    A8        1.98442   0.00423   0.00000   0.01788   0.01780   2.00222
    A9        1.94633  -0.00023   0.00000   0.00462   0.00444   1.95077
   A10        2.00635  -0.01008   0.00000  -0.02866  -0.02845   1.97790
   A11        1.93677  -0.00172   0.00000  -0.01884  -0.01869   1.91808
   A12        1.91455  -0.00712   0.00000  -0.03690  -0.03641   1.87814
   A13        1.91575   0.00684   0.00000   0.02514   0.02435   1.94010
   A14        1.82456   0.01296   0.00000   0.05172   0.05099   1.87555
   A15        1.85695   0.00048   0.00000   0.01397   0.01235   1.86930
   A16        1.93789  -0.01085   0.00000  -0.03734  -0.03739   1.90050
   A17        1.93850   0.00017   0.00000   0.00047   0.00035   1.93885
   A18        1.96017   0.00282   0.00000   0.01121   0.01123   1.97139
   A19        1.87669   0.00404   0.00000   0.00940   0.00921   1.88590
   A20        1.85108   0.00444   0.00000   0.01474   0.01484   1.86591
   A21        1.89546  -0.00022   0.00000   0.00266   0.00261   1.89807
   A22        2.00974  -0.00476   0.00000  -0.01464  -0.01444   1.99530
   A23        1.94003  -0.00437   0.00000  -0.02580  -0.02574   1.91429
   A24        1.91489  -0.00741   0.00000  -0.03635  -0.03618   1.87871
   A25        1.90584   0.00631   0.00000   0.02567   0.02515   1.93099
   A26        1.82567   0.00986   0.00000   0.04134   0.04086   1.86652
   A27        1.85860   0.00155   0.00000   0.01567   0.01418   1.87278
   A28        1.93610  -0.01234   0.00000  -0.04176  -0.04183   1.89427
   A29        1.93980   0.00088   0.00000   0.00287   0.00278   1.94258
   A30        1.95786   0.00153   0.00000   0.00643   0.00642   1.96428
   A31        1.87307   0.00485   0.00000   0.01310   0.01296   1.88604
   A32        1.85460   0.00582   0.00000   0.01910   0.01911   1.87371
   A33        1.89844  -0.00025   0.00000   0.00173   0.00170   1.90014
    D1       -2.68510   0.00051   0.00000   0.00983   0.00987  -2.67523
    D2        1.35998  -0.00206   0.00000  -0.01454  -0.01456   1.34542
    D3        1.47436   0.00043   0.00000   0.00931   0.00950   1.48386
    D4       -0.76374  -0.00214   0.00000  -0.01506  -0.01494  -0.77868
    D5       -0.64101   0.00336   0.00000   0.02182   0.02169  -0.61932
    D6       -2.87911   0.00079   0.00000  -0.00256  -0.00275  -2.88186
    D7        2.92996  -0.00101   0.00000  -0.00986  -0.00980   2.92017
    D8       -1.16644  -0.00119   0.00000  -0.01437  -0.01426  -1.18069
    D9        0.88039  -0.00601   0.00000  -0.03125  -0.03132   0.84907
   D10       -1.09539   0.00384   0.00000   0.02090   0.02090  -1.07449
   D11        1.09139   0.00365   0.00000   0.01639   0.01644   1.10783
   D12        3.13822  -0.00117   0.00000  -0.00049  -0.00063   3.13759
   D13       -0.95528   0.00192   0.00000   0.01491   0.01494  -0.94033
   D14        1.22346   0.00305   0.00000   0.01651   0.01649   1.23995
   D15       -3.00870  -0.00231   0.00000  -0.00247  -0.00234  -3.01104
   D16        3.07847  -0.00021   0.00000  -0.00789  -0.00796   3.07051
   D17       -1.02598   0.00092   0.00000  -0.00630  -0.00641  -1.03240
   D18        1.02504  -0.00444   0.00000  -0.02528  -0.02524   0.99980
   D19       -2.87012   0.00092   0.00000   0.00218   0.00220  -2.86792
   D20       -0.78278  -0.00106   0.00000  -0.01037  -0.01023  -0.79300
   D21        1.34374   0.00077   0.00000   0.00135   0.00148   1.34523
   D22        1.21538   0.00540   0.00000   0.02903   0.02947   1.24485
   D23       -2.98046   0.00341   0.00000   0.01648   0.01704  -2.96342
   D24       -0.85394   0.00525   0.00000   0.02820   0.02875  -0.82519
   D25       -0.77027  -0.00475   0.00000  -0.02436  -0.02506  -0.79533
   D26        1.31708  -0.00673   0.00000  -0.03691  -0.03749   1.27959
   D27       -2.83959  -0.00490   0.00000  -0.02520  -0.02578  -2.86537
   D28       -2.95794   0.00058   0.00000   0.00100   0.00098  -2.95695
   D29       -0.87547  -0.00087   0.00000  -0.00814  -0.00809  -0.88356
   D30        1.25421   0.00052   0.00000   0.00074   0.00077   1.25498
   D31        1.12880   0.00488   0.00000   0.02565   0.02602   1.15481
   D32       -3.07192   0.00343   0.00000   0.01651   0.01695  -3.05498
   D33       -0.94225   0.00482   0.00000   0.02539   0.02581  -0.91644
   D34       -0.85494  -0.00453   0.00000  -0.02395  -0.02442  -0.87936
   D35        1.22753  -0.00598   0.00000  -0.03309  -0.03349   1.19404
   D36       -2.92598  -0.00459   0.00000  -0.02421  -0.02463  -2.95061
         Item               Value     Threshold  Converged?
 Maximum Force            0.067895     0.000450     NO 
 RMS     Force            0.014940     0.000300     NO 
 Maximum Displacement     0.135673     0.001800     NO 
 RMS     Displacement     0.033837     0.001200     NO 
 Predicted change in Energy=-3.036246D-02
 GradGradGradGradGradGradGradGradGradGradGradGradGradGradGradGradGradGrad

                          Input orientation:                          
 ---------------------------------------------------------------------
 Center     Atomic      Atomic             Coordinates (Angstroms)
 Number     Number       Type             X           Y           Z
 ---------------------------------------------------------------------
      1          5           0       -1.693546    0.666290   -0.070320
      2          9           0       -1.736482    1.848531   -0.936789
      3          9           0       -1.890473    1.059031    1.329073
      4          9           0       -2.816667   -0.186662   -0.471663
      5          8           0       -0.396732   -0.031906   -0.237861
      6          6           0       -0.476893   -1.447564    0.054164
      7          6           0        0.750984   -2.229001   -0.402663
      8          6           0        0.719925    0.593889    0.439509
      9          6           0        0.917703    2.064998    0.096003
     10          1           0       -0.667701   -1.598916    1.131279
     11          1           0       -1.345456   -1.850706   -0.488154
     12          1           0        0.507610   -3.303962   -0.409623
     13          1           0        1.048535   -1.938945   -1.425425
     14          1           0        1.616878   -2.100441    0.268441
     15          1           0        0.615716    0.459696    1.529819
     16          1           0        1.635913    0.066204    0.130614
     17          1           0        1.888277    2.392887    0.504262
     18          1           0        0.934949    2.222747   -0.995223
     19          1           0        0.140998    2.709811    0.536972
 ---------------------------------------------------------------------
                    Distance matrix (angstroms):
                    1          2          3          4          5
     1  B    0.000000
     2  F    1.466393   0.000000
     3  F    1.466741   2.404403   0.000000
     4  F    1.466288   2.350565   2.377443   0.000000
     5  O    1.482321   2.412359   2.424189   2.436123   0.000000
     6  C    2.442155   3.665078   3.147479   2.709411   1.447685
     7  C    3.803799   4.806147   4.559316   4.111452   2.484278
     8  C    2.467795   3.082574   2.796759   3.734565   1.448231
     9  C    2.966930   2.856259   3.227737   4.397469   2.497241
    10  H    2.761767   4.159819   2.932401   3.030171   2.098449
    11  H    2.575077   3.746803   3.473605   2.221211   2.066581
    12  H    4.552265   5.644647   5.273479   4.557655   3.399071
    13  H    4.017782   4.726528   5.021245   4.349706   2.671311
    14  H    4.327640   5.319021   4.838255   4.885348   2.930836
    15  H    2.817059   3.680469   2.584664   4.025539   2.095571
    16  H    3.389067   3.960945   3.854531   4.500238   2.068101
    17  H    4.017554   3.938506   4.091264   5.453714   3.413449
    18  H    3.191707   2.698146   3.839218   4.489319   2.725882
    19  H    2.812533   2.537461   2.734845   4.260832   2.899403
                    6          7          8          9         10
     6  C    0.000000
     7  C    1.525456   0.000000
     8  C    2.397582   2.946002   0.000000
     9  C    3.779516   4.326071   1.523573   0.000000
    10  H    1.104306   2.182350   2.685599   4.124265   0.000000
    11  H    1.100470   2.132012   3.332027   4.560249   1.773503
    12  H    2.151873   1.102188   3.994915   5.408286   2.581263
    13  H    2.181186   1.103954   3.162470   4.285256   3.098036
    14  H    2.203643   1.103033   2.844855   4.227228   2.493054
    15  H    2.647451   3.313892   1.103468   2.173481   2.458430
    16  H    2.600247   2.517032   1.101318   2.124194   3.013401
    17  H    4.532735   4.845390   2.146074   1.102815   4.781282
    18  H    4.070097   4.494778   2.181254   1.102704   4.657854
    19  H    4.230681   5.064273   2.195856   1.101594   4.424062
                   11         12         13         14         15
    11  H    0.000000
    12  H    2.356262   0.000000
    13  H    2.572442   1.785420   0.000000
    14  H    3.067609   1.771640   1.793956   0.000000
    15  H    3.640930   4.235357   3.830703   3.024517   0.000000
    16  H    3.598052   3.594849   2.605166   2.171107   1.775785
    17  H    5.426786   5.932581   4.815977   4.507689   2.531482
    18  H    4.695784   5.574052   4.185410   4.555417   3.096141
    19  H    4.904972   6.098846   5.126945   5.038735   2.504819
                   16         17         18         19
    16  H    0.000000
    17  H    2.369970   0.000000
    18  H    2.531706   1.785004   0.000000
    19  H    3.064075   1.776090   1.793101   0.000000
 Stoichiometry    C4H10BF3O
 Framework group  C1[X(C4H10BF3O)]
 Deg. of freedom    51
 Full point group                 C1      NOp   1
 Largest Abelian subgroup         C1      NOp   1
 Largest concise Abelian subgroup C1      NOp   1
                         Standard orientation:                         
 ---------------------------------------------------------------------
 Center     Atomic      Atomic             Coordinates (Angstroms)
 Number     Number       Type             X           Y           Z
 ---------------------------------------------------------------------
      1          5           0       -0.910981   -0.577186   -0.025747
      2          9           0       -1.868418   -0.032980   -0.993973
      3          9           0       -1.396301   -0.358676    1.341018
      4          9           0       -0.848833   -2.022178   -0.266861
      5          8           0        0.413305    0.060890   -0.216539
      6          6           0        1.511133   -0.780149    0.211501
      7          6           0        2.874125   -0.277627   -0.254054
      8          6           0        0.522613    1.401447    0.320429
      9          6           0       -0.550667    2.364147   -0.172068
     10          1           0        1.484989   -0.902826    1.308660
     11          1           0        1.358468   -1.776842   -0.229326
     12          1           0        3.610772   -1.090006   -0.143554
     13          1           0        2.846752    0.017077   -1.317592
     14          1           0        3.244518    0.574386    0.340560
     15          1           0        0.531978    1.360479    1.423096
     16          1           0        1.493148    1.811390   -0.000365
     17          1           0       -0.272817    3.386078    0.135596
     18          1           0       -0.629415    2.347704   -1.271833
     19          1           0       -1.541184    2.148971    0.259308
 ---------------------------------------------------------------------
 Rotational constants (GHZ):           1.8131016           1.3729189           0.9791971
 Standard basis: Aug-CC-pVDZ (5D, 7F)
 There are   315 symmetry adapted cartesian basis functions of A   symmetry.
 There are   297 symmetry adapted basis functions of A   symmetry.
   297 basis functions,   497 primitive gaussians,   315 cartesian basis functions
    37 alpha electrons       37 beta electrons
       nuclear repulsion energy       521.4334989658 Hartrees.
 NAtoms=   19 NActive=   19 NUniq=   19 SFac= 1.00D+00 NAtFMM=   60 NAOKFM=F Big=F
 Integral buffers will be    131072 words long.
 Raffenetti 2 integral format.
 Two-electron integral symmetry is turned on.
 Nuclear repulsion after empirical dispersion term =      521.4212942014 Hartrees.
 Force PCM accuracy= 1.00D-12.
 ------------------------------------------------------------------------------
 Polarizable Continuum Model (PCM)
 =================================
 Model                : C-PCM.
 Atomic radii         : UFF (Universal Force Field).
 Polarization charges : Total charges.
 Charge compensation  : None.
 Solution method      : On-the-fly selection.
 Cavity type          : Scaled VdW (van der Waals Surface) (Alpha=1.100).
 Cavity algorithm     : GePol (No added spheres)
                        Default sphere list used, NSphG=   19.
                        Lebedev-Laikov grids with approx.  5.0 points / Ang**2.
                        Smoothing algorithm: York/Karplus (Gamma=1.0000).
                        Polarization charges: spherical gaussians, with
                                              point-specific exponents (IZeta= 3).
                        Self-potential: point-specific (ISelfS= 7).
                        Self-field    : sphere-specific E.n sum rule (ISelfD= 2).
 1st derivatives      : Analytical E(r).r(x)/FMM algorithm (CHGder, D1EAlg=3).
                        Cavity 1st derivative terms included.
 Solvent              : TetraHydroFuran, Eps=   7.425700 Eps(inf)=   1.974025
 ------------------------------------------------------------------------------
 Spheres list:
 ISph  on   Nord     Re0    Alpha      Xe            Ye            Ze
    1   B      1    2.0415  1.100     -0.910981     -0.577186     -0.025747
    2   F      2    1.6820  1.100     -1.868418     -0.032980     -0.993973
    3   F      3    1.6820  1.100     -1.396301     -0.358676      1.341018
    4   F      4    1.6820  1.100     -0.848833     -2.022178     -0.266861
    5   O      5    1.7500  1.100      0.413305      0.060890     -0.216539
    6   C      6    1.9255  1.100      1.511133     -0.780149      0.211501
    7   C      7    1.9255  1.100      2.874125     -0.277627     -0.254054
    8   C      8    1.9255  1.100      0.522613      1.401447      0.320429
    9   C      9    1.9255  1.100     -0.550667      2.364147     -0.172068
   10   H     10    1.4430  1.100      1.484989     -0.902826      1.308660
   11   H     11    1.4430  1.100      1.358468     -1.776842     -0.229326
   12   H     12    1.4430  1.100      3.610772     -1.090006     -0.143554
   13   H     13    1.4430  1.100      2.846752      0.017077     -1.317592
   14   H     14    1.4430  1.100      3.244518      0.574386      0.340560
   15   H     15    1.4430  1.100      0.531978      1.360479      1.423096
   16   H     16    1.4430  1.100      1.493148      1.811390     -0.000365
   17   H     17    1.4430  1.100     -0.272817      3.386078      0.135596
   18   H     18    1.4430  1.100     -0.629415      2.347704     -1.271833
   19   H     19    1.4430  1.100     -1.541184      2.148971      0.259308
 ------------------------------------------------------------------------------
 One-electron integrals computed using PRISM.
 NBasis=   297 RedAO= T EigKep=  3.00D-05  NBF=   297
 NBsUse=   297 1.00D-06 EigRej= -1.00D+00 NBFU=   297
 Initial guess from the checkpoint file:  "/inspire/hdd/project/materialscienceresearch/lipenghui-253107030018/g16/00-B-DFT-Shift/04-output/BF3OEt2_THF/BF3OEt2_THF.chk"
 B after Tr=    -0.000000    0.000000   -0.000000
         Rot=    0.999998   -0.001160    0.000582    0.001810 Ang=  -0.26 deg.
 ExpMin= 2.38D-02 ExpMax= 1.47D+04 ExpMxC= 5.03D+02 IAcc=3 IRadAn=         5 AccDes= 0.00D+00
 Harris functional with IExCor= 4639 and IRadAn=       5 diagonalized for initial guess.
 HarFok:  IExCor= 4639 AccDes= 0.00D+00 IRadAn=         5 IDoV= 1 UseB2=F ITyADJ=14
 ICtDFT=  3500011 ScaDFX=  1.000000  1.000000  1.000000  1.000000
 FoFCou: FMM=F IPFlag=           0 FMFlag=      100000 FMFlg1=           0
         NFxFlg=           0 DoJE=T BraDBF=F KetDBF=T FulRan=T
         wScrn=  0.000000 ICntrl=       500 IOpCl=  0 I1Cent=   200000004 NGrid=           0
         NMat0=    1 NMatS0=      1 NMatT0=    0 NMatD0=    1 NMtDS0=    0 NMtDT0=    0
 Petite list used in FoFCou.
 Requested convergence on RMS density matrix=1.00D-08 within 128 cycles.
 Requested convergence on MAX density matrix=1.00D-06.
 Requested convergence on             energy=1.00D-06.
 No special actions if energy rises.
 Inv3:  Mode=1 IEnd=     6885675.
 Iteration    1 A*A^-1 deviation from unit magnitude is 4.22D-15 for   1491.
 Iteration    1 A*A^-1 deviation from orthogonality  is 2.38D-15 for   1501   1069.
 Iteration    1 A^-1*A deviation from unit magnitude is 4.22D-15 for   1491.
 Iteration    1 A^-1*A deviation from orthogonality  is 3.92D-15 for   1501   1069.
 Error on total polarization charges =  0.00980
 SCF Done:  E(RwB97XD) =  -558.131307173     A.U. after   11 cycles
            NFock= 11  Conv=0.38D-08     -V/T= 2.0067
 D1PCM: C-PCM CHGder 1st derivatives, ID1Alg=3 FixD1E=F DoIter=F DoCFld=F I1PDM=0.
 Calling FoFJK, ICntrl=      2127 FMM=F ISym2X=0 I1Cent= 0 IOpClX= 0 NMat=1 NMatS=1 NMatT=0.
 ***** Axes restored to original set *****
 -------------------------------------------------------------------
 Center     Atomic                   Forces (Hartrees/Bohr)
 Number     Number              X              Y              Z
 -------------------------------------------------------------------
      1        5          -0.070184309    0.039452153    0.000056030
      2        9           0.007465970   -0.032149316    0.023122051
      3        9           0.010918427   -0.012073917   -0.035021704
      4        9           0.034790778    0.016235859    0.010005465
      5        8           0.002698449   -0.002631371   -0.001637070
      6        6          -0.002721758   -0.042300579   -0.000041082
      7        6           0.007080341    0.005706541    0.000706707
      8        6           0.035405314    0.016831585    0.012673534
      9        6          -0.007265245    0.003984311   -0.002829227
     10        1           0.002119580    0.006732859   -0.003399479
     11        1           0.003206618    0.010790747    0.001495691
     12        1          -0.002245827    0.004892305    0.000558672
     13        1          -0.002259992   -0.001313732    0.003537705
     14        1          -0.003483983   -0.000184688   -0.002858831
     15        1          -0.005672837   -0.001842145   -0.005629483
     16        1          -0.009704171   -0.002131624   -0.002288625
     17        1          -0.002797112   -0.005237390   -0.000434942
     18        1           0.000213014   -0.001251118    0.004543632
     19        1           0.002436742   -0.003510478   -0.002559042
 -------------------------------------------------------------------
 Cartesian Forces:  Max     0.070184309 RMS     0.016413454

 GradGradGradGradGradGradGradGradGradGradGradGradGradGradGradGradGradGrad
 Berny optimization.
 Using GEDIIS/GDIIS optimizer.
 FormGI is forming the generalized inverse of G from B-inverse, IUseBI=4.
 Internal  Forces:  Max     0.039800697 RMS     0.008756006
 Search for a local minimum.
 Step number   2 out of a maximum of   97
 All quantities printed in internal units (Hartrees-Bohrs-Radians)
 Mixed Optimization -- RFO/linear search
 Update second derivatives using D2CorX and points    1    2
 DE= -3.40D-02 DEPred=-3.04D-02 R= 1.12D+00
 TightC=F SS=  1.41D+00  RLast= 3.20D-01 DXNew= 5.0454D-01 9.6132D-01
 Trust test= 1.12D+00 RLast= 3.20D-01 DXMaxT set to 5.05D-01
 ITU=  1  0
 Use linear search instead of GDIIS.
     Eigenvalues ---    0.00251   0.00268   0.01333   0.01339   0.01342
     Eigenvalues ---    0.02738   0.04073   0.04141   0.05219   0.05259
     Eigenvalues ---    0.05520   0.05528   0.05669   0.05718   0.09713
     Eigenvalues ---    0.09836   0.11397   0.11608   0.13028   0.13113
     Eigenvalues ---    0.15911   0.16000   0.16000   0.16000   0.16000
     Eigenvalues ---    0.16129   0.18065   0.18422   0.19128   0.22020
     Eigenvalues ---    0.22173   0.25000   0.25011   0.26517   0.28415
     Eigenvalues ---    0.28451   0.28634   0.28746   0.31836   0.31895
     Eigenvalues ---    0.31935   0.31993   0.32095   0.32140   0.32160
     Eigenvalues ---    0.32253   0.32281   0.32653   0.37150   0.41105
     Eigenvalues ---    0.41536
 RFO step:  Lambda=-3.89873183D-03 EMin= 2.51378601D-03
 Quartic linear search produced a step of  1.02239.
 Iteration  1 RMS(Cart)=  0.03404966 RMS(Int)=  0.00134324
 Iteration  2 RMS(Cart)=  0.00139900 RMS(Int)=  0.00078334
 Iteration  3 RMS(Cart)=  0.00000479 RMS(Int)=  0.00078333
 Iteration  4 RMS(Cart)=  0.00000001 RMS(Int)=  0.00078333
 Variable       Old X    -DE/DX   Delta X   Delta X   Delta X     New X
                                 (Linear)    (Quad)   (Total)
    R1        2.77108  -0.03980  -0.14429  -0.02536  -0.16965   2.60143
    R2        2.77174  -0.03812  -0.14308  -0.01551  -0.15859   2.61315
    R3        2.77088  -0.03883  -0.14494  -0.01754  -0.16249   2.60840
    R4        2.80118   0.02007   0.03022   0.06089   0.09111   2.89230
    R5        2.73573   0.01524   0.03973   0.00964   0.04938   2.78511
    R6        2.73676   0.01430   0.04207   0.00117   0.04325   2.78001
    R7        2.88269  -0.00597  -0.02598   0.00400  -0.02198   2.86072
    R8        2.08684  -0.00460  -0.02337   0.01113  -0.01224   2.07460
    R9        2.07959  -0.00722  -0.03278   0.01071  -0.02207   2.05751
   R10        2.08283  -0.00428  -0.02437   0.01494  -0.00943   2.07340
   R11        2.08617  -0.00424  -0.01983   0.00750  -0.01233   2.07384
   R12        2.08443  -0.00449  -0.01942   0.00529  -0.01412   2.07031
   R13        2.87914  -0.00647  -0.02714   0.00267  -0.02447   2.85467
   R14        2.08525  -0.00480  -0.02481   0.01235  -0.01247   2.07279
   R15        2.08119  -0.00641  -0.03005   0.01119  -0.01886   2.06233
   R16        2.08402  -0.00418  -0.02323   0.01359  -0.00964   2.07438
   R17        2.08381  -0.00467  -0.02214   0.00876  -0.01338   2.07043
   R18        2.08171  -0.00480  -0.02195   0.00773  -0.01422   2.06749
    A1        1.92191   0.00714   0.01872   0.01713   0.03399   1.95590
    A2        1.85962   0.01111   0.03293   0.03697   0.06858   1.92820
    A3        1.91620  -0.00699  -0.01059  -0.03475  -0.04681   1.86939
    A4        1.89027   0.00970   0.02279   0.03455   0.05508   1.94535
    A5        1.92988  -0.00825  -0.02399  -0.02568  -0.05159   1.87829
    A6        1.94462  -0.01165  -0.03536  -0.02471  -0.06173   1.88289
    A7        1.97073   0.00146   0.00225   0.01674   0.01878   1.98950
    A8        2.00222   0.00124   0.01820  -0.01744   0.00064   2.00285
    A9        1.95077  -0.00072   0.00454  -0.01077  -0.00650   1.94427
   A10        1.97790  -0.00287  -0.02909   0.02408  -0.00453   1.97337
   A11        1.91808  -0.00258  -0.01911  -0.01156  -0.03050   1.88758
   A12        1.87814  -0.00476  -0.03722  -0.00072  -0.03736   1.84078
   A13        1.94010   0.00319   0.02490  -0.00432   0.01927   1.95937
   A14        1.87555   0.00617   0.05213  -0.01701   0.03394   1.90949
   A15        1.86930   0.00102   0.01262   0.00889   0.01849   1.88779
   A16        1.90050  -0.00483  -0.03822   0.01884  -0.01949   1.88101
   A17        1.93885  -0.00040   0.00036  -0.00557  -0.00539   1.93347
   A18        1.97139   0.00108   0.01148  -0.00834   0.00316   1.97455
   A19        1.88590   0.00170   0.00942  -0.00383   0.00527   1.89118
   A20        1.86591   0.00208   0.01517  -0.00643   0.00884   1.87475
   A21        1.89807   0.00051   0.00267   0.00541   0.00804   1.90611
   A22        1.99530  -0.00280  -0.01476  -0.00331  -0.01771   1.97759
   A23        1.91429  -0.00315  -0.02631  -0.00871  -0.03488   1.87941
   A24        1.87871  -0.00408  -0.03700   0.01110  -0.02543   1.85328
   A25        1.93099   0.00371   0.02571  -0.00341   0.02087   1.95186
   A26        1.86652   0.00542   0.04177  -0.00407   0.03665   1.90317
   A27        1.87278   0.00114   0.01450   0.01004   0.02166   1.89444
   A28        1.89427  -0.00596  -0.04276   0.01593  -0.02698   1.86729
   A29        1.94258   0.00017   0.00284  -0.00445  -0.00173   1.94084
   A30        1.96428   0.00024   0.00656  -0.00904  -0.00251   1.96177
   A31        1.88604   0.00227   0.01325  -0.00332   0.00969   1.89573
   A32        1.87371   0.00310   0.01954  -0.00188   0.01762   1.89133
   A33        1.90014   0.00036   0.00174   0.00304   0.00475   1.90489
    D1       -2.67523  -0.00040   0.01009  -0.03800  -0.02762  -2.70285
    D2        1.34542  -0.00190  -0.01489  -0.02212  -0.03685   1.30857
    D3        1.48386   0.00069   0.00971  -0.01959  -0.00965   1.47421
    D4       -0.77868  -0.00081  -0.01527  -0.00371  -0.01889  -0.79757
    D5       -0.61932   0.00177   0.02217  -0.02944  -0.00759  -0.62691
    D6       -2.88186   0.00027  -0.00281  -0.01356  -0.01683  -2.89869
    D7        2.92017  -0.00062  -0.01002  -0.00287  -0.01286   2.90731
    D8       -1.18069  -0.00057  -0.01458   0.00034  -0.01429  -1.19498
    D9        0.84907  -0.00340  -0.03202   0.00435  -0.02756   0.82151
   D10       -1.07449   0.00179   0.02136  -0.02221  -0.00088  -1.07537
   D11        1.10783   0.00184   0.01680  -0.01899  -0.00230   1.10553
   D12        3.13759  -0.00100  -0.00064  -0.01498  -0.01558   3.12201
   D13       -0.94033   0.00182   0.01528   0.00689   0.02203  -0.91831
   D14        1.23995   0.00212   0.01686  -0.00711   0.00981   1.24975
   D15       -3.01104  -0.00047  -0.00239   0.00636   0.00412  -3.00693
   D16        3.07051  -0.00073  -0.00814   0.00899   0.00067   3.07118
   D17       -1.03240  -0.00042  -0.00655  -0.00501  -0.01155  -1.04395
   D18        0.99980  -0.00301  -0.02581   0.00846  -0.01724   0.98256
   D19       -2.86792   0.00038   0.00225  -0.00452  -0.00227  -2.87018
   D20       -0.79300  -0.00081  -0.01046  -0.00074  -0.01101  -0.80401
   D21        1.34523   0.00034   0.00152  -0.00390  -0.00224   1.34299
   D22        1.24485   0.00349   0.03013  -0.00414   0.02670   1.27155
   D23       -2.96342   0.00230   0.01742  -0.00036   0.01795  -2.94547
   D24       -0.82519   0.00345   0.02940  -0.00352   0.02672  -0.79847
   D25       -0.79533  -0.00314  -0.02562  -0.00238  -0.02904  -0.82437
   D26        1.27959  -0.00433  -0.03833   0.00140  -0.03778   1.24180
   D27       -2.86537  -0.00318  -0.02636  -0.00176  -0.02901  -2.89438
   D28       -2.95695  -0.00000   0.00101  -0.02505  -0.02407  -2.98103
   D29       -0.88356  -0.00086  -0.00827  -0.02176  -0.02994  -0.91350
   D30        1.25498  -0.00009   0.00079  -0.02767  -0.02685   1.22813
   D31        1.15481   0.00337   0.02660  -0.00811   0.01926   1.17407
   D32       -3.05498   0.00251   0.01733  -0.00482   0.01339  -3.04159
   D33       -0.91644   0.00328   0.02639  -0.01072   0.01648  -0.89996
   D34       -0.87936  -0.00306  -0.02497  -0.01594  -0.04181  -0.92117
   D35        1.19404  -0.00392  -0.03424  -0.01265  -0.04768   1.14636
   D36       -2.95061  -0.00315  -0.02518  -0.01856  -0.04459  -2.99520
         Item               Value     Threshold  Converged?
 Maximum Force            0.039801     0.000450     NO 
 RMS     Force            0.008756     0.000300     NO 
 Maximum Displacement     0.140203     0.001800     NO 
 RMS     Displacement     0.034189     0.001200     NO 
 Predicted change in Energy=-1.810185D-02
 GradGradGradGradGradGradGradGradGradGradGradGradGradGradGradGradGradGrad

                          Input orientation:                          
 ---------------------------------------------------------------------
 Center     Atomic      Atomic             Coordinates (Angstroms)
 Number     Number       Type             X           Y           Z
 ---------------------------------------------------------------------
      1          5           0       -1.737685    0.702830   -0.070603
      2          9           0       -1.692191    1.813824   -0.882202
      3          9           0       -1.869547    1.039587    1.264087
      4          9           0       -2.742474   -0.151614   -0.477497
      5          8           0       -0.403484   -0.029105   -0.234068
      6          6           0       -0.470660   -1.471019    0.063429
      7          6           0        0.751273   -2.231117   -0.406468
      8          6           0        0.735386    0.606804    0.446209
      9          6           0        0.902598    2.066359    0.094463
     10          1           0       -0.645830   -1.590165    1.140624
     11          1           0       -1.349400   -1.836078   -0.465732
     12          1           0        0.502464   -3.299729   -0.403938
     13          1           0        1.020215   -1.941305   -1.430203
     14          1           0        1.620236   -2.095224    0.246742
     15          1           0        0.603390    0.459734    1.525132
     16          1           0        1.624228    0.059617    0.127516
     17          1           0        1.862280    2.390322    0.517588
     18          1           0        0.932162    2.211460   -0.991106
     19          1           0        0.110577    2.690799    0.518444
 ---------------------------------------------------------------------
                    Distance matrix (angstroms):
                    1          2          3          4          5
     1  B    0.000000
     2  F    1.376616   0.000000
     3  F    1.382820   2.288549   0.000000
     4  F    1.380304   2.264912   2.283435   0.000000
     5  O    1.530537   2.340349   2.352852   2.354813   0.000000
     6  C    2.519709   3.629952   3.114740   2.682270   1.473815
     7  C    3.862093   4.749567   4.511868   4.066405   2.492396
     8  C    2.528318   3.019057   2.764398   3.677491   1.471116
     9  C    2.976163   2.783986   3.179161   4.305007   2.490934
    10  H    2.813724   4.095588   2.903157   3.013911   2.094138
    11  H    2.598643   3.689545   3.395920   2.185913   2.052700
    12  H    4.598897   5.585129   5.219042   4.521688   3.398025
    13  H    4.055363   4.664595   4.949307   4.274163   2.667239
    14  H    4.382402   5.246651   4.800064   4.830671   2.931803
    15  H    2.843606   3.591450   2.553389   3.947034   2.085076
    16  H    3.428620   3.885282   3.802447   4.413474   2.061609
    17  H    4.019122   3.863422   4.038351   5.353073   3.398867
    18  H    3.201776   2.656540   3.782692   4.398962   2.716099
    19  H    2.777601   2.445582   2.683911   4.148628   2.868521
                    6          7          8          9         10
     6  C    0.000000
     7  C    1.513827   0.000000
     8  C    2.432780   2.963294   0.000000
     9  C    3.794712   4.329218   1.510624   0.000000
    10  H    1.097830   2.180873   2.686381   4.106366   0.000000
    11  H    1.088790   2.138316   3.338509   4.540300   1.770837
    12  H    2.123577   1.097198   4.004748   5.404017   2.574268
    13  H    2.162131   1.097430   3.177249   4.289499   3.083529
    14  H    2.189768   1.095558   2.850212   4.225751   2.487803
    15  H    2.649145   3.315664   1.096871   2.171999   2.431148
    16  H    2.595286   2.508915   1.091339   2.132805   2.983510
    17  H    4.534184   4.842098   2.110905   1.097714   4.745847
    18  H    4.079290   4.484531   2.163219   1.095622   4.635373
    19  H    4.226773   5.048883   2.176841   1.094067   4.391573
                   11         12         13         14         15
    11  H    0.000000
    12  H    2.361248   0.000000
    13  H    2.560537   1.779495   0.000000
    14  H    3.064884   1.767379   1.787697   0.000000
    15  H    3.612157   4.226707   3.830500   3.032502   0.000000
    16  H    3.576041   3.581341   2.606723   2.158141   1.776382
    17  H    5.398542   5.922414   4.823479   4.500230   2.515376
    18  H    4.675907   5.559012   4.176843   4.533569   3.083519
    19  H    4.857237   6.073779   5.106961   5.025825   2.496786
                   16         17         18         19
    16  H    0.000000
    17  H    2.375081   0.000000
    18  H    2.522043   1.781367   0.000000
    19  H    3.060570   1.777287   1.784239   0.000000
 Stoichiometry    C4H10BF3O
 Framework group  C1[X(C4H10BF3O)]
 Deg. of freedom    51
 Full point group                 C1      NOp   1
 Largest Abelian subgroup         C1      NOp   1
 Largest concise Abelian subgroup C1      NOp   1
                         Standard orientation:                         
 ---------------------------------------------------------------------
 Center     Atomic      Atomic             Coordinates (Angstroms)
 Number     Number       Type             X           Y           Z
 ---------------------------------------------------------------------
      1          5           0       -0.956958   -0.628776   -0.024273
      2          9           0       -1.822929   -0.071983   -0.938136
      3          9           0       -1.363053   -0.406137    1.278689
      4          9           0       -0.787765   -1.975073   -0.277446
      5          8           0        0.397801    0.058440   -0.211100
      6          6           0        1.547248   -0.754452    0.224918
      7          6           0        2.875340   -0.209616   -0.255703
      8          6           0        0.473740    1.426381    0.324766
      9          6           0       -0.632739    2.325893   -0.173798
     10          1           0        1.506321   -0.845972    1.318161
     11          1           0        1.384423   -1.741592   -0.204622
     12          1           0        3.625499   -1.001165   -0.135062
     13          1           0        2.824284    0.059079   -1.318506
     14          1           0        3.218296    0.657558    0.319310
     15          1           0        0.479898    1.355551    1.419330
     16          1           0        1.434136    1.828382   -0.002427
     17          1           0       -0.386653    3.345918    0.148643
     18          1           0       -0.693798    2.309974   -1.267602
     19          1           0       -1.607841    2.058138    0.243891
 ---------------------------------------------------------------------
 Rotational constants (GHZ):           1.8833155           1.4070054           0.9972446
 Standard basis: Aug-CC-pVDZ (5D, 7F)
 There are   315 symmetry adapted cartesian basis functions of A   symmetry.
 There are   297 symmetry adapted basis functions of A   symmetry.
   297 basis functions,   497 primitive gaussians,   315 cartesian basis functions
    37 alpha electrons       37 beta electrons
       nuclear repulsion energy       529.2793722157 Hartrees.
 NAtoms=   19 NActive=   19 NUniq=   19 SFac= 1.00D+00 NAtFMM=   60 NAOKFM=F Big=F
 Integral buffers will be    131072 words long.
 Raffenetti 2 integral format.
 Two-electron integral symmetry is turned on.
 Nuclear repulsion after empirical dispersion term =      529.2672222540 Hartrees.
 Force PCM accuracy= 1.00D-12.
 ------------------------------------------------------------------------------
 Polarizable Continuum Model (PCM)
 =================================
 Model                : C-PCM.
 Atomic radii         : UFF (Universal Force Field).
 Polarization charges : Total charges.
 Charge compensation  : None.
 Solution method      : On-the-fly selection.
 Cavity type          : Scaled VdW (van der Waals Surface) (Alpha=1.100).
 Cavity algorithm     : GePol (No added spheres)
                        Default sphere list used, NSphG=   19.
                        Lebedev-Laikov grids with approx.  5.0 points / Ang**2.
                        Smoothing algorithm: York/Karplus (Gamma=1.0000).
                        Polarization charges: spherical gaussians, with
                                              point-specific exponents (IZeta= 3).
                        Self-potential: point-specific (ISelfS= 7).
                        Self-field    : sphere-specific E.n sum rule (ISelfD= 2).
 1st derivatives      : Analytical E(r).r(x)/FMM algorithm (CHGder, D1EAlg=3).
                        Cavity 1st derivative terms included.
 Solvent              : TetraHydroFuran, Eps=   7.425700 Eps(inf)=   1.974025
 ------------------------------------------------------------------------------
 Spheres list:
 ISph  on   Nord     Re0    Alpha      Xe            Ye            Ze
    1   B      1    2.0415  1.100     -0.956958     -0.628776     -0.024273
    2   F      2    1.6820  1.100     -1.822929     -0.071983     -0.938136
    3   F      3    1.6820  1.100     -1.363053     -0.406137      1.278689
    4   F      4    1.6820  1.100     -0.787765     -1.975073     -0.277446
    5   O      5    1.7500  1.100      0.397801      0.058440     -0.211100
    6   C      6    1.9255  1.100      1.547248     -0.754452      0.224918
    7   C      7    1.9255  1.100      2.875340     -0.209616     -0.255703
    8   C      8    1.9255  1.100      0.473740      1.426381      0.324766
    9   C      9    1.9255  1.100     -0.632739      2.325893     -0.173798
   10   H     10    1.4430  1.100      1.506321     -0.845972      1.318161
   11   H     11    1.4430  1.100      1.384423     -1.741592     -0.204622
   12   H     12    1.4430  1.100      3.625499     -1.001165     -0.135062
   13   H     13    1.4430  1.100      2.824284      0.059079     -1.318506
   14   H     14    1.4430  1.100      3.218296      0.657558      0.319310
   15   H     15    1.4430  1.100      0.479898      1.355551      1.419330
   16   H     16    1.4430  1.100      1.434136      1.828382     -0.002427
   17   H     17    1.4430  1.100     -0.386653      3.345918      0.148643
   18   H     18    1.4430  1.100     -0.693798      2.309974     -1.267602
   19   H     19    1.4430  1.100     -1.607841      2.058138      0.243891
 ------------------------------------------------------------------------------
 One-electron integrals computed using PRISM.
 NBasis=   297 RedAO= T EigKep=  2.96D-05  NBF=   297
 NBsUse=   297 1.00D-06 EigRej= -1.00D+00 NBFU=   297
 Initial guess from the checkpoint file:  "/inspire/hdd/project/materialscienceresearch/lipenghui-253107030018/g16/00-B-DFT-Shift/04-output/BF3OEt2_THF/BF3OEt2_THF.chk"
 B after Tr=    -0.000000    0.000000    0.000000
         Rot=    0.999912   -0.001750    0.000341   -0.013178 Ang=  -1.52 deg.
 ExpMin= 2.38D-02 ExpMax= 1.47D+04 ExpMxC= 5.03D+02 IAcc=3 IRadAn=         5 AccDes= 0.00D+00
 Harris functional with IExCor= 4639 and IRadAn=       5 diagonalized for initial guess.
 HarFok:  IExCor= 4639 AccDes= 0.00D+00 IRadAn=         5 IDoV= 1 UseB2=F ITyADJ=14
 ICtDFT=  3500011 ScaDFX=  1.000000  1.000000  1.000000  1.000000
 FoFCou: FMM=F IPFlag=           0 FMFlag=      100000 FMFlg1=           0
         NFxFlg=           0 DoJE=T BraDBF=F KetDBF=T FulRan=T
         wScrn=  0.000000 ICntrl=       500 IOpCl=  0 I1Cent=   200000004 NGrid=           0
         NMat0=    1 NMatS0=      1 NMatT0=    0 NMatD0=    1 NMtDS0=    0 NMtDT0=    0
 Petite list used in FoFCou.
 Requested convergence on RMS density matrix=1.00D-08 within 128 cycles.
 Requested convergence on MAX density matrix=1.00D-06.
 Requested convergence on             energy=1.00D-06.
 No special actions if energy rises.
 Inv3:  Mode=1 IEnd=     6759003.
 Iteration    1 A*A^-1 deviation from unit magnitude is 3.33D-15 for   1265.
 Iteration    1 A*A^-1 deviation from orthogonality  is 3.24D-15 for   1499    729.
 Iteration    1 A^-1*A deviation from unit magnitude is 3.33D-15 for   1265.
 Iteration    1 A^-1*A deviation from orthogonality  is 1.73D-15 for   1485   1047.
 Error on total polarization charges =  0.00972
 SCF Done:  E(RwB97XD) =  -558.146434801     A.U. after   11 cycles
            NFock= 11  Conv=0.50D-08     -V/T= 2.0058
 D1PCM: C-PCM CHGder 1st derivatives, ID1Alg=3 FixD1E=F DoIter=F DoCFld=F I1PDM=0.
 Calling FoFJK, ICntrl=      2127 FMM=F ISym2X=0 I1Cent= 0 IOpClX= 0 NMat=1 NMatS=1 NMatT=0.
 ***** Axes restored to original set *****
 -------------------------------------------------------------------
 Center     Atomic                   Forces (Hartrees/Bohr)
 Number     Number              X              Y              Z
 -------------------------------------------------------------------
      1        5          -0.015475656    0.008163451   -0.000802424
      2        9           0.001376361    0.007868546   -0.007052085
      3        9           0.000033259    0.001539984    0.010691523
      4        9          -0.005078441   -0.007922485   -0.002941898
      5        8           0.015100725   -0.010785876    0.002012091
      6        6          -0.001275814   -0.009987705   -0.000231655
      7        6           0.002799795    0.003538051    0.000198531
      8        6           0.008529765    0.002919227    0.002761024
      9        6          -0.002082613    0.001549257   -0.000407829
     10        1           0.001254236    0.002792666    0.000214018
     11        1          -0.001158742    0.003788233   -0.001326278
     12        1          -0.000829738    0.000726421    0.000034464
     13        1          -0.000519842   -0.000712632   -0.000183866
     14        1           0.000155730    0.000117769   -0.000107314
     15        1          -0.002317546   -0.000466032   -0.000648288
     16        1          -0.001894879   -0.002105784   -0.002242883
     17        1          -0.000070587   -0.000865711    0.000005420
     18        1           0.000728987   -0.000074323    0.000250865
     19        1           0.000724999   -0.000083057   -0.000223416
 -------------------------------------------------------------------
 Cartesian Forces:  Max     0.015475656 RMS     0.004683336

 GradGradGradGradGradGradGradGradGradGradGradGradGradGradGradGradGradGrad
 Berny optimization.
 Using GEDIIS/GDIIS optimizer.
 FormGI is forming the generalized inverse of G from B-inverse, IUseBI=4.
 Internal  Forces:  Max     0.021287610 RMS     0.003308991
 Search for a local minimum.
 Step number   3 out of a maximum of   97
 All quantities printed in internal units (Hartrees-Bohrs-Radians)
 Mixed Optimization -- RFO/linear search
 Update second derivatives using D2CorX and points    2    3
 DE= -1.51D-02 DEPred=-1.81D-02 R= 8.36D-01
 TightC=F SS=  1.41D+00  RLast= 3.79D-01 DXNew= 8.4853D-01 1.1375D+00
 Trust test= 8.36D-01 RLast= 3.79D-01 DXMaxT set to 8.49D-01
 ITU=  1  1  0
 Use linear search instead of GDIIS.
     Eigenvalues ---    0.00251   0.00269   0.01333   0.01340   0.01343
     Eigenvalues ---    0.02679   0.04195   0.04226   0.05223   0.05297
     Eigenvalues ---    0.05328   0.05382   0.05805   0.05887   0.09781
     Eigenvalues ---    0.09805   0.12377   0.12513   0.12967   0.12987
     Eigenvalues ---    0.15957   0.16000   0.16000   0.16000   0.16001
     Eigenvalues ---    0.16093   0.18114   0.18647   0.20393   0.22123
     Eigenvalues ---    0.22308   0.25001   0.25038   0.28312   0.28418
     Eigenvalues ---    0.28581   0.28727   0.28810   0.31833   0.31892
     Eigenvalues ---    0.31935   0.31987   0.32095   0.32140   0.32160
     Eigenvalues ---    0.32253   0.32281   0.32561   0.40396   0.41512
     Eigenvalues ---    0.44141
 RFO step:  Lambda=-3.77753640D-03 EMin= 2.51351547D-03
 Quartic linear search produced a step of -0.03003.
 Iteration  1 RMS(Cart)=  0.04131169 RMS(Int)=  0.00065003
 Iteration  2 RMS(Cart)=  0.00082148 RMS(Int)=  0.00021232
 Iteration  3 RMS(Cart)=  0.00000036 RMS(Int)=  0.00021232
 Variable       Old X    -DE/DX   Delta X   Delta X   Delta X     New X
                                 (Linear)    (Quad)   (Total)
    R1        2.60143   0.01055   0.00510   0.01506   0.02016   2.62158
    R2        2.61315   0.01069   0.00476   0.01654   0.02130   2.63445
    R3        2.60840   0.00947   0.00488   0.01209   0.01697   2.62537
    R4        2.89230   0.02129  -0.00274   0.06567   0.06293   2.95523
    R5        2.78511  -0.00056  -0.00148   0.00441   0.00292   2.78803
    R6        2.78001   0.00294  -0.00130   0.01198   0.01068   2.79069
    R7        2.86072  -0.00052   0.00066  -0.00461  -0.00395   2.85677
    R8        2.07460  -0.00029   0.00037  -0.00274  -0.00237   2.07223
    R9        2.05751   0.00031   0.00066  -0.00214  -0.00147   2.05604
   R10        2.07340  -0.00052   0.00028  -0.00318  -0.00290   2.07051
   R11        2.07384  -0.00015   0.00037  -0.00219  -0.00182   2.07202
   R12        2.07031   0.00008   0.00042  -0.00167  -0.00125   2.06906
   R13        2.85467   0.00052   0.00073  -0.00141  -0.00067   2.85399
   R14        2.07279  -0.00030   0.00037  -0.00281  -0.00243   2.07035
   R15        2.06233   0.00016   0.00057  -0.00219  -0.00162   2.06071
   R16        2.07438  -0.00032   0.00029  -0.00256  -0.00227   2.07211
   R17        2.07043  -0.00024   0.00040  -0.00263  -0.00223   2.06819
   R18        2.06749  -0.00066   0.00043  -0.00394  -0.00351   2.06398
    A1        1.95590   0.00243  -0.00102   0.01621   0.01521   1.97111
    A2        1.92820   0.00250  -0.00206   0.01606   0.01389   1.94209
    A3        1.86939  -0.00125   0.00141  -0.00846  -0.00710   1.86229
    A4        1.94535   0.00224  -0.00165   0.01160   0.00977   1.95513
    A5        1.87829  -0.00161   0.00155  -0.01160  -0.01012   1.86817
    A6        1.88289  -0.00492   0.00185  -0.02741  -0.02569   1.85720
    A7        1.98950  -0.00078  -0.00056   0.00782   0.00680   1.99630
    A8        2.00285   0.00440  -0.00002   0.03351   0.03333   2.03618
    A9        1.94427  -0.00248   0.00020  -0.00251  -0.00291   1.94136
   A10        1.97337  -0.00290   0.00014  -0.02151  -0.02131   1.95206
   A11        1.88758  -0.00055   0.00092  -0.02375  -0.02282   1.86476
   A12        1.84078  -0.00157   0.00112  -0.02744  -0.02601   1.81477
   A13        1.95937   0.00151  -0.00058   0.01406   0.01275   1.97212
   A14        1.90949   0.00304  -0.00102   0.03323   0.03166   1.94115
   A15        1.88779   0.00039  -0.00056   0.02467   0.02320   1.91099
   A16        1.88101  -0.00153   0.00059  -0.01478  -0.01421   1.86680
   A17        1.93347   0.00022   0.00016   0.00098   0.00111   1.93458
   A18        1.97455   0.00048  -0.00009   0.00589   0.00579   1.98034
   A19        1.89118   0.00013  -0.00016  -0.00306  -0.00326   1.88792
   A20        1.87475   0.00061  -0.00027   0.00497   0.00472   1.87948
   A21        1.90611   0.00007  -0.00024   0.00544   0.00516   1.91127
   A22        1.97759   0.00279   0.00053   0.00551   0.00614   1.98373
   A23        1.87941  -0.00211   0.00105  -0.02197  -0.02097   1.85844
   A24        1.85328  -0.00307   0.00076  -0.03301  -0.03229   1.82099
   A25        1.95186   0.00023  -0.00063   0.01248   0.01178   1.96364
   A26        1.90317   0.00089  -0.00110   0.01664   0.01544   1.91862
   A27        1.89444   0.00108  -0.00065   0.01865   0.01742   1.91186
   A28        1.86729  -0.00142   0.00081  -0.01529  -0.01449   1.85280
   A29        1.94084   0.00015   0.00005   0.00152   0.00153   1.94237
   A30        1.96177   0.00081   0.00008   0.00692   0.00698   1.96875
   A31        1.89573   0.00015  -0.00029  -0.00203  -0.00235   1.89338
   A32        1.89133   0.00027  -0.00053   0.00303   0.00253   1.89386
   A33        1.90489   0.00001  -0.00014   0.00523   0.00505   1.90994
    D1       -2.70285   0.00069   0.00083   0.03031   0.03126  -2.67158
    D2        1.30857   0.00083   0.00111  -0.00621  -0.00533   1.30324
    D3        1.47421  -0.00062   0.00029   0.02214   0.02268   1.49689
    D4       -0.79757  -0.00048   0.00057  -0.01438  -0.01391  -0.81148
    D5       -0.62691   0.00035   0.00023   0.03012   0.03049  -0.59642
    D6       -2.89869   0.00049   0.00051  -0.00641  -0.00610  -2.90479
    D7        2.90731  -0.00133   0.00039  -0.03371  -0.03323   2.87408
    D8       -1.19498  -0.00182   0.00043  -0.04834  -0.04764  -1.24263
    D9        0.82151  -0.00241   0.00083  -0.04457  -0.04371   0.77779
   D10       -1.07537   0.00190   0.00003   0.01913   0.01899  -1.05638
   D11        1.10553   0.00141   0.00007   0.00450   0.00457   1.11010
   D12        3.12201   0.00082   0.00047   0.00827   0.00851   3.13052
   D13       -0.91831   0.00001  -0.00066   0.00259   0.00200  -0.91631
   D14        1.24975   0.00063  -0.00029   0.00612   0.00573   1.25549
   D15       -3.00693  -0.00067  -0.00012   0.00070   0.00078  -3.00615
   D16        3.07118  -0.00057  -0.00002  -0.03741  -0.03748   3.03370
   D17       -1.04395   0.00005   0.00035  -0.03387  -0.03374  -1.07769
   D18        0.98256  -0.00124   0.00052  -0.03930  -0.03870   0.94386
   D19       -2.87018   0.00004   0.00007  -0.02804  -0.02793  -2.89811
   D20       -0.80401  -0.00060   0.00033  -0.04012  -0.03972  -0.84373
   D21        1.34299   0.00001   0.00007  -0.02795  -0.02781   1.31518
   D22        1.27155   0.00182  -0.00080   0.00899   0.00845   1.28000
   D23       -2.94547   0.00118  -0.00054  -0.00309  -0.00334  -2.94881
   D24       -0.79847   0.00179  -0.00080   0.00908   0.00857  -0.78989
   D25       -0.82437  -0.00170   0.00087  -0.05361  -0.05310  -0.87747
   D26        1.24180  -0.00234   0.00113  -0.06569  -0.06490   1.17691
   D27       -2.89438  -0.00173   0.00087  -0.05352  -0.05298  -2.94736
   D28       -2.98103   0.00041   0.00072  -0.00979  -0.00907  -2.99010
   D29       -0.91350  -0.00019   0.00090  -0.02068  -0.01977  -0.93327
   D30        1.22813   0.00052   0.00081  -0.00772  -0.00688   1.22125
   D31        1.17407   0.00096  -0.00058   0.00561   0.00509   1.17916
   D32       -3.04159   0.00036  -0.00040  -0.00528  -0.00560  -3.04719
   D33       -0.89996   0.00107  -0.00049   0.00768   0.00728  -0.89268
   D34       -0.92117  -0.00111   0.00126  -0.03657  -0.03542  -0.95659
   D35        1.14636  -0.00171   0.00143  -0.04745  -0.04611   1.10025
   D36       -2.99520  -0.00100   0.00134  -0.03449  -0.03323  -3.02843
         Item               Value     Threshold  Converged?
 Maximum Force            0.021288     0.000450     NO 
 RMS     Force            0.003309     0.000300     NO 
 Maximum Displacement     0.133465     0.001800     NO 
 RMS     Displacement     0.041495     0.001200     NO 
 Predicted change in Energy=-1.971222D-03
 GradGradGradGradGradGradGradGradGradGradGradGradGradGradGradGradGradGrad

                          Input orientation:                          
 ---------------------------------------------------------------------
 Center     Atomic      Atomic             Coordinates (Angstroms)
 Number     Number       Type             X           Y           Z
 ---------------------------------------------------------------------
      1          5           0       -1.789868    0.704810   -0.072565
      2          9           0       -1.733503    1.806961   -0.913183
      3          9           0       -1.940173    1.052039    1.269199
      4          9           0       -2.760604   -0.197620   -0.488980
      5          8           0       -0.416543   -0.031550   -0.204258
      6          6           0       -0.472037   -1.478751    0.077207
      7          6           0        0.764416   -2.195457   -0.415602
      8          6           0        0.740217    0.599052    0.462897
      9          6           0        0.935752    2.050364    0.093611
     10          1           0       -0.627814   -1.586629    1.157288
     11          1           0       -1.360245   -1.815776   -0.453138
     12          1           0        0.539465   -3.267682   -0.401067
     13          1           0        0.996075   -1.908666   -1.448230
     14          1           0        1.644005   -2.031536    0.215474
     15          1           0        0.594120    0.456173    1.539254
     16          1           0        1.596867    0.012134    0.129987
     17          1           0        1.900019    2.347246    0.523023
     18          1           0        0.984361    2.181123   -0.991903
     19          1           0        0.159031    2.699747    0.503398
 ---------------------------------------------------------------------
                    Distance matrix (angstroms):
                    1          2          3          4          5
     1  B    0.000000
     2  F    1.387282   0.000000
     3  F    1.394091   2.318493   0.000000
     4  F    1.389285   2.291992   2.307802   0.000000
     5  O    1.563839   2.370038   2.380482   2.367123   0.000000
     6  C    2.554809   3.656238   3.159299   2.683171   1.475362
     7  C    3.879896   4.744106   4.549681   4.052469   2.474232
     8  C    2.588287   3.077650   2.835456   3.714365   1.476769
     9  C    3.044197   2.863181   3.263374   4.365306   2.500359
    10  H    2.848438   4.126239   2.949132   3.031227   2.077670
    11  H    2.585104   3.670856   3.395162   2.140262   2.033710
    12  H    4.616752   5.583964   5.253417   4.508155   3.380123
    13  H    4.060072   4.641417   4.977123   4.237980   2.658292
    14  H    4.400232   5.235980   4.844080   4.822871   2.902064
    15  H    2.888456   3.641003   2.617371   3.974337   2.073438
    16  H    3.462773   3.924407   3.858738   4.406208   2.041433
    17  H    4.082595   3.944246   4.120851   5.405729   3.399127
    18  H    3.274298   2.744627   3.865270   4.464987   2.734746
    19  H    2.847756   2.526945   2.776338   4.231291   2.879592
                    6          7          8          9         10
     6  C    0.000000
     7  C    1.511736   0.000000
     8  C    2.436305   2.929442   0.000000
     9  C    3.799578   4.279679   1.510269   0.000000
    10  H    1.096576   2.186998   2.670372   4.099252   0.000000
    11  H    1.088010   2.158646   3.329032   4.529633   1.783938
    12  H    2.110013   1.095665   3.967161   5.355685   2.572343
    13  H    2.160356   1.096465   3.163308   4.249098   3.086981
    14  H    2.191420   1.094898   2.792498   4.144681   2.499224
    15  H    2.649188   3.298727   1.095583   2.179000   2.410821
    16  H    2.550664   2.421590   1.090482   2.143077   2.925850
    17  H    4.523677   4.775643   2.098795   1.096514   4.718856
    18  H    4.081515   4.419836   2.163099   1.094441   4.627535
    19  H    4.247321   5.017378   2.179986   1.092209   4.406781
                   11         12         13         14         15
    11  H    0.000000
    12  H    2.391577   0.000000
    13  H    2.559507   1.775379   0.000000
    14  H    3.085305   1.768668   1.789643   0.000000
    15  H    3.598738   4.199396   3.831330   3.007216   0.000000
    16  H    3.525024   3.486734   2.557576   2.046000   1.785694
    17  H    5.377077   5.850852   4.776583   4.397029   2.512818
    18  H    4.665044   5.498772   4.115184   4.431634   3.087797
    19  H    4.859332   6.047562   5.074147   4.967202   2.509168
                   16         17         18         19
    16  H    0.000000
    17  H    2.387285   0.000000
    18  H    2.517601   1.777927   0.000000
    19  H    3.070842   1.776424   1.784955   0.000000
 Stoichiometry    C4H10BF3O
 Framework group  C1[X(C4H10BF3O)]
 Deg. of freedom    51
 Full point group                 C1      NOp   1
 Largest Abelian subgroup         C1      NOp   1
 Largest concise Abelian subgroup C1      NOp   1
                         Standard orientation:                         
 ---------------------------------------------------------------------
 Center     Atomic      Atomic             Coordinates (Angstroms)
 Number     Number       Type             X           Y           Z
 ---------------------------------------------------------------------
      1          5           0       -1.024461   -0.589445   -0.025608
      2          9           0       -1.835648    0.024360   -0.968884
      3          9           0       -1.435974   -0.348121    1.284320
      4          9           0       -0.886306   -1.947007   -0.286469
      5          8           0        0.399693    0.037541   -0.181383
      6          6           0        1.503562   -0.846317    0.239284
      7          6           0        2.840861   -0.356293   -0.267522
      8          6           0        0.581876    1.406601    0.341429
      9          6           0       -0.437058    2.393728   -0.176515
     10          1           0        1.458170   -0.912879    1.332897
     11          1           0        1.247625   -1.810925   -0.194067
     12          1           0        3.553264   -1.178251   -0.135814
     13          1           0        2.789060   -0.116662   -1.336226
     14          1           0        3.225390    0.508574    0.282884
     15          1           0        0.570244    1.326189    1.433994
     16          1           0        1.579733    1.692636    0.007336
     17          1           0       -0.099629    3.382909    0.155155
     18          1           0       -0.474868    2.388765   -1.270292
     19          1           0       -1.438328    2.217134    0.222475
 ---------------------------------------------------------------------
 Rotational constants (GHZ):           1.8450901           1.3908838           0.9849519
 Standard basis: Aug-CC-pVDZ (5D, 7F)
 There are   315 symmetry adapted cartesian basis functions of A   symmetry.
 There are   297 symmetry adapted basis functions of A   symmetry.
   297 basis functions,   497 primitive gaussians,   315 cartesian basis functions
    37 alpha electrons       37 beta electrons
       nuclear repulsion energy       525.6562688487 Hartrees.
 NAtoms=   19 NActive=   19 NUniq=   19 SFac= 1.00D+00 NAtFMM=   60 NAOKFM=F Big=F
 Integral buffers will be    131072 words long.
 Raffenetti 2 integral format.
 Two-electron integral symmetry is turned on.
 Nuclear repulsion after empirical dispersion term =      525.6441097850 Hartrees.
 Force PCM accuracy= 1.00D-12.
 ------------------------------------------------------------------------------
 Polarizable Continuum Model (PCM)
 =================================
 Model                : C-PCM.
 Atomic radii         : UFF (Universal Force Field).
 Polarization charges : Total charges.
 Charge compensation  : None.
 Solution method      : On-the-fly selection.
 Cavity type          : Scaled VdW (van der Waals Surface) (Alpha=1.100).
 Cavity algorithm     : GePol (No added spheres)
                        Default sphere list used, NSphG=   19.
                        Lebedev-Laikov grids with approx.  5.0 points / Ang**2.
                        Smoothing algorithm: York/Karplus (Gamma=1.0000).
                        Polarization charges: spherical gaussians, with
                                              point-specific exponents (IZeta= 3).
                        Self-potential: point-specific (ISelfS= 7).
                        Self-field    : sphere-specific E.n sum rule (ISelfD= 2).
 1st derivatives      : Analytical E(r).r(x)/FMM algorithm (CHGder, D1EAlg=3).
                        Cavity 1st derivative terms included.
 Solvent              : TetraHydroFuran, Eps=   7.425700 Eps(inf)=   1.974025
 ------------------------------------------------------------------------------
 Spheres list:
 ISph  on   Nord     Re0    Alpha      Xe            Ye            Ze
    1   B      1    2.0415  1.100     -1.024461     -0.589445     -0.025608
    2   F      2    1.6820  1.100     -1.835648      0.024360     -0.968884
    3   F      3    1.6820  1.100     -1.435974     -0.348121      1.284320
    4   F      4    1.6820  1.100     -0.886306     -1.947007     -0.286469
    5   O      5    1.7500  1.100      0.399693      0.037541     -0.181383
    6   C      6    1.9255  1.100      1.503562     -0.846317      0.239284
    7   C      7    1.9255  1.100      2.840861     -0.356293     -0.267522
    8   C      8    1.9255  1.100      0.581876      1.406601      0.341429
    9   C      9    1.9255  1.100     -0.437058      2.393728     -0.176515
   10   H     10    1.4430  1.100      1.458170     -0.912879      1.332897
   11   H     11    1.4430  1.100      1.247625     -1.810925     -0.194067
   12   H     12    1.4430  1.100      3.553264     -1.178251     -0.135814
   13   H     13    1.4430  1.100      2.789060     -0.116662     -1.336226
   14   H     14    1.4430  1.100      3.225390      0.508574      0.282884
   15   H     15    1.4430  1.100      0.570244      1.326189      1.433994
   16   H     16    1.4430  1.100      1.579733      1.692636      0.007336
   17   H     17    1.4430  1.100     -0.099629      3.382909      0.155155
   18   H     18    1.4430  1.100     -0.474868      2.388765     -1.270292
   19   H     19    1.4430  1.100     -1.438328      2.217134      0.222475
 ------------------------------------------------------------------------------
 One-electron integrals computed using PRISM.
 NBasis=   297 RedAO= T EigKep=  3.00D-05  NBF=   297
 NBsUse=   297 1.00D-06 EigRej= -1.00D+00 NBFU=   297
 Initial guess from the checkpoint file:  "/inspire/hdd/project/materialscienceresearch/lipenghui-253107030018/g16/00-B-DFT-Shift/04-output/BF3OEt2_THF/BF3OEt2_THF.chk"
 B after Tr=    -0.000000   -0.000000   -0.000000
         Rot=    0.999530   -0.001127    0.002581    0.030533 Ang=  -3.51 deg.
 ExpMin= 2.38D-02 ExpMax= 1.47D+04 ExpMxC= 5.03D+02 IAcc=3 IRadAn=         5 AccDes= 0.00D+00
 Harris functional with IExCor= 4639 and IRadAn=       5 diagonalized for initial guess.
 HarFok:  IExCor= 4639 AccDes= 0.00D+00 IRadAn=         5 IDoV= 1 UseB2=F ITyADJ=14
 ICtDFT=  3500011 ScaDFX=  1.000000  1.000000  1.000000  1.000000
 FoFCou: FMM=F IPFlag=           0 FMFlag=      100000 FMFlg1=           0
         NFxFlg=           0 DoJE=T BraDBF=F KetDBF=T FulRan=T
         wScrn=  0.000000 ICntrl=       500 IOpCl=  0 I1Cent=   200000004 NGrid=           0
         NMat0=    1 NMatS0=      1 NMatT0=    0 NMatD0=    1 NMtDS0=    0 NMtDT0=    0
 Petite list used in FoFCou.
 Requested convergence on RMS density matrix=1.00D-08 within 128 cycles.
 Requested convergence on MAX density matrix=1.00D-06.
 Requested convergence on             energy=1.00D-06.
 No special actions if energy rises.
 Inv3:  Mode=1 IEnd=     6705075.
 Iteration    1 A*A^-1 deviation from unit magnitude is 3.11D-15 for   1489.
 Iteration    1 A*A^-1 deviation from orthogonality  is 2.17D-15 for   1429   1095.
 Iteration    1 A^-1*A deviation from unit magnitude is 3.11D-15 for   1485.
 Iteration    1 A^-1*A deviation from orthogonality  is 1.69D-15 for   1465    844.
 Error on total polarization charges =  0.00974
 SCF Done:  E(RwB97XD) =  -558.148304018     A.U. after   11 cycles
            NFock= 11  Conv=0.58D-08     -V/T= 2.0060
 D1PCM: C-PCM CHGder 1st derivatives, ID1Alg=3 FixD1E=F DoIter=F DoCFld=F I1PDM=0.
 Calling FoFJK, ICntrl=      2127 FMM=F ISym2X=0 I1Cent= 0 IOpClX= 0 NMat=1 NMatS=1 NMatT=0.
 ***** Axes restored to original set *****
 -------------------------------------------------------------------
 Center     Atomic                   Forces (Hartrees/Bohr)
 Number     Number              X              Y              Z
 -------------------------------------------------------------------
      1        5          -0.007836291    0.004790715   -0.000146137
      2        9           0.000966194   -0.000282664    0.000792981
      3        9           0.000762400    0.000149811   -0.000429650
      4        9          -0.000658715   -0.000028438   -0.000177413
      5        8           0.007449439   -0.001649258    0.000694915
      6        6           0.000654120    0.000333287   -0.000662585
      7        6          -0.000775934   -0.000675050    0.000032904
      8        6           0.000094399   -0.000404574   -0.000780649
      9        6          -0.001218690   -0.001467798   -0.000169792
     10        1           0.000458518   -0.000773363    0.000520670
     11        1           0.000021411   -0.000810904   -0.000263602
     12        1           0.000352698   -0.001073766   -0.000101159
     13        1          -0.000297767   -0.000076303   -0.000468805
     14        1          -0.000264194   -0.000609823    0.000143096
     15        1           0.000005733    0.000610750    0.000749914
     16        1           0.000527359    0.001196095    0.000293741
     17        1           0.000513796    0.000625526    0.000234224
     18        1           0.000196887   -0.000093379   -0.000595893
     19        1          -0.000951363    0.000239137    0.000333240
 -------------------------------------------------------------------
 Cartesian Forces:  Max     0.007836291 RMS     0.001681939

 GradGradGradGradGradGradGradGradGradGradGradGradGradGradGradGradGradGrad
 Berny optimization.
 Using GEDIIS/GDIIS optimizer.
 FormGI is forming the generalized inverse of G from B-inverse, IUseBI=4.
 Internal  Forces:  Max     0.008122017 RMS     0.001495156
 Search for a local minimum.
 Step number   4 out of a maximum of   97
 All quantities printed in internal units (Hartrees-Bohrs-Radians)
 Mixed Optimization -- RFO/linear search
 Update second derivatives using D2CorX and points    2    3    4
 DE= -1.87D-03 DEPred=-1.97D-03 R= 9.48D-01
 TightC=F SS=  1.41D+00  RLast= 2.11D-01 DXNew= 1.4270D+00 6.3417D-01
 Trust test= 9.48D-01 RLast= 2.11D-01 DXMaxT set to 8.49D-01
 ITU=  1  1  1  0
 Use linear search instead of GDIIS.
     Eigenvalues ---    0.00256   0.00267   0.01277   0.01341   0.01367
     Eigenvalues ---    0.02400   0.04163   0.04420   0.05092   0.05199
     Eigenvalues ---    0.05227   0.05357   0.05885   0.05970   0.09777
     Eigenvalues ---    0.10147   0.12651   0.12726   0.12867   0.13011
     Eigenvalues ---    0.15391   0.16000   0.16000   0.16001   0.16002
     Eigenvalues ---    0.16074   0.17322   0.19191   0.20322   0.22121
     Eigenvalues ---    0.24419   0.25002   0.26294   0.28149   0.28458
     Eigenvalues ---    0.28486   0.28732   0.29203   0.31830   0.31860
     Eigenvalues ---    0.31935   0.31988   0.32094   0.32140   0.32160
     Eigenvalues ---    0.32253   0.32260   0.34092   0.38674   0.41919
     Eigenvalues ---    0.43815
 RFO step:  Lambda=-1.14055485D-03 EMin= 2.55541409D-03
 Quartic linear search produced a step of -0.00133.
 Iteration  1 RMS(Cart)=  0.04557804 RMS(Int)=  0.00078316
 Iteration  2 RMS(Cart)=  0.00107506 RMS(Int)=  0.00006929
 Iteration  3 RMS(Cart)=  0.00000056 RMS(Int)=  0.00006929
 Variable       Old X    -DE/DX   Delta X   Delta X   Delta X     New X
                                 (Linear)    (Quad)   (Total)
    R1        2.62158  -0.00066  -0.00003  -0.00419  -0.00421   2.61737
    R2        2.63445  -0.00046  -0.00003  -0.00273  -0.00276   2.63169
    R3        2.62537   0.00053  -0.00002  -0.00080  -0.00083   2.62454
    R4        2.95523   0.00812  -0.00008   0.04818   0.04810   3.00332
    R5        2.78803   0.00346  -0.00000   0.01213   0.01213   2.80016
    R6        2.79069  -0.00033  -0.00001   0.00537   0.00536   2.79605
    R7        2.85677   0.00048   0.00001  -0.00101  -0.00100   2.85577
    R8        2.07223   0.00053   0.00000  -0.00016  -0.00016   2.07207
    R9        2.05604   0.00036   0.00000  -0.00092  -0.00092   2.05512
   R10        2.07051   0.00098   0.00000   0.00113   0.00113   2.07164
   R11        2.07202   0.00035   0.00000  -0.00043  -0.00043   2.07159
   R12        2.06906  -0.00022   0.00000  -0.00207  -0.00207   2.06699
   R13        2.85399  -0.00081   0.00000  -0.00454  -0.00454   2.84945
   R14        2.07035   0.00066   0.00000   0.00018   0.00019   2.07054
   R15        2.06071  -0.00032   0.00000  -0.00299  -0.00299   2.05773
   R16        2.07211   0.00071   0.00000   0.00053   0.00053   2.07264
   R17        2.06819   0.00059   0.00000   0.00008   0.00008   2.06828
   R18        2.06398   0.00095   0.00000   0.00073   0.00074   2.06472
    A1        1.97111   0.00013  -0.00002   0.00326   0.00311   1.97422
    A2        1.94209   0.00058  -0.00002   0.01146   0.01141   1.95351
    A3        1.86229  -0.00168   0.00001  -0.01206  -0.01212   1.85017
    A4        1.95513   0.00044  -0.00001   0.00934   0.00930   1.96442
    A5        1.86817  -0.00111   0.00001  -0.01104  -0.01109   1.85708
    A6        1.85720   0.00154   0.00003  -0.00371  -0.00371   1.85350
    A7        1.99630   0.00070  -0.00001   0.01013   0.01001   2.00632
    A8        2.03618  -0.00417  -0.00004  -0.00763  -0.00800   2.02818
    A9        1.94136   0.00369   0.00000   0.02131   0.02126   1.96262
   A10        1.95206   0.00350   0.00003   0.01061   0.01063   1.96269
   A11        1.86476  -0.00069   0.00003  -0.00219  -0.00220   1.86256
   A12        1.81477  -0.00066   0.00003  -0.01219  -0.01214   1.80263
   A13        1.97212  -0.00096  -0.00002   0.00196   0.00193   1.97404
   A14        1.94115  -0.00180  -0.00004  -0.00443  -0.00444   1.93671
   A15        1.91099   0.00068  -0.00003   0.00531   0.00526   1.91625
   A16        1.86680   0.00073   0.00002  -0.00271  -0.00269   1.86411
   A17        1.93458  -0.00034  -0.00000  -0.00127  -0.00129   1.93329
   A18        1.98034   0.00015  -0.00001   0.00365   0.00364   1.98398
   A19        1.88792  -0.00029   0.00000  -0.00326  -0.00327   1.88465
   A20        1.87948  -0.00058  -0.00001  -0.00271  -0.00272   1.87676
   A21        1.91127   0.00031  -0.00001   0.00566   0.00565   1.91691
   A22        1.98373  -0.00450  -0.00001  -0.02080  -0.02089   1.96284
   A23        1.85844   0.00166   0.00003  -0.00570  -0.00584   1.85260
   A24        1.82099   0.00250   0.00004   0.00816   0.00829   1.82928
   A25        1.96364   0.00045  -0.00002  -0.00098  -0.00121   1.96243
   A26        1.91862   0.00040  -0.00002   0.00938   0.00939   1.92801
   A27        1.91186  -0.00029  -0.00002   0.01105   0.01101   1.92287
   A28        1.85280   0.00078   0.00002  -0.00077  -0.00075   1.85205
   A29        1.94237  -0.00021  -0.00000  -0.00126  -0.00127   1.94111
   A30        1.96875  -0.00062  -0.00001  -0.00204  -0.00205   1.96670
   A31        1.89338  -0.00018   0.00000  -0.00019  -0.00019   1.89319
   A32        1.89386  -0.00005  -0.00000   0.00236   0.00235   1.89621
   A33        1.90994   0.00029  -0.00001   0.00198   0.00197   1.91191
    D1       -2.67158   0.00021  -0.00004   0.00618   0.00612  -2.66546
    D2        1.30324  -0.00180   0.00001  -0.02968  -0.02957   1.27367
    D3        1.49689   0.00156  -0.00003   0.01478   0.01464   1.51153
    D4       -0.81148  -0.00045   0.00002  -0.02109  -0.02104  -0.83252
    D5       -0.59642   0.00082  -0.00004   0.01153   0.01142  -0.58500
    D6       -2.90479  -0.00119   0.00001  -0.02434  -0.02427  -2.92905
    D7        2.87408  -0.00015   0.00004  -0.06096  -0.06106   2.81302
    D8       -1.24263   0.00041   0.00006  -0.05326  -0.05334  -1.29596
    D9        0.77779   0.00058   0.00006  -0.05377  -0.05382   0.72397
   D10       -1.05638  -0.00186  -0.00003  -0.04033  -0.04024  -1.09661
   D11        1.11010  -0.00130  -0.00001  -0.03263  -0.03251   1.07759
   D12        3.13052  -0.00113  -0.00001  -0.03314  -0.03300   3.09752
   D13       -0.91631   0.00089  -0.00000   0.03482   0.03472  -0.88159
   D14        1.25549  -0.00029  -0.00001   0.01568   0.01571   1.27120
   D15       -3.00615   0.00123  -0.00000   0.02939   0.02937  -2.97678
   D16        3.03370   0.00014   0.00005   0.00455   0.00456   3.03826
   D17       -1.07769  -0.00103   0.00004  -0.01458  -0.01445  -1.09214
   D18        0.94386   0.00049   0.00005  -0.00087  -0.00079   0.94307
   D19       -2.89811   0.00026   0.00004   0.00958   0.00962  -2.88849
   D20       -0.84373   0.00016   0.00005   0.00337   0.00343  -0.84030
   D21        1.31518   0.00041   0.00004   0.01259   0.01264   1.32783
   D22        1.28000  -0.00071  -0.00001   0.00328   0.00326   1.28326
   D23       -2.94881  -0.00082   0.00000  -0.00293  -0.00293  -2.95174
   D24       -0.78989  -0.00056  -0.00001   0.00629   0.00628  -0.78361
   D25       -0.87747   0.00049   0.00007  -0.00178  -0.00171  -0.87918
   D26        1.17691   0.00039   0.00009  -0.00799  -0.00790   1.16900
   D27       -2.94736   0.00064   0.00007   0.00123   0.00131  -2.94606
   D28       -2.99010  -0.00060   0.00001  -0.04229  -0.04224  -3.03234
   D29       -0.93327  -0.00047   0.00003  -0.04365  -0.04359  -0.97685
   D30        1.22125  -0.00070   0.00001  -0.04353  -0.04348   1.17777
   D31        1.17916   0.00022  -0.00001  -0.01843  -0.01845   1.16071
   D32       -3.04719   0.00035   0.00001  -0.01980  -0.01980  -3.06699
   D33       -0.89268   0.00012  -0.00001  -0.01967  -0.01970  -0.91238
   D34       -0.95659  -0.00000   0.00005  -0.03871  -0.03869  -0.99528
   D35        1.10025   0.00013   0.00006  -0.04007  -0.04004   1.06021
   D36       -3.02843  -0.00010   0.00004  -0.03995  -0.03993  -3.06836
         Item               Value     Threshold  Converged?
 Maximum Force            0.008122     0.000450     NO 
 RMS     Force            0.001495     0.000300     NO 
 Maximum Displacement     0.133184     0.001800     NO 
 RMS     Displacement     0.045423     0.001200     NO 
 Predicted change in Energy=-5.882306D-04
 GradGradGradGradGradGradGradGradGradGradGradGradGradGradGradGradGradGrad

                          Input orientation:                          
 ---------------------------------------------------------------------
 Center     Atomic      Atomic             Coordinates (Angstroms)
 Number     Number       Type             X           Y           Z
 ---------------------------------------------------------------------
      1          5           0       -1.781185    0.723420   -0.079496
      2          9           0       -1.679368    1.816965   -0.923395
      3          9           0       -1.941466    1.077838    1.257711
      4          9           0       -2.746531   -0.176863   -0.511344
      5          8           0       -0.389432   -0.037557   -0.178384
      6          6           0       -0.451635   -1.492490    0.095430
      7          6           0        0.752413   -2.232516   -0.439710
      8          6           0        0.760247    0.613990    0.487166
      9          6           0        0.907218    2.062747    0.095808
     10          1           0       -0.578965   -1.604386    1.178738
     11          1           0       -1.359162   -1.804462   -0.416207
     12          1           0        0.499664   -3.299184   -0.428413
     13          1           0        0.956412   -1.944015   -1.477446
     14          1           0        1.653653   -2.101044    0.165998
     15          1           0        0.601942    0.485584    1.563720
     16          1           0        1.629130    0.042422    0.164584
     17          1           0        1.843301    2.407735    0.551536
     18          1           0        0.988751    2.173418   -0.990011
     19          1           0        0.088553    2.684379    0.466129
 ---------------------------------------------------------------------
                    Distance matrix (angstroms):
                    1          2          3          4          5
     1  B    0.000000
     2  F    1.385053   0.000000
     3  F    1.392632   2.317807   0.000000
     4  F    1.388847   2.298689   2.313431   0.000000
     5  O    1.589290   2.378704   2.390666   2.384573   0.000000
     6  C    2.590089   3.673939   3.190154   2.713964   1.481781
     7  C    3.909786   4.748242   4.593110   4.058750   2.487960
     8  C    2.606138   3.064075   2.847481   3.730947   1.479605
     9  C    3.008660   2.790987   3.230335   4.328321   2.483497
    10  H    2.906401   4.163592   3.009480   3.097184   2.081504
    11  H    2.584892   3.670764   3.383598   2.140776   2.029505
    12  H    4.637388   5.582847   5.287765   4.504837   3.389870
    13  H    4.069878   4.625936   5.001037   4.215206   2.670849
    14  H    4.453760   5.258004   4.921586   4.850040   2.924170
    15  H    2.904483   3.628043   2.629321   3.994622   2.071576
    16  H    3.486199   3.908819   3.875070   4.432987   2.049052
    17  H    4.046235   3.864405   4.073300   5.373678   3.390771
    18  H    3.256391   2.692649   3.852106   4.439063   2.728835
    19  H    2.763871   2.410130   2.707130   4.144859   2.837745
                    6          7          8          9         10
     6  C    0.000000
     7  C    1.511206   0.000000
     8  C    2.461580   2.993619   0.000000
     9  C    3.806073   4.331284   1.507865   0.000000
    10  H    1.096490   2.187805   2.681969   4.102358   0.000000
    11  H    1.087522   2.154653   3.340193   4.511534   1.786782
    12  H    2.107967   1.096262   4.027297   5.402889   2.572686
    13  H    2.158797   1.096240   3.231341   4.304844   3.086752
    14  H    2.192614   1.093802   2.876236   4.230750   2.501379
    15  H    2.679306   3.380006   1.095682   2.176098   2.431199
    16  H    2.586565   2.511801   1.088902   2.146532   2.935331
    17  H    4.548243   4.868730   2.096347   1.096794   4.728411
    18  H    4.085557   4.446453   2.160111   1.094486   4.629581
    19  H    4.227937   5.043521   2.176723   1.092600   4.398511
                   11         12         13         14         15
    11  H    0.000000
    12  H    2.385284   0.000000
    13  H    2.550997   1.773576   0.000000
    14  H    3.082853   1.766509   1.792125   0.000000
    15  H    3.606987   4.278262   3.908617   3.122558   0.000000
    16  H    3.560645   3.576824   2.663595   2.143606   1.791393
    17  H    5.379117   5.944290   4.882731   4.529204   2.502030
    18  H    4.654620   5.523041   4.146311   4.477664   3.085442
    19  H    4.798342   6.064012   5.094378   5.043796   2.510572
                   16         17         18         19
    16  H    0.000000
    17  H    2.406306   0.000000
    18  H    2.506855   1.778068   0.000000
    19  H    3.073149   1.778473   1.786555   0.000000
 Stoichiometry    C4H10BF3O
 Framework group  C1[X(C4H10BF3O)]
 Deg. of freedom    51
 Full point group                 C1      NOp   1
 Largest Abelian subgroup         C1      NOp   1
 Largest concise Abelian subgroup C1      NOp   1
                         Standard orientation:                         
 ---------------------------------------------------------------------
 Center     Atomic      Atomic             Coordinates (Angstroms)
 Number     Number       Type             X           Y           Z
 ---------------------------------------------------------------------
      1          5           0       -1.006424   -0.633116   -0.027056
      2          9           0       -1.813948   -0.034788   -0.980094
      3          9           0       -1.439956   -0.406815    1.276885
      4          9           0       -0.800525   -1.980492   -0.293666
      5          8           0        0.414864    0.066422   -0.155238
      6          6           0        1.563516   -0.770125    0.264836
      7          6           0        2.877409   -0.264053   -0.284090
      8          6           0        0.509223    1.452466    0.353888
      9          6           0       -0.581572    2.341011   -0.188616
     10          1           0        1.541349   -0.809079    1.360410
     11          1           0        1.322371   -1.748842   -0.143413
     12          1           0        3.608808   -1.069313   -0.148432
     13          1           0        2.796496   -0.057661   -1.357681
     14          1           0        3.259567    0.619163    0.235801
     15          1           0        0.483228    1.378079    1.446732
     16          1           0        1.485759    1.804083    0.024572
     17          1           0       -0.349128    3.355048    0.158739
     18          1           0       -0.584388    2.341497   -1.283098
     19          1           0       -1.572440    2.064292    0.179328
 ---------------------------------------------------------------------
 Rotational constants (GHZ):           1.8466545           1.3780535           0.9810782
 Standard basis: Aug-CC-pVDZ (5D, 7F)
 There are   315 symmetry adapted cartesian basis functions of A   symmetry.
 There are   297 symmetry adapted basis functions of A   symmetry.
   297 basis functions,   497 primitive gaussians,   315 cartesian basis functions
    37 alpha electrons       37 beta electrons
       nuclear repulsion energy       524.6209336916 Hartrees.
 NAtoms=   19 NActive=   19 NUniq=   19 SFac= 1.00D+00 NAtFMM=   60 NAOKFM=F Big=F
 Integral buffers will be    131072 words long.
 Raffenetti 2 integral format.
 Two-electron integral symmetry is turned on.
 Nuclear repulsion after empirical dispersion term =      524.6088289583 Hartrees.
 Force PCM accuracy= 1.00D-12.
 ------------------------------------------------------------------------------
 Polarizable Continuum Model (PCM)
 =================================
 Model                : C-PCM.
 Atomic radii         : UFF (Universal Force Field).
 Polarization charges : Total charges.
 Charge compensation  : None.
 Solution method      : On-the-fly selection.
 Cavity type          : Scaled VdW (van der Waals Surface) (Alpha=1.100).
 Cavity algorithm     : GePol (No added spheres)
                        Default sphere list used, NSphG=   19.
                        Lebedev-Laikov grids with approx.  5.0 points / Ang**2.
                        Smoothing algorithm: York/Karplus (Gamma=1.0000).
                        Polarization charges: spherical gaussians, with
                                              point-specific exponents (IZeta= 3).
                        Self-potential: point-specific (ISelfS= 7).
                        Self-field    : sphere-specific E.n sum rule (ISelfD= 2).
 1st derivatives      : Analytical E(r).r(x)/FMM algorithm (CHGder, D1EAlg=3).
                        Cavity 1st derivative terms included.
 Solvent              : TetraHydroFuran, Eps=   7.425700 Eps(inf)=   1.974025
 ------------------------------------------------------------------------------
 Spheres list:
 ISph  on   Nord     Re0    Alpha      Xe            Ye            Ze
    1   B      1    2.0415  1.100     -1.006424     -0.633116     -0.027056
    2   F      2    1.6820  1.100     -1.813948     -0.034788     -0.980094
    3   F      3    1.6820  1.100     -1.439956     -0.406815      1.276885
    4   F      4    1.6820  1.100     -0.800525     -1.980492     -0.293666
    5   O      5    1.7500  1.100      0.414864      0.066422     -0.155238
    6   C      6    1.9255  1.100      1.563516     -0.770125      0.264836
    7   C      7    1.9255  1.100      2.877409     -0.264053     -0.284090
    8   C      8    1.9255  1.100      0.509223      1.452466      0.353888
    9   C      9    1.9255  1.100     -0.581572      2.341011     -0.188616
   10   H     10    1.4430  1.100      1.541349     -0.809079      1.360410
   11   H     11    1.4430  1.100      1.322371     -1.748842     -0.143413
   12   H     12    1.4430  1.100      3.608808     -1.069313     -0.148432
   13   H     13    1.4430  1.100      2.796496     -0.057661     -1.357681
   14   H     14    1.4430  1.100      3.259567      0.619163      0.235801
   15   H     15    1.4430  1.100      0.483228      1.378079      1.446732
   16   H     16    1.4430  1.100      1.485759      1.804083      0.024572
   17   H     17    1.4430  1.100     -0.349128      3.355048      0.158739
   18   H     18    1.4430  1.100     -0.584388      2.341497     -1.283098
   19   H     19    1.4430  1.100     -1.572440      2.064292      0.179328
 ------------------------------------------------------------------------------
 One-electron integrals computed using PRISM.
 NBasis=   297 RedAO= T EigKep=  3.17D-05  NBF=   297
 NBsUse=   297 1.00D-06 EigRej= -1.00D+00 NBFU=   297
 Initial guess from the checkpoint file:  "/inspire/hdd/project/materialscienceresearch/lipenghui-253107030018/g16/00-B-DFT-Shift/04-output/BF3OEt2_THF/BF3OEt2_THF.chk"
 B after Tr=     0.000000    0.000000   -0.000000
         Rot=    0.999743    0.001153    0.002027   -0.022548 Ang=   2.60 deg.
 ExpMin= 2.38D-02 ExpMax= 1.47D+04 ExpMxC= 5.03D+02 IAcc=3 IRadAn=         5 AccDes= 0.00D+00
 Harris functional with IExCor= 4639 and IRadAn=       5 diagonalized for initial guess.
 HarFok:  IExCor= 4639 AccDes= 0.00D+00 IRadAn=         5 IDoV= 1 UseB2=F ITyADJ=14
 ICtDFT=  3500011 ScaDFX=  1.000000  1.000000  1.000000  1.000000
 FoFCou: FMM=F IPFlag=           0 FMFlag=      100000 FMFlg1=           0
         NFxFlg=           0 DoJE=T BraDBF=F KetDBF=T FulRan=T
         wScrn=  0.000000 ICntrl=       500 IOpCl=  0 I1Cent=   200000004 NGrid=           0
         NMat0=    1 NMatS0=      1 NMatT0=    0 NMatD0=    1 NMtDS0=    0 NMtDT0=    0
 Petite list used in FoFCou.
 Requested convergence on RMS density matrix=1.00D-08 within 128 cycles.
 Requested convergence on MAX density matrix=1.00D-06.
 Requested convergence on             energy=1.00D-06.
 No special actions if energy rises.
 Inv3:  Mode=1 IEnd=     6741003.
 Iteration    1 A*A^-1 deviation from unit magnitude is 3.77D-15 for   1480.
 Iteration    1 A*A^-1 deviation from orthogonality  is 2.06D-15 for   1490   1075.
 Iteration    1 A^-1*A deviation from unit magnitude is 3.55D-15 for   1480.
 Iteration    1 A^-1*A deviation from orthogonality  is 2.58D-15 for   1492   1038.
 Error on total polarization charges =  0.00977
 SCF Done:  E(RwB97XD) =  -558.148663656     A.U. after   11 cycles
            NFock= 11  Conv=0.50D-08     -V/T= 2.0060
 D1PCM: C-PCM CHGder 1st derivatives, ID1Alg=3 FixD1E=F DoIter=F DoCFld=F I1PDM=0.
 Calling FoFJK, ICntrl=      2127 FMM=F ISym2X=0 I1Cent= 0 IOpClX= 0 NMat=1 NMatS=1 NMatT=0.
 ***** Axes restored to original set *****
 -------------------------------------------------------------------
 Center     Atomic                   Forces (Hartrees/Bohr)
 Number     Number              X              Y              Z
 -------------------------------------------------------------------
      1        5          -0.002222989    0.000938225    0.000136811
      2        9          -0.001631344   -0.001156942   -0.000083458
      3        9          -0.000134689   -0.000229846   -0.001016415
      4        9           0.000543072    0.001196937    0.000372246
      5        8           0.004685192   -0.002658882    0.000132635
      6        6          -0.000136451    0.005430817   -0.000482946
      7        6          -0.001183028    0.000263592   -0.000392639
      8        6          -0.006231314   -0.002252780   -0.001069030
      9        6           0.001936724   -0.000101121    0.000775042
     10        1           0.000293333   -0.000881559    0.000434782
     11        1          -0.000639918   -0.001466517    0.000222771
     12        1           0.000338494   -0.000849020    0.000010929
     13        1           0.000125391    0.000166915   -0.000401744
     14        1           0.000615024    0.000726525    0.000514173
     15        1           0.001067274    0.000329062    0.000831476
     16        1           0.001660020   -0.000670181   -0.000010002
     17        1           0.000531133    0.000956925    0.000106901
     18        1           0.000039634    0.000114750   -0.000454647
     19        1           0.000344442    0.000143100    0.000373114
 -------------------------------------------------------------------
 Cartesian Forces:  Max     0.006231314 RMS     0.001541014

 GradGradGradGradGradGradGradGradGradGradGradGradGradGradGradGradGradGrad
 Berny optimization.
 Using GEDIIS/GDIIS optimizer.
 FormGI is forming the generalized inverse of G from B-inverse, IUseBI=4.
 Internal  Forces:  Max     0.004182299 RMS     0.001186337
 Search for a local minimum.
 Step number   5 out of a maximum of   97
 All quantities printed in internal units (Hartrees-Bohrs-Radians)
 Mixed Optimization -- RFO/linear search
 Update second derivatives using D2CorX and points    2    3    4    5
 DE= -3.60D-04 DEPred=-5.88D-04 R= 6.11D-01
 TightC=F SS=  1.41D+00  RLast= 1.86D-01 DXNew= 1.4270D+00 5.5869D-01
 Trust test= 6.11D-01 RLast= 1.86D-01 DXMaxT set to 8.49D-01
 ITU=  1  1  1  1  0
 Use linear search instead of GDIIS.
     Eigenvalues ---    0.00251   0.00280   0.01059   0.01344   0.01440
     Eigenvalues ---    0.02364   0.04327   0.04572   0.05149   0.05230
     Eigenvalues ---    0.05297   0.05574   0.05923   0.05994   0.09827
     Eigenvalues ---    0.10468   0.12333   0.12824   0.12866   0.13034
     Eigenvalues ---    0.13399   0.16000   0.16000   0.16000   0.16018
     Eigenvalues ---    0.16066   0.16745   0.19545   0.20654   0.22182
     Eigenvalues ---    0.24792   0.25048   0.26945   0.28316   0.28442
     Eigenvalues ---    0.28563   0.28814   0.31445   0.31837   0.31935
     Eigenvalues ---    0.31988   0.32092   0.32138   0.32156   0.32182
     Eigenvalues ---    0.32255   0.33736   0.34880   0.37877   0.41780
     Eigenvalues ---    0.47731
 RFO step:  Lambda=-3.79935212D-04 EMin= 2.51072406D-03
 Quartic linear search produced a step of -0.26706.
 Iteration  1 RMS(Cart)=  0.02801212 RMS(Int)=  0.00039307
 Iteration  2 RMS(Cart)=  0.00044407 RMS(Int)=  0.00001916
 Iteration  3 RMS(Cart)=  0.00000016 RMS(Int)=  0.00001916
 Variable       Old X    -DE/DX   Delta X   Delta X   Delta X     New X
                                 (Linear)    (Quad)   (Total)
    R1        2.61737  -0.00098   0.00112  -0.00773  -0.00661   2.61077
    R2        2.63169  -0.00102   0.00074  -0.00681  -0.00607   2.62562
    R3        2.62454  -0.00127   0.00022  -0.00632  -0.00610   2.61844
    R4        3.00332   0.00334  -0.01284   0.03736   0.02451   3.02784
    R5        2.80016  -0.00332  -0.00324   0.00215  -0.00109   2.79907
    R6        2.79605  -0.00092  -0.00143   0.00226   0.00083   2.79688
    R7        2.85577  -0.00013   0.00027  -0.00132  -0.00105   2.85472
    R8        2.07207   0.00049   0.00004   0.00079   0.00084   2.07290
    R9        2.05512   0.00085   0.00025   0.00103   0.00128   2.05640
   R10        2.07164   0.00075  -0.00030   0.00221   0.00191   2.07355
   R11        2.07159   0.00045   0.00011   0.00055   0.00067   2.07226
   R12        2.06699   0.00088   0.00055   0.00052   0.00107   2.06806
   R13        2.84945   0.00114   0.00121  -0.00022   0.00100   2.85045
   R14        2.07054   0.00062  -0.00005   0.00132   0.00127   2.07181
   R15        2.05773   0.00168   0.00080   0.00175   0.00254   2.06027
   R16        2.07264   0.00080  -0.00014   0.00196   0.00182   2.07446
   R17        2.06828   0.00047  -0.00002   0.00089   0.00086   2.06914
   R18        2.06472  -0.00005  -0.00020   0.00009  -0.00010   2.06461
    A1        1.97422  -0.00027  -0.00083   0.00347   0.00268   1.97689
    A2        1.95351  -0.00168  -0.00305   0.00144  -0.00159   1.95191
    A3        1.85017   0.00227   0.00324  -0.00092   0.00233   1.85250
    A4        1.96442  -0.00056  -0.00248   0.00387   0.00140   1.96582
    A5        1.85708   0.00027   0.00296  -0.00612  -0.00314   1.85394
    A6        1.85350   0.00033   0.00099  -0.00304  -0.00205   1.85145
    A7        2.00632   0.00005  -0.00267   0.00457   0.00193   2.00825
    A8        2.02818   0.00328   0.00214   0.00620   0.00843   2.03661
    A9        1.96262  -0.00346  -0.00568  -0.00191  -0.00758   1.95504
   A10        1.96269  -0.00281  -0.00284  -0.00270  -0.00554   1.95715
   A11        1.86256   0.00125   0.00059   0.00147   0.00205   1.86461
   A12        1.80263   0.00195   0.00324   0.00529   0.00852   1.81115
   A13        1.97404   0.00016  -0.00051  -0.00271  -0.00322   1.97082
   A14        1.93671   0.00006   0.00119  -0.00220  -0.00101   1.93570
   A15        1.91625  -0.00043  -0.00141   0.00173   0.00031   1.91656
   A16        1.86411   0.00092   0.00072   0.00362   0.00434   1.86846
   A17        1.93329   0.00000   0.00034  -0.00143  -0.00109   1.93221
   A18        1.98398  -0.00083  -0.00097  -0.00244  -0.00341   1.98057
   A19        1.88465  -0.00019   0.00087  -0.00090  -0.00003   1.88462
   A20        1.87676   0.00000   0.00073  -0.00052   0.00021   1.87697
   A21        1.91691   0.00013  -0.00151   0.00178   0.00027   1.91718
   A22        1.96284   0.00418   0.00558   0.00390   0.00950   1.97234
   A23        1.85260  -0.00051   0.00156   0.00328   0.00488   1.85748
   A24        1.82928  -0.00124  -0.00221   0.00064  -0.00158   1.82771
   A25        1.96243  -0.00132   0.00032  -0.00389  -0.00357   1.95886
   A26        1.92801  -0.00134  -0.00251  -0.00302  -0.00555   1.92246
   A27        1.92287   0.00029  -0.00294  -0.00036  -0.00332   1.91955
   A28        1.85205   0.00103   0.00020   0.00373   0.00393   1.85597
   A29        1.94111  -0.00001   0.00034  -0.00047  -0.00013   1.94097
   A30        1.96670  -0.00005   0.00055  -0.00178  -0.00123   1.96547
   A31        1.89319  -0.00040   0.00005  -0.00118  -0.00113   1.89206
   A32        1.89621  -0.00063  -0.00063  -0.00192  -0.00255   1.89366
   A33        1.91191   0.00005  -0.00053   0.00160   0.00108   1.91299
    D1       -2.66546   0.00014  -0.00163   0.02514   0.02352  -2.64194
    D2        1.27367   0.00186   0.00790   0.01594   0.02379   1.29746
    D3        1.51153  -0.00085  -0.00391   0.02470   0.02083   1.53236
    D4       -0.83252   0.00088   0.00562   0.01549   0.02110  -0.81143
    D5       -0.58500  -0.00051  -0.00305   0.02485   0.02183  -0.56317
    D6       -2.92905   0.00122   0.00648   0.01565   0.02210  -2.90695
    D7        2.81302  -0.00066   0.01631  -0.04270  -0.02635   2.78667
    D8       -1.29596  -0.00140   0.01424  -0.04682  -0.03255  -1.32851
    D9        0.72397  -0.00050   0.01437  -0.04193  -0.02750   0.69647
   D10       -1.09661   0.00065   0.01075  -0.03031  -0.01961  -1.11622
   D11        1.07759  -0.00008   0.00868  -0.03444  -0.02580   1.05179
   D12        3.09752   0.00082   0.00881  -0.02954  -0.02076   3.07676
   D13       -0.88159  -0.00059  -0.00927  -0.00046  -0.00973  -0.89132
   D14        1.27120   0.00001  -0.00420  -0.00065  -0.00485   1.26635
   D15       -2.97678  -0.00046  -0.00784   0.00067  -0.00718  -2.98396
   D16        3.03826  -0.00037  -0.00122  -0.01219  -0.01340   3.02485
   D17       -1.09214   0.00023   0.00386  -0.01238  -0.00852  -1.10066
   D18        0.94307  -0.00024   0.00021  -0.01106  -0.01085   0.93221
   D19       -2.88849  -0.00054  -0.00257  -0.03248  -0.03505  -2.92354
   D20       -0.84030  -0.00022  -0.00092  -0.03222  -0.03313  -0.87343
   D21        1.32783  -0.00067  -0.00338  -0.03283  -0.03620   1.29163
   D22        1.28326  -0.00021  -0.00087  -0.03041  -0.03128   1.25198
   D23       -2.95174   0.00011   0.00078  -0.03014  -0.02936  -2.98110
   D24       -0.78361  -0.00034  -0.00168  -0.03075  -0.03242  -0.81604
   D25       -0.87918   0.00019   0.00046  -0.02896  -0.02851  -0.90769
   D26        1.16900   0.00051   0.00211  -0.02870  -0.02659   1.14242
   D27       -2.94606   0.00006  -0.00035  -0.02931  -0.02965  -2.97571
   D28       -3.03234   0.00040   0.01128   0.00573   0.01700  -3.01533
   D29       -0.97685   0.00052   0.01164   0.00627   0.01790  -0.95895
   D30        1.17777   0.00054   0.01161   0.00670   0.01830   1.19607
   D31        1.16071  -0.00098   0.00493   0.00148   0.00642   1.16713
   D32       -3.06699  -0.00086   0.00529   0.00202   0.00733  -3.05967
   D33       -0.91238  -0.00084   0.00526   0.00245   0.00773  -0.90465
   D34       -0.99528   0.00059   0.01033   0.00701   0.01733  -0.97795
   D35        1.06021   0.00071   0.01069   0.00755   0.01823   1.07844
   D36       -3.06836   0.00073   0.01066   0.00797   0.01863  -3.04973
         Item               Value     Threshold  Converged?
 Maximum Force            0.004182     0.000450     NO 
 RMS     Force            0.001186     0.000300     NO 
 Maximum Displacement     0.086972     0.001800     NO 
 RMS     Displacement     0.028057     0.001200     NO 
 Predicted change in Energy=-2.488177D-04
 GradGradGradGradGradGradGradGradGradGradGradGradGradGradGradGradGradGrad

                          Input orientation:                          
 ---------------------------------------------------------------------
 Center     Atomic      Atomic             Coordinates (Angstroms)
 Number     Number       Type             X           Y           Z
 ---------------------------------------------------------------------
      1          5           0       -1.801286    0.723362   -0.093496
      2          9           0       -1.708747    1.796251   -0.958973
      3          9           0       -1.962126    1.101209    1.233848
      4          9           0       -2.756313   -0.191465   -0.506962
      5          8           0       -0.393463   -0.037327   -0.174927
      6          6           0       -0.449164   -1.491608    0.100625
      7          6           0        0.751013   -2.222421   -0.453951
      8          6           0        0.752834    0.611692    0.499841
      9          6           0        0.925843    2.057973    0.107941
     10          1           0       -0.554354   -1.605376    1.186560
     11          1           0       -1.363065   -1.814210   -0.394238
     12          1           0        0.523750   -3.294962   -0.409008
     13          1           0        0.916357   -1.955152   -1.504543
     14          1           0        1.667238   -2.055020    0.120639
     15          1           0        0.587652    0.490630    1.576899
     16          1           0        1.622024    0.031735    0.188715
     17          1           0        1.869111    2.389950    0.560834
     18          1           0        1.006751    2.167025   -0.978549
     19          1           0        0.119484    2.693697    0.481161
 ---------------------------------------------------------------------
                    Distance matrix (angstroms):
                    1          2          3          4          5
     1  B    0.000000
     2  F    1.381558   0.000000
     3  F    1.389418   2.314249   0.000000
     4  F    1.385619   2.291882   2.309147   0.000000
     5  O    1.602262   2.388872   2.396167   2.391039   0.000000
     6  C    2.602309   3.676862   3.208731   2.717070   1.481204
     7  C    3.914306   4.738691   4.610456   4.053261   2.482401
     8  C    2.624509   3.096885   2.854716   3.738025   1.480046
     9  C    3.042860   2.854447   3.243984   4.358481   2.492161
    10  H    2.935371   4.184136   3.051173   3.117015   2.082861
    11  H    2.592635   3.670674   3.392523   2.141763   2.036059
    12  H    4.653200   5.586318   5.310826   4.516647   3.392382
    13  H    4.068301   4.611056   5.012564   4.194552   2.676108
    14  H    4.449260   5.234035   4.936932   4.840922   2.899126
    15  H    2.924279   3.661794   2.644212   3.998729   2.076107
    16  H    3.503861   3.940145   3.883582   4.438877   2.049194
    17  H    4.083806   3.932347   4.097826   5.403558   3.398861
    18  H    3.279109   2.740764   3.852908   4.466041   2.732321
    19  H    2.811016   2.494358   2.726840   4.191749   2.855182
                    6          7          8          9         10
     6  C    0.000000
     7  C    1.510651   0.000000
     8  C    2.455208   2.990305   0.000000
     9  C    3.806603   4.320655   1.508392   0.000000
    10  H    1.096933   2.185407   2.663778   4.095672   0.000000
    11  H    1.088199   2.153956   3.340870   4.526045   1.787889
    12  H    2.111486   1.097274   4.017516   5.392849   2.561806
    13  H    2.157796   1.096593   3.260826   4.324970   3.086644
    14  H    2.190203   1.094370   2.844518   4.179299   2.504763
    15  H    2.680231   3.392887   1.096355   2.174575   2.418632
    16  H    2.572578   2.500581   1.090248   2.144022   2.900422
    17  H    4.544522   4.853236   2.100474   1.097759   4.714588
    18  H    4.082879   4.428075   2.160826   1.094942   4.621228
    19  H    4.240867   5.043955   2.176287   1.092545   4.408364
                   11         12         13         14         15
    11  H    0.000000
    12  H    2.398523   0.000000
    13  H    2.539371   1.774663   0.000000
    14  H    3.083151   1.767921   1.793047   0.000000
    15  H    3.605962   4.275349   3.947807   3.125145   0.000000
    16  H    3.557823   3.553926   2.704221   2.088355   1.790967
    17  H    5.388328   5.921892   4.904430   4.471273   2.506380
    18  H    4.669869   5.512800   4.156583   4.412496   3.084843
    19  H    4.825506   6.067938   5.117599   5.007578   2.504661
                   16         17         18         19
    16  H    0.000000
    17  H    2.400145   0.000000
    18  H    2.510086   1.778499   0.000000
    19  H    3.070699   1.777584   1.787563   0.000000
 Stoichiometry    C4H10BF3O
 Framework group  C1[X(C4H10BF3O)]
 Deg. of freedom    51
 Full point group                 C1      NOp   1
 Largest Abelian subgroup         C1      NOp   1
 Largest concise Abelian subgroup C1      NOp   1
                         Standard orientation:                         
 ---------------------------------------------------------------------
 Center     Atomic      Atomic             Coordinates (Angstroms)
 Number     Number       Type             X           Y           Z
 ---------------------------------------------------------------------
      1          5           0       -1.030845   -0.617714   -0.028330
      2          9           0       -1.811753   -0.028577   -1.003934
      3          9           0       -1.475490   -0.357394    1.262021
      4          9           0       -0.843458   -1.970033   -0.265098
      5          8           0        0.416779    0.058548   -0.147919
      6          6           0        1.546926   -0.798483    0.278966
      7          6           0        2.863855   -0.331791   -0.295457
      8          6           0        0.547799    1.442800    0.359245
      9          6           0       -0.502656    2.374487   -0.191889
     10          1           0        1.539667   -0.810756    1.375807
     11          1           0        1.283933   -1.783063   -0.102627
     12          1           0        3.592734   -1.133465   -0.122067
     13          1           0        2.781698   -0.177282   -1.377998
     14          1           0        3.250634    0.574379    0.180887
     15          1           0        0.511286    1.376994    1.453014
     16          1           0        1.539337    1.762788    0.038152
     17          1           0       -0.228451    3.382749    0.144702
     18          1           0       -0.505922    2.364452   -1.286780
     19          1           0       -1.504144    2.145341    0.179823
 ---------------------------------------------------------------------
 Rotational constants (GHZ):           1.8348861           1.3736348           0.9761156
 Standard basis: Aug-CC-pVDZ (5D, 7F)
 There are   315 symmetry adapted cartesian basis functions of A   symmetry.
 There are   297 symmetry adapted basis functions of A   symmetry.
   297 basis functions,   497 primitive gaussians,   315 cartesian basis functions
    37 alpha electrons       37 beta electrons
       nuclear repulsion energy       523.6918747059 Hartrees.
 NAtoms=   19 NActive=   19 NUniq=   19 SFac= 1.00D+00 NAtFMM=   60 NAOKFM=F Big=F
 Integral buffers will be    131072 words long.
 Raffenetti 2 integral format.
 Two-electron integral symmetry is turned on.
 Nuclear repulsion after empirical dispersion term =      523.6797757198 Hartrees.
 Force PCM accuracy= 1.00D-12.
 ------------------------------------------------------------------------------
 Polarizable Continuum Model (PCM)
 =================================
 Model                : C-PCM.
 Atomic radii         : UFF (Universal Force Field).
 Polarization charges : Total charges.
 Charge compensation  : None.
 Solution method      : On-the-fly selection.
 Cavity type          : Scaled VdW (van der Waals Surface) (Alpha=1.100).
 Cavity algorithm     : GePol (No added spheres)
                        Default sphere list used, NSphG=   19.
                        Lebedev-Laikov grids with approx.  5.0 points / Ang**2.
                        Smoothing algorithm: York/Karplus (Gamma=1.0000).
                        Polarization charges: spherical gaussians, with
                                              point-specific exponents (IZeta= 3).
                        Self-potential: point-specific (ISelfS= 7).
                        Self-field    : sphere-specific E.n sum rule (ISelfD= 2).
 1st derivatives      : Analytical E(r).r(x)/FMM algorithm (CHGder, D1EAlg=3).
                        Cavity 1st derivative terms included.
 Solvent              : TetraHydroFuran, Eps=   7.425700 Eps(inf)=   1.974025
 ------------------------------------------------------------------------------
 Spheres list:
 ISph  on   Nord     Re0    Alpha      Xe            Ye            Ze
    1   B      1    2.0415  1.100     -1.030845     -0.617714     -0.028330
    2   F      2    1.6820  1.100     -1.811753     -0.028577     -1.003934
    3   F      3    1.6820  1.100     -1.475490     -0.357394      1.262021
    4   F      4    1.6820  1.100     -0.843458     -1.970033     -0.265098
    5   O      5    1.7500  1.100      0.416779      0.058548     -0.147919
    6   C      6    1.9255  1.100      1.546926     -0.798483      0.278966
    7   C      7    1.9255  1.100      2.863855     -0.331791     -0.295457
    8   C      8    1.9255  1.100      0.547799      1.442800      0.359245
    9   C      9    1.9255  1.100     -0.502656      2.374487     -0.191889
   10   H     10    1.4430  1.100      1.539667     -0.810756      1.375807
   11   H     11    1.4430  1.100      1.283933     -1.783063     -0.102627
   12   H     12    1.4430  1.100      3.592734     -1.133465     -0.122067
   13   H     13    1.4430  1.100      2.781698     -0.177282     -1.377998
   14   H     14    1.4430  1.100      3.250634      0.574379      0.180887
   15   H     15    1.4430  1.100      0.511286      1.376994      1.453014
   16   H     16    1.4430  1.100      1.539337      1.762788      0.038152
   17   H     17    1.4430  1.100     -0.228451      3.382749      0.144702
   18   H     18    1.4430  1.100     -0.505922      2.364452     -1.286780
   19   H     19    1.4430  1.100     -1.504144      2.145341      0.179823
 ------------------------------------------------------------------------------
 One-electron integrals computed using PRISM.
 NBasis=   297 RedAO= T EigKep=  3.12D-05  NBF=   297
 NBsUse=   297 1.00D-06 EigRej= -1.00D+00 NBFU=   297
 Initial guess from the checkpoint file:  "/inspire/hdd/project/materialscienceresearch/lipenghui-253107030018/g16/00-B-DFT-Shift/04-output/BF3OEt2_THF/BF3OEt2_THF.chk"
 B after Tr=    -0.000000    0.000000    0.000000
         Rot=    0.999918    0.004244    0.001636    0.011969 Ang=   1.47 deg.
 ExpMin= 2.38D-02 ExpMax= 1.47D+04 ExpMxC= 5.03D+02 IAcc=3 IRadAn=         5 AccDes= 0.00D+00
 Harris functional with IExCor= 4639 and IRadAn=       5 diagonalized for initial guess.
 HarFok:  IExCor= 4639 AccDes= 0.00D+00 IRadAn=         5 IDoV= 1 UseB2=F ITyADJ=14
 ICtDFT=  3500011 ScaDFX=  1.000000  1.000000  1.000000  1.000000
 FoFCou: FMM=F IPFlag=           0 FMFlag=      100000 FMFlg1=           0
         NFxFlg=           0 DoJE=T BraDBF=F KetDBF=T FulRan=T
         wScrn=  0.000000 ICntrl=       500 IOpCl=  0 I1Cent=   200000004 NGrid=           0
         NMat0=    1 NMatS0=      1 NMatT0=    0 NMatD0=    1 NMtDS0=    0 NMtDT0=    0
 Petite list used in FoFCou.
 Requested convergence on RMS density matrix=1.00D-08 within 128 cycles.
 Requested convergence on MAX density matrix=1.00D-06.
 Requested convergence on             energy=1.00D-06.
 No special actions if energy rises.
 Inv3:  Mode=1 IEnd=     6768012.
 Iteration    1 A*A^-1 deviation from unit magnitude is 4.44D-15 for   1499.
 Iteration    1 A*A^-1 deviation from orthogonality  is 2.10D-15 for   1499    720.
 Iteration    1 A^-1*A deviation from unit magnitude is 4.44D-15 for   1499.
 Iteration    1 A^-1*A deviation from orthogonality  is 2.92D-15 for   1356    868.
 Error on total polarization charges =  0.00978
 SCF Done:  E(RwB97XD) =  -558.148931332     A.U. after   10 cycles
            NFock= 10  Conv=0.85D-08     -V/T= 2.0061
 D1PCM: C-PCM CHGder 1st derivatives, ID1Alg=3 FixD1E=F DoIter=F DoCFld=F I1PDM=0.
 Calling FoFJK, ICntrl=      2127 FMM=F ISym2X=0 I1Cent= 0 IOpClX= 0 NMat=1 NMatS=1 NMatT=0.
 ***** Axes restored to original set *****
 -------------------------------------------------------------------
 Center     Atomic                   Forces (Hartrees/Bohr)
 Number     Number              X              Y              Z
 -------------------------------------------------------------------
      1        5          -0.000259823   -0.000120181    0.000550509
      2        9           0.000540698    0.000522812   -0.000628587
      3        9           0.000150244    0.000144228    0.000428419
      4        9          -0.000277220   -0.000377572   -0.000087597
      5        8           0.003213521   -0.001317595    0.000724389
      6        6           0.000106415    0.005005116   -0.000408680
      7        6          -0.000721133   -0.000637307   -0.000593247
      8        6          -0.004539888   -0.002564644   -0.000909536
      9        6           0.000554926   -0.000337727   -0.000188325
     10        1           0.000060764   -0.000604701    0.000176995
     11        1          -0.000443546   -0.000708289    0.000382731
     12        1           0.000274080   -0.000139381    0.000082295
     13        1           0.000233136    0.000179333   -0.000103214
     14        1           0.000383715    0.000094815    0.000100072
     15        1           0.000509461    0.000072448    0.000293178
     16        1           0.000771262   -0.000074207    0.000360802
     17        1          -0.000113003    0.000390189   -0.000037609
     18        1          -0.000045235    0.000143978   -0.000283492
     19        1          -0.000398374    0.000328683    0.000140895
 -------------------------------------------------------------------
 Cartesian Forces:  Max     0.005005116 RMS     0.001128696

 GradGradGradGradGradGradGradGradGradGradGradGradGradGradGradGradGradGrad
 Berny optimization.
 Using GEDIIS/GDIIS optimizer.
 FormGI is forming the generalized inverse of G from B-inverse, IUseBI=4.
 Internal  Forces:  Max     0.003710756 RMS     0.000652005
 Search for a local minimum.
 Step number   6 out of a maximum of   97
 All quantities printed in internal units (Hartrees-Bohrs-Radians)
 Mixed Optimization -- En-DIIS/RFO-DIIS
 Update second derivatives using D2CorX and points    3    4    5    6
 DE= -2.68D-04 DEPred=-2.49D-04 R= 1.08D+00
 TightC=F SS=  1.41D+00  RLast= 1.41D-01 DXNew= 1.4270D+00 4.2165D-01
 Trust test= 1.08D+00 RLast= 1.41D-01 DXMaxT set to 8.49D-01
 ITU=  1  1  1  1  1  0
 Use linear search instead of GDIIS.
     Eigenvalues ---    0.00240   0.00280   0.00752   0.01347   0.01442
     Eigenvalues ---    0.02444   0.04327   0.04550   0.05180   0.05243
     Eigenvalues ---    0.05331   0.05583   0.05913   0.05974   0.09827
     Eigenvalues ---    0.10470   0.12623   0.12855   0.12879   0.13044
     Eigenvalues ---    0.13655   0.16000   0.16000   0.16005   0.16020
     Eigenvalues ---    0.16025   0.16361   0.19736   0.20702   0.22476
     Eigenvalues ---    0.24775   0.25049   0.27375   0.28401   0.28521
     Eigenvalues ---    0.28603   0.28910   0.31810   0.31846   0.31936
     Eigenvalues ---    0.31993   0.32088   0.32133   0.32154   0.32189
     Eigenvalues ---    0.32297   0.33106   0.35666   0.37947   0.44275
     Eigenvalues ---    0.52368
 RFO step:  Lambda=-2.09592936D-04 EMin= 2.40452937D-03
 Quartic linear search produced a step of  0.11171.
 Iteration  1 RMS(Cart)=  0.03061526 RMS(Int)=  0.00045351
 Iteration  2 RMS(Cart)=  0.00053708 RMS(Int)=  0.00000536
 Iteration  3 RMS(Cart)=  0.00000016 RMS(Int)=  0.00000536
 Variable       Old X    -DE/DX   Delta X   Delta X   Delta X     New X
                                 (Linear)    (Quad)   (Total)
    R1        2.61077   0.00083  -0.00074   0.00163   0.00089   2.61166
    R2        2.62562   0.00043  -0.00068   0.00026  -0.00042   2.62520
    R3        2.61844   0.00047  -0.00068   0.00040  -0.00028   2.61816
    R4        3.02784  -0.00004   0.00274   0.01611   0.01885   3.04669
    R5        2.79907  -0.00320  -0.00012  -0.00778  -0.00790   2.79117
    R6        2.79688  -0.00371   0.00009  -0.00865  -0.00855   2.78833
    R7        2.85472   0.00057  -0.00012   0.00141   0.00129   2.85601
    R8        2.07290   0.00023   0.00009   0.00072   0.00081   2.07372
    R9        2.05640   0.00041   0.00014   0.00145   0.00159   2.05799
   R10        2.07355   0.00008   0.00021   0.00061   0.00082   2.07437
   R11        2.07226   0.00018   0.00007   0.00054   0.00061   2.07287
   R12        2.06806   0.00039   0.00012   0.00131   0.00143   2.06949
   R13        2.85045   0.00060   0.00011   0.00206   0.00217   2.85262
   R14        2.07181   0.00020   0.00014   0.00078   0.00092   2.07273
   R15        2.06027   0.00055   0.00028   0.00217   0.00245   2.06272
   R16        2.07446   0.00000   0.00020   0.00029   0.00050   2.07496
   R17        2.06914   0.00029   0.00010   0.00102   0.00111   2.07025
   R18        2.06461   0.00053  -0.00001   0.00154   0.00153   2.06614
    A1        1.97689   0.00036   0.00030   0.00287   0.00316   1.98005
    A2        1.95191   0.00040  -0.00018   0.00279   0.00261   1.95452
    A3        1.85250  -0.00100   0.00026  -0.00508  -0.00483   1.84768
    A4        1.96582   0.00022   0.00016   0.00306   0.00321   1.96903
    A5        1.85394  -0.00019  -0.00035  -0.00338  -0.00374   1.85020
    A6        1.85145   0.00007  -0.00023  -0.00158  -0.00181   1.84964
    A7        2.00825   0.00080   0.00022   0.00501   0.00523   2.01348
    A8        2.03661  -0.00099   0.00094  -0.00313  -0.00218   2.03443
    A9        1.95504   0.00003  -0.00085  -0.00162  -0.00247   1.95257
   A10        1.95715  -0.00058  -0.00062  -0.00460  -0.00522   1.95193
   A11        1.86461   0.00048   0.00023   0.00387   0.00409   1.86869
   A12        1.81115   0.00061   0.00095   0.00588   0.00683   1.81798
   A13        1.97082  -0.00000  -0.00036  -0.00125  -0.00161   1.96921
   A14        1.93570  -0.00019  -0.00011  -0.00114  -0.00124   1.93446
   A15        1.91656  -0.00025   0.00003  -0.00207  -0.00205   1.91450
   A16        1.86846   0.00038   0.00049   0.00334   0.00382   1.87228
   A17        1.93221   0.00005  -0.00012  -0.00010  -0.00023   1.93198
   A18        1.98057  -0.00003  -0.00038  -0.00126  -0.00165   1.97892
   A19        1.88462  -0.00003  -0.00000   0.00100   0.00099   1.88562
   A20        1.87697  -0.00020   0.00002  -0.00104  -0.00101   1.87596
   A21        1.91718  -0.00016   0.00003  -0.00171  -0.00168   1.91550
   A22        1.97234  -0.00139   0.00106  -0.00527  -0.00421   1.96813
   A23        1.85748   0.00071   0.00054   0.00442   0.00496   1.86244
   A24        1.82771   0.00080  -0.00018   0.00456   0.00439   1.83209
   A25        1.95886   0.00019  -0.00040  -0.00097  -0.00137   1.95749
   A26        1.92246   0.00011  -0.00062   0.00007  -0.00054   1.92192
   A27        1.91955  -0.00037  -0.00037  -0.00240  -0.00278   1.91676
   A28        1.85597   0.00058   0.00044   0.00452   0.00496   1.86093
   A29        1.94097   0.00008  -0.00002   0.00052   0.00050   1.94148
   A30        1.96547  -0.00011  -0.00014  -0.00142  -0.00156   1.96392
   A31        1.89206  -0.00019  -0.00013  -0.00055  -0.00068   1.89138
   A32        1.89366  -0.00025  -0.00028  -0.00208  -0.00236   1.89130
   A33        1.91299  -0.00010   0.00012  -0.00090  -0.00078   1.91220
    D1       -2.64194  -0.00008   0.00263   0.01336   0.01600  -2.62594
    D2        1.29746   0.00008   0.00266   0.01373   0.01639   1.31385
    D3        1.53236   0.00012   0.00233   0.01436   0.01668   1.54904
    D4       -0.81143   0.00028   0.00236   0.01472   0.01708  -0.79435
    D5       -0.56317  -0.00007   0.00244   0.01331   0.01575  -0.54742
    D6       -2.90695   0.00008   0.00247   0.01367   0.01614  -2.89081
    D7        2.78667  -0.00004  -0.00294  -0.04034  -0.04328   2.74339
    D8       -1.32851  -0.00009  -0.00364  -0.04217  -0.04582  -1.37433
    D9        0.69647   0.00011  -0.00307  -0.04019  -0.04325   0.65322
   D10       -1.11622  -0.00068  -0.00219  -0.04155  -0.04374  -1.15996
   D11        1.05179  -0.00072  -0.00288  -0.04338  -0.04628   1.00551
   D12        3.07676  -0.00052  -0.00232  -0.04140  -0.04371   3.03305
   D13       -0.89132   0.00008  -0.00109  -0.00443  -0.00552  -0.89684
   D14        1.26635  -0.00007  -0.00054  -0.00589  -0.00643   1.25992
   D15       -2.98396   0.00019  -0.00080  -0.00456  -0.00535  -2.98931
   D16        3.02485  -0.00012  -0.00150  -0.00701  -0.00851   3.01634
   D17       -1.10066  -0.00027  -0.00095  -0.00847  -0.00943  -1.11009
   D18        0.93221  -0.00001  -0.00121  -0.00714  -0.00835   0.92387
   D19       -2.92354  -0.00011  -0.00392  -0.02141  -0.02532  -2.94886
   D20       -0.87343   0.00010  -0.00370  -0.01831  -0.02201  -0.89544
   D21        1.29163  -0.00010  -0.00404  -0.02159  -0.02563   1.26599
   D22        1.25198  -0.00031  -0.00349  -0.02217  -0.02567   1.22631
   D23       -2.98110  -0.00010  -0.00328  -0.01907  -0.02235  -3.00345
   D24       -0.81604  -0.00030  -0.00362  -0.02235  -0.02598  -0.84202
   D25       -0.90769   0.00016  -0.00318  -0.01765  -0.02084  -0.92853
   D26        1.14242   0.00037  -0.00297  -0.01455  -0.01752   1.12489
   D27       -2.97571   0.00017  -0.00331  -0.01784  -0.02115  -2.99686
   D28       -3.01533  -0.00012   0.00190  -0.00916  -0.00726  -3.02260
   D29       -0.95895   0.00003   0.00200  -0.00686  -0.00485  -0.96380
   D30        1.19607  -0.00012   0.00204  -0.00870  -0.00665   1.18942
   D31        1.16713  -0.00018   0.00072  -0.01040  -0.00969   1.15744
   D32       -3.05967  -0.00003   0.00082  -0.00810  -0.00728  -3.06695
   D33       -0.90465  -0.00017   0.00086  -0.00994  -0.00908  -0.91373
   D34       -0.97795   0.00008   0.00194  -0.00669  -0.00476  -0.98271
   D35        1.07844   0.00024   0.00204  -0.00439  -0.00235   1.07609
   D36       -3.04973   0.00009   0.00208  -0.00623  -0.00415  -3.05388
         Item               Value     Threshold  Converged?
 Maximum Force            0.003711     0.000450     NO 
 RMS     Force            0.000652     0.000300     NO 
 Maximum Displacement     0.124961     0.001800     NO 
 RMS     Displacement     0.030649     0.001200     NO 
 Predicted change in Energy=-1.083477D-04
 GradGradGradGradGradGradGradGradGradGradGradGradGradGradGradGradGradGrad

                          Input orientation:                          
 ---------------------------------------------------------------------
 Center     Atomic      Atomic             Coordinates (Angstroms)
 Number     Number       Type             X           Y           Z
 ---------------------------------------------------------------------
      1          5           0       -1.801834    0.727554   -0.106238
      2          9           0       -1.696511    1.782972   -0.992246
      3          9           0       -1.965335    1.128196    1.213846
      4          9           0       -2.753422   -0.195176   -0.509452
      5          8           0       -0.385647   -0.040694   -0.165583
      6          6           0       -0.439950   -1.490128    0.113331
      7          6           0        0.743053   -2.221193   -0.478431
      8          6           0        0.746932    0.609267    0.521421
      9          6           0        0.925634    2.052356    0.116113
     10          1           0       -0.510845   -1.606153    1.202238
     11          1           0       -1.369081   -1.816348   -0.351756
     12          1           0        0.531882   -3.295915   -0.405333
     13          1           0        0.862774   -1.969960   -1.539457
     14          1           0        1.681099   -2.033191    0.054513
     15          1           0        0.566782    0.501237    1.597959
     16          1           0        1.623752    0.026836    0.232571
     17          1           0        1.856864    2.397224    0.584653
     18          1           0        1.029134    2.149572   -0.970176
     19          1           0        0.108258    2.689525    0.464442
 ---------------------------------------------------------------------
                    Distance matrix (angstroms):
                    1          2          3          4          5
     1  B    0.000000
     2  F    1.382030   0.000000
     3  F    1.389197   2.316860   0.000000
     4  F    1.385472   2.294171   2.311309   0.000000
     5  O    1.612238   2.393218   2.400946   2.397596   0.000000
     6  C    2.611715   3.676197   3.223903   2.723401   1.477025
     7  C    3.912811   4.716865   4.627912   4.041168   2.475159
     8  C    2.627576   3.104703   2.846952   3.736617   1.475520
     9  C    3.040332   2.859488   3.227505   4.356396   2.485894
    10  H    2.970682   4.208055   3.097150   3.154344   2.082611
    11  H    2.592102   3.670496   3.387767   2.137631   2.038321
    12  H    4.660900   5.577212   5.332034   4.518699   3.390546
    13  H    4.053496   4.575355   5.017713   4.157841   2.677341
    14  H    4.447289   5.202600   4.963356   4.833356   2.879223
    15  H    2.926747   3.670763   2.636709   3.993735   2.076268
    16  H    3.512896   3.950739   3.880391   4.445170   2.049578
    17  H    4.080588   3.935783   4.076214   5.401143   3.396344
    18  H    3.283733   2.750277   3.844478   4.474130   2.728780
    19  H    2.797044   2.490174   2.701692   4.178418   2.845166
                    6          7          8          9         10
     6  C    0.000000
     7  C    1.511335   0.000000
     8  C    2.445953   3.001870   0.000000
     9  C    3.796580   4.318570   1.509541   0.000000
    10  H    1.097363   2.185219   2.636968   4.077723   0.000000
    11  H    1.089041   2.154311   3.335201   4.522333   1.787637
    12  H    2.115263   1.097708   4.019399   5.388038   2.554772
    13  H    2.158480   1.096917   3.303491   4.350160   3.088053
    14  H    2.190257   1.095128   2.841347   4.155264   2.510827
    15  H    2.680142   3.428424   1.096841   2.174997   2.399784
    16  H    2.564033   2.516901   1.091546   2.145615   2.857168
    17  H    4.539714   4.868316   2.105406   1.098023   4.691959
    18  H    4.071807   4.407635   2.162646   1.095531   4.603953
    19  H    4.230048   5.040548   2.176838   1.093353   4.402326
                   11         12         13         14         15
    11  H    0.000000
    12  H    2.409491   0.000000
    13  H    2.532865   1.775917   0.000000
    14  H    3.084749   1.768228   1.792873   0.000000
    15  H    3.594461   4.293339   4.004723   3.169740   0.000000
    16  H    3.563119   3.555246   2.776035   2.068503   1.790677
    17  H    5.388671   5.928531   4.957051   4.465480   2.507164
    18  H    4.675725   5.497239   4.162007   4.355520   3.086438
    19  H    4.811611   6.063123   5.127934   4.994589   2.506733
                   16         17         18         19
    16  H    0.000000
    17  H    2.407705   0.000000
    18  H    2.511211   1.778753   0.000000
    19  H    3.072523   1.776940   1.788209   0.000000
 Stoichiometry    C4H10BF3O
 Framework group  C1[X(C4H10BF3O)]
 Deg. of freedom    51
 Full point group                 C1      NOp   1
 Largest Abelian subgroup         C1      NOp   1
 Largest concise Abelian subgroup C1      NOp   1
                         Standard orientation:                         
 ---------------------------------------------------------------------
 Center     Atomic      Atomic             Coordinates (Angstroms)
 Number     Number       Type             X           Y           Z
 ---------------------------------------------------------------------
      1          5           0       -1.032677   -0.622260   -0.030060
      2          9           0       -1.794016   -0.047369   -1.029996
      3          9           0       -1.496937   -0.341574    1.248825
      4          9           0       -0.832825   -1.976461   -0.243907
      5          8           0        0.422835    0.063134   -0.135093
      6          6           0        1.553008   -0.781734    0.301381
      7          6           0        2.859252   -0.334891   -0.313591
      8          6           0        0.540320    1.443595    0.372532
      9          6           0       -0.507345    2.367534   -0.199701
     10          1           0        1.568537   -0.757323    1.398363
     11          1           0        1.286029   -1.780925   -0.039717
     12          1           0        3.601260   -1.116959   -0.106815
     13          1           0        2.762215   -0.237960   -1.401899
     14          1           0        3.240905    0.600692    0.108701
     15          1           0        0.485569    1.383126    1.466336
     16          1           0        1.536252    1.771723    0.069345
     17          1           0       -0.254318    3.379681    0.142626
     18          1           0       -0.488590    2.358798   -1.295037
     19          1           0       -1.514567    2.126997    0.151107
 ---------------------------------------------------------------------
 Rotational constants (GHZ):           1.8332088           1.3723212           0.9776463
 Standard basis: Aug-CC-pVDZ (5D, 7F)
 There are   315 symmetry adapted cartesian basis functions of A   symmetry.
 There are   297 symmetry adapted basis functions of A   symmetry.
   297 basis functions,   497 primitive gaussians,   315 cartesian basis functions
    37 alpha electrons       37 beta electrons
       nuclear repulsion energy       523.5607320685 Hartrees.
 NAtoms=   19 NActive=   19 NUniq=   19 SFac= 1.00D+00 NAtFMM=   60 NAOKFM=F Big=F
 Integral buffers will be    131072 words long.
 Raffenetti 2 integral format.
 Two-electron integral symmetry is turned on.
 Nuclear repulsion after empirical dispersion term =      523.5486593769 Hartrees.
 Force PCM accuracy= 1.00D-12.
 ------------------------------------------------------------------------------
 Polarizable Continuum Model (PCM)
 =================================
 Model                : C-PCM.
 Atomic radii         : UFF (Universal Force Field).
 Polarization charges : Total charges.
 Charge compensation  : None.
 Solution method      : On-the-fly selection.
 Cavity type          : Scaled VdW (van der Waals Surface) (Alpha=1.100).
 Cavity algorithm     : GePol (No added spheres)
                        Default sphere list used, NSphG=   19.
                        Lebedev-Laikov grids with approx.  5.0 points / Ang**2.
                        Smoothing algorithm: York/Karplus (Gamma=1.0000).
                        Polarization charges: spherical gaussians, with
                                              point-specific exponents (IZeta= 3).
                        Self-potential: point-specific (ISelfS= 7).
                        Self-field    : sphere-specific E.n sum rule (ISelfD= 2).
 1st derivatives      : Analytical E(r).r(x)/FMM algorithm (CHGder, D1EAlg=3).
                        Cavity 1st derivative terms included.
 Solvent              : TetraHydroFuran, Eps=   7.425700 Eps(inf)=   1.974025
 ------------------------------------------------------------------------------
 Spheres list:
 ISph  on   Nord     Re0    Alpha      Xe            Ye            Ze
    1   B      1    2.0415  1.100     -1.032677     -0.622260     -0.030060
    2   F      2    1.6820  1.100     -1.794016     -0.047369     -1.029996
    3   F      3    1.6820  1.100     -1.496937     -0.341574      1.248825
    4   F      4    1.6820  1.100     -0.832825     -1.976461     -0.243907
    5   O      5    1.7500  1.100      0.422835      0.063134     -0.135093
    6   C      6    1.9255  1.100      1.553008     -0.781734      0.301381
    7   C      7    1.9255  1.100      2.859252     -0.334891     -0.313591
    8   C      8    1.9255  1.100      0.540320      1.443595      0.372532
    9   C      9    1.9255  1.100     -0.507345      2.367534     -0.199701
   10   H     10    1.4430  1.100      1.568537     -0.757323      1.398363
   11   H     11    1.4430  1.100      1.286029     -1.780925     -0.039717
   12   H     12    1.4430  1.100      3.601260     -1.116959     -0.106815
   13   H     13    1.4430  1.100      2.762215     -0.237960     -1.401899
   14   H     14    1.4430  1.100      3.240905      0.600692      0.108701
   15   H     15    1.4430  1.100      0.485569      1.383126      1.466336
   16   H     16    1.4430  1.100      1.536252      1.771723      0.069345
   17   H     17    1.4430  1.100     -0.254318      3.379681      0.142626
   18   H     18    1.4430  1.100     -0.488590      2.358798     -1.295037
   19   H     19    1.4430  1.100     -1.514567      2.126997      0.151107
 ------------------------------------------------------------------------------
 One-electron integrals computed using PRISM.
 NBasis=   297 RedAO= T EigKep=  3.11D-05  NBF=   297
 NBsUse=   297 1.00D-06 EigRej= -1.00D+00 NBFU=   297
 Initial guess from the checkpoint file:  "/inspire/hdd/project/materialscienceresearch/lipenghui-253107030018/g16/00-B-DFT-Shift/04-output/BF3OEt2_THF/BF3OEt2_THF.chk"
 B after Tr=     0.000000   -0.000000    0.000000
         Rot=    0.999990    0.003740    0.002105   -0.001438 Ang=   0.52 deg.
 ExpMin= 2.38D-02 ExpMax= 1.47D+04 ExpMxC= 5.03D+02 IAcc=3 IRadAn=         5 AccDes= 0.00D+00
 Harris functional with IExCor= 4639 and IRadAn=       5 diagonalized for initial guess.
 HarFok:  IExCor= 4639 AccDes= 0.00D+00 IRadAn=         5 IDoV= 1 UseB2=F ITyADJ=14
 ICtDFT=  3500011 ScaDFX=  1.000000  1.000000  1.000000  1.000000
 FoFCou: FMM=F IPFlag=           0 FMFlag=      100000 FMFlg1=           0
         NFxFlg=           0 DoJE=T BraDBF=F KetDBF=T FulRan=T
         wScrn=  0.000000 ICntrl=       500 IOpCl=  0 I1Cent=   200000004 NGrid=           0
         NMat0=    1 NMatS0=      1 NMatT0=    0 NMatD0=    1 NMtDS0=    0 NMtDT0=    0
 Petite list used in FoFCou.
 Requested convergence on RMS density matrix=1.00D-08 within 128 cycles.
 Requested convergence on MAX density matrix=1.00D-06.
 Requested convergence on             energy=1.00D-06.
 No special actions if energy rises.
 Inv3:  Mode=1 IEnd=     6795075.
 Iteration    1 A*A^-1 deviation from unit magnitude is 3.77D-15 for   1504.
 Iteration    1 A*A^-1 deviation from orthogonality  is 3.16D-15 for   1501    746.
 Iteration    1 A^-1*A deviation from unit magnitude is 3.77D-15 for   1504.
 Iteration    1 A^-1*A deviation from orthogonality  is 1.65D-15 for    793    454.
 Error on total polarization charges =  0.00978
 SCF Done:  E(RwB97XD) =  -558.149094973     A.U. after   10 cycles
            NFock= 10  Conv=0.82D-08     -V/T= 2.0061
 D1PCM: C-PCM CHGder 1st derivatives, ID1Alg=3 FixD1E=F DoIter=F DoCFld=F I1PDM=0.
 Calling FoFJK, ICntrl=      2127 FMM=F ISym2X=0 I1Cent= 0 IOpClX= 0 NMat=1 NMatS=1 NMatT=0.
 ***** Axes restored to original set *****
 -------------------------------------------------------------------
 Center     Atomic                   Forces (Hartrees/Bohr)
 Number     Number              X              Y              Z
 -------------------------------------------------------------------
      1        5           0.000700651   -0.000450604    0.000296782
      2        9           0.000250911   -0.000245783    0.000063314
      3        9          -0.000010573   -0.000084910   -0.000388583
      4        9           0.000262300    0.000224601    0.000181389
      5        8           0.000590977   -0.000565926    0.000759721
      6        6           0.000205169    0.003056490   -0.000673699
      7        6          -0.000324020   -0.000910826   -0.000442120
      8        6          -0.002473923   -0.001075710   -0.000727845
      9        6           0.000548643    0.000056163    0.000005145
     10        1           0.000038471   -0.000308405   -0.000027350
     11        1          -0.000032110   -0.000277766    0.000540167
     12        1           0.000165760    0.000181007    0.000052045
     13        1           0.000130076    0.000156368    0.000170449
     14        1           0.000033646   -0.000160039   -0.000156180
     15        1           0.000229038    0.000069986   -0.000039342
     16        1           0.000050720    0.000296134    0.000482925
     17        1          -0.000212426    0.000005317   -0.000083461
     18        1          -0.000133144   -0.000012300    0.000056250
     19        1          -0.000020165    0.000046201   -0.000069607
 -------------------------------------------------------------------
 Cartesian Forces:  Max     0.003056490 RMS     0.000630523

 GradGradGradGradGradGradGradGradGradGradGradGradGradGradGradGradGradGrad
 Berny optimization.
 Using GEDIIS/GDIIS optimizer.
 FormGI is forming the generalized inverse of G from B-inverse, IUseBI=4.
 Internal  Forces:  Max     0.001992101 RMS     0.000401268
 Search for a local minimum.
 Step number   7 out of a maximum of   97
 All quantities printed in internal units (Hartrees-Bohrs-Radians)
 Mixed Optimization -- En-DIIS/RFO-DIIS
 Swapping is turned off.
 Update second derivatives using D2CorX and points    3    4    5    6    7
 DE= -1.64D-04 DEPred=-1.08D-04 R= 1.51D+00
 TightC=F SS=  1.41D+00  RLast= 1.41D-01 DXNew= 1.4270D+00 4.2203D-01
 Trust test= 1.51D+00 RLast= 1.41D-01 DXMaxT set to 8.49D-01
 ITU=  1  1  1  1  1  1  0
     Eigenvalues ---    0.00205   0.00281   0.00352   0.01393   0.01442
     Eigenvalues ---    0.02404   0.04376   0.04601   0.05178   0.05255
     Eigenvalues ---    0.05346   0.05362   0.05872   0.05939   0.09789
     Eigenvalues ---    0.10214   0.12806   0.12904   0.12925   0.13093
     Eigenvalues ---    0.15162   0.15932   0.16000   0.16009   0.16012
     Eigenvalues ---    0.16115   0.16787   0.19511   0.20742   0.24400
     Eigenvalues ---    0.24753   0.25318   0.27747   0.28385   0.28534
     Eigenvalues ---    0.28637   0.29049   0.31789   0.31833   0.31934
     Eigenvalues ---    0.31976   0.32095   0.32145   0.32158   0.32207
     Eigenvalues ---    0.32300   0.33242   0.37803   0.42036   0.42468
     Eigenvalues ---    0.50534
 En-DIIS/RFO-DIIS/Sim-DIIS IScMMF=       -3 using points:     7    6
 RFO step:  Lambda=-3.23634136D-04.
 DidBck=F Rises=F RFO-DIIS coefs:    3.00000   -2.00000
 Iteration  1 RMS(Cart)=  0.07886833 RMS(Int)=  0.00255902
 Iteration  2 RMS(Cart)=  0.00328062 RMS(Int)=  0.00002444
 Iteration  3 RMS(Cart)=  0.00000404 RMS(Int)=  0.00002428
 Iteration  4 RMS(Cart)=  0.00000000 RMS(Int)=  0.00002428
 Variable       Old X    -DE/DX   Delta X   Delta X   Delta X     New X
                                 (Linear)    (Quad)   (Total)
    R1        2.61166  -0.00021   0.00178  -0.00421  -0.00243   2.60923
    R2        2.62520  -0.00039  -0.00083  -0.00373  -0.00456   2.62064
    R3        2.61816  -0.00038  -0.00056  -0.00404  -0.00459   2.61357
    R4        3.04669  -0.00132   0.03770   0.00065   0.03836   3.08504
    R5        2.79117  -0.00182  -0.01580  -0.00081  -0.01661   2.77456
    R6        2.78833  -0.00199  -0.01711   0.00046  -0.01665   2.77168
    R7        2.85601   0.00051   0.00259   0.00129   0.00387   2.85988
    R8        2.07372   0.00000   0.00162  -0.00053   0.00110   2.07481
    R9        2.05799  -0.00012   0.00318  -0.00175   0.00143   2.05942
   R10        2.07437  -0.00021   0.00164  -0.00114   0.00050   2.07487
   R11        2.07287  -0.00011   0.00122  -0.00113   0.00009   2.07297
   R12        2.06949  -0.00007   0.00286  -0.00151   0.00135   2.07084
   R13        2.85262   0.00014   0.00434  -0.00094   0.00340   2.85602
   R14        2.07273  -0.00008   0.00184  -0.00089   0.00095   2.07368
   R15        2.06272  -0.00024   0.00491  -0.00283   0.00208   2.06480
   R16        2.07496  -0.00021   0.00100  -0.00092   0.00008   2.07504
   R17        2.07025  -0.00007   0.00223  -0.00121   0.00101   2.07127
   R18        2.06614   0.00002   0.00305  -0.00174   0.00132   2.06745
    A1        1.98005   0.00014   0.00631   0.00117   0.00741   1.98746
    A2        1.95452   0.00020   0.00521  -0.00024   0.00492   1.95944
    A3        1.84768  -0.00060  -0.00965  -0.00034  -0.01005   1.83763
    A4        1.96903  -0.00004   0.00642  -0.00071   0.00568   1.97471
    A5        1.85020   0.00021  -0.00747   0.00172  -0.00579   1.84441
    A6        1.84964   0.00004  -0.00363  -0.00167  -0.00533   1.84431
    A7        2.01348   0.00027   0.01046  -0.00050   0.00996   2.02344
    A8        2.03443  -0.00083  -0.00437   0.00027  -0.00410   2.03033
    A9        1.95257   0.00048  -0.00493   0.00336  -0.00157   1.95100
   A10        1.95193   0.00057  -0.01044   0.00785  -0.00257   1.94936
   A11        1.86869  -0.00004   0.00817   0.00025   0.00839   1.87709
   A12        1.81798   0.00001   0.01366  -0.00326   0.01038   1.82836
   A13        1.96921  -0.00008  -0.00322   0.00162  -0.00161   1.96760
   A14        1.93446  -0.00036  -0.00248  -0.00403  -0.00650   1.92797
   A15        1.91450  -0.00009  -0.00411  -0.00275  -0.00697   1.90753
   A16        1.87228   0.00011   0.00765  -0.00066   0.00698   1.87925
   A17        1.93198  -0.00007  -0.00045  -0.00143  -0.00190   1.93008
   A18        1.97892   0.00026  -0.00329   0.00306  -0.00024   1.97868
   A19        1.88562   0.00006   0.00199   0.00065   0.00263   1.88824
   A20        1.87596  -0.00019  -0.00202  -0.00115  -0.00317   1.87279
   A21        1.91550  -0.00017  -0.00336  -0.00053  -0.00390   1.91160
   A22        1.96813  -0.00028  -0.00842   0.00761  -0.00080   1.96733
   A23        1.86244   0.00016   0.00992  -0.00114   0.00877   1.87121
   A24        1.83209   0.00039   0.00877  -0.00038   0.00838   1.84048
   A25        1.95749   0.00007  -0.00274  -0.00028  -0.00304   1.95445
   A26        1.92192  -0.00016  -0.00109  -0.00416  -0.00525   1.91667
   A27        1.91676  -0.00016  -0.00557  -0.00167  -0.00734   1.90943
   A28        1.86093   0.00012   0.00992  -0.00167   0.00824   1.86917
   A29        1.94148  -0.00006   0.00101  -0.00168  -0.00068   1.94080
   A30        1.96392   0.00005  -0.00311   0.00152  -0.00159   1.96233
   A31        1.89138   0.00002  -0.00136   0.00095  -0.00043   1.89094
   A32        1.89130  -0.00006  -0.00472   0.00092  -0.00380   1.88751
   A33        1.91220  -0.00007  -0.00157  -0.00002  -0.00159   1.91061
    D1       -2.62594   0.00010   0.03199   0.00900   0.04099  -2.58496
    D2        1.31385  -0.00003   0.03278   0.00387   0.03665   1.35050
    D3        1.54904   0.00014   0.03337   0.00696   0.04031   1.58935
    D4       -0.79435   0.00001   0.03415   0.00183   0.03597  -0.75838
    D5       -0.54742   0.00006   0.03150   0.00775   0.03926  -0.50816
    D6       -2.89081  -0.00007   0.03229   0.00262   0.03492  -2.85588
    D7        2.74339  -0.00025  -0.08656  -0.03941  -0.12599   2.61740
    D8       -1.37433  -0.00002  -0.09163  -0.03217  -0.12385  -1.49818
    D9        0.65322  -0.00013  -0.08649  -0.03670  -0.12315   0.53007
   D10       -1.15996  -0.00071  -0.08749  -0.03580  -0.12329  -1.28326
   D11        1.00551  -0.00047  -0.09256  -0.02856  -0.12116   0.88435
   D12        3.03305  -0.00058  -0.08742  -0.03309  -0.12046   2.91260
   D13       -0.89684  -0.00013  -0.01103  -0.01813  -0.02917  -0.92601
   D14        1.25992  -0.00010  -0.01287  -0.01442  -0.02732   1.23260
   D15       -2.98931  -0.00003  -0.01070  -0.01701  -0.02769  -3.01700
   D16        3.01634  -0.00019  -0.01703  -0.02145  -0.03847   2.97786
   D17       -1.11009  -0.00017  -0.01886  -0.01774  -0.03663  -1.14671
   D18        0.92387  -0.00009  -0.01669  -0.02033  -0.03700   0.88687
   D19       -2.94886   0.00005  -0.05064   0.02110  -0.02955  -2.97841
   D20       -0.89544   0.00015  -0.04401   0.02070  -0.02331  -0.91875
   D21        1.26599   0.00006  -0.05126   0.02117  -0.03009   1.23590
   D22        1.22631  -0.00026  -0.05133   0.01390  -0.03743   1.18888
   D23       -3.00345  -0.00016  -0.04470   0.01350  -0.03119  -3.03465
   D24       -0.84202  -0.00025  -0.05195   0.01396  -0.03798  -0.87999
   D25       -0.92853   0.00019  -0.04168   0.01935  -0.02234  -0.95087
   D26        1.12489   0.00029  -0.03505   0.01896  -0.01610   1.10879
   D27       -2.99686   0.00020  -0.04230   0.01942  -0.02288  -3.01974
   D28       -3.02260  -0.00005  -0.01453   0.01498   0.00044  -3.02215
   D29       -0.96380   0.00001  -0.00971   0.01421   0.00451  -0.95929
   D30        1.18942  -0.00009  -0.01331   0.01405   0.00075   1.19017
   D31        1.15744  -0.00011  -0.01938   0.01119  -0.00819   1.14926
   D32       -3.06695  -0.00005  -0.01456   0.01042  -0.00412  -3.07107
   D33       -0.91373  -0.00015  -0.01816   0.01026  -0.00788  -0.92161
   D34       -0.98271   0.00015  -0.00951   0.01652   0.00698  -0.97572
   D35        1.07609   0.00022  -0.00470   0.01575   0.01105   1.08713
   D36       -3.05388   0.00012  -0.00829   0.01559   0.00729  -3.04659
         Item               Value     Threshold  Converged?
 Maximum Force            0.001992     0.000450     NO 
 RMS     Force            0.000401     0.000300     NO 
 Maximum Displacement     0.315703     0.001800     NO 
 RMS     Displacement     0.079013     0.001200     NO 
 Predicted change in Energy=-1.790286D-04
 GradGradGradGradGradGradGradGradGradGradGradGradGradGradGradGradGradGrad

                          Input orientation:                          
 ---------------------------------------------------------------------
 Center     Atomic      Atomic             Coordinates (Angstroms)
 Number     Number       Type             X           Y           Z
 ---------------------------------------------------------------------
      1          5           0       -1.804793    0.724478   -0.138653
      2          9           0       -1.675542    1.735805   -1.069767
      3          9           0       -1.989713    1.176758    1.159195
      4          9           0       -2.735316   -0.224455   -0.521351
      5          8           0       -0.365163   -0.045346   -0.136621
      6          6           0       -0.407246   -1.485021    0.148482
      7          6           0        0.716769   -2.225332   -0.543518
      8          6           0        0.727286    0.619967    0.581122
      9          6           0        0.934057    2.048962    0.134617
     10          1           0       -0.387380   -1.607181    1.239427
     11          1           0       -1.372986   -1.815512   -0.233328
     12          1           0        0.528180   -3.300827   -0.428255
     13          1           0        0.729243   -1.992839   -1.615492
     14          1           0        1.703027   -2.019343   -0.112550
     15          1           0        0.499942    0.553231    1.652580
     16          1           0        1.620888    0.030515    0.362272
     17          1           0        1.840881    2.415159    0.633928
     18          1           0        1.089436    2.107142   -0.948821
     19          1           0        0.101968    2.699820    0.419149
 ---------------------------------------------------------------------
                    Distance matrix (angstroms):
                    1          2          3          4          5
     1  B    0.000000
     2  F    1.380746   0.000000
     3  F    1.386782   2.319377   0.000000
     4  F    1.383042   2.294886   2.311614   0.000000
     5  O    1.632535   2.400074   2.410776   2.407846   0.000000
     6  C    2.630108   3.669663   3.257424   2.730863   1.468236
     7  C    3.901740   4.657327   4.668886   3.990100   2.467484
     8  C    2.634469   3.121556   2.833067   3.730698   1.466711
     9  C    3.054543   2.891126   3.218529   4.366122   2.479449
    10  H    3.056927   4.262311   3.213133   3.244238   2.081666
    11  H    2.578172   3.661014   3.357551   2.114323   2.039251
    12  H    4.661515   5.534943   5.376667   4.485883   3.388402
    13  H    3.998275   4.470301   5.013777   4.040730   2.679087
    14  H    4.453542   5.141219   5.046655   4.804959   2.859135
    15  H    2.923978   3.679998   2.613540   3.974628   2.075559
    16  H    3.530978   3.978090   3.871098   4.452226   2.049158
    17  H    4.092215   3.966021   4.059924   5.407755   3.393297
    18  H    3.308276   2.792422   3.845842   4.499756   2.721898
    19  H    2.801581   2.511123   2.691192   4.181639   2.839547
                    6          7          8          9         10
     6  C    0.000000
     7  C    1.513385   0.000000
     8  C    2.430084   3.059518   0.000000
     9  C    3.779989   4.333205   1.511340   0.000000
    10  H    1.097943   2.186355   2.576050   4.041557   0.000000
    11  H    1.089797   2.152034   3.317533   4.515749   1.784329
    12  H    2.122452   1.097972   4.053530   5.394609   2.547126
    13  H    2.158956   1.096967   3.413483   4.409193   3.089683
    14  H    2.192462   1.095842   2.898138   4.147712   2.523394
    15  H    2.690682   3.548278   1.097344   2.174829   2.371796
    16  H    2.540842   2.593594   1.092645   2.144223   2.735798
    17  H    4.527818   4.917740   2.113196   1.098063   4.637995
    18  H    4.043236   4.367320   2.164155   1.096067   4.556930
    19  H    4.224387   5.055870   2.177853   1.094050   4.411641
                   11         12         13         14         15
    11  H    0.000000
    12  H    2.420453   0.000000
    13  H    2.522140   1.777862   0.000000
    14  H    3.085124   1.766956   1.791031   0.000000
    15  H    3.560260   4.380004   4.149138   3.343836   0.000000
    16  H    3.567329   3.593992   2.966570   2.105735   1.787359
    17  H    5.383275   5.960194   5.072088   4.499005   2.510487
    18  H    4.686434   5.461880   4.169416   4.254847   3.086977
    19  H    4.794730   6.075155   5.153084   5.011645   2.507504
                   16         17         18         19
    16  H    0.000000
    17  H    2.410129   0.000000
    18  H    2.512725   1.778943   0.000000
    19  H    3.071732   1.775099   1.788211   0.000000
 Stoichiometry    C4H10BF3O
 Framework group  C1[X(C4H10BF3O)]
 Deg. of freedom    51
 Full point group                 C1      NOp   1
 Largest Abelian subgroup         C1      NOp   1
 Largest concise Abelian subgroup C1      NOp   1
                         Standard orientation:                         
 ---------------------------------------------------------------------
 Center     Atomic      Atomic             Coordinates (Angstroms)
 Number     Number       Type             X           Y           Z
 ---------------------------------------------------------------------
      1          5           0       -1.026041   -0.646277   -0.034609
      2          9           0       -1.745059   -0.119076   -1.088901
      3          9           0       -1.547394   -0.334292    1.211995
      4          9           0       -0.773403   -1.996470   -0.195719
      5          8           0        0.431703    0.085854   -0.098919
      6          6           0        1.573411   -0.715268    0.359798
      7          6           0        2.849601   -0.332618   -0.358014
      8          6           0        0.492240    1.460499    0.408946
      9          6           0       -0.540258    2.363317   -0.225889
     10          1           0        1.646433   -0.594477    1.448631
     11          1           0        1.300596   -1.744862    0.129222
     12          1           0        3.615428   -1.073948   -0.094422
     13          1           0        2.704419   -0.361932   -1.444936
     14          1           0        3.234204    0.651164   -0.066256
     15          1           0        0.378314    1.409205    1.499154
     16          1           0        1.495955    1.816931    0.165254
     17          1           0       -0.334649    3.384035    0.122827
     18          1           0       -0.460367    2.349580   -1.318955
     19          1           0       -1.561006    2.101822    0.068456
 ---------------------------------------------------------------------
 Rotational constants (GHZ):           1.8154874           1.3735221           0.9801438
 Standard basis: Aug-CC-pVDZ (5D, 7F)
 There are   315 symmetry adapted cartesian basis functions of A   symmetry.
 There are   297 symmetry adapted basis functions of A   symmetry.
   297 basis functions,   497 primitive gaussians,   315 cartesian basis functions
    37 alpha electrons       37 beta electrons
       nuclear repulsion energy       523.1115283469 Hartrees.
 NAtoms=   19 NActive=   19 NUniq=   19 SFac= 1.00D+00 NAtFMM=   60 NAOKFM=F Big=F
 Integral buffers will be    131072 words long.
 Raffenetti 2 integral format.
 Two-electron integral symmetry is turned on.
 Nuclear repulsion after empirical dispersion term =      523.0995063232 Hartrees.
 Force PCM accuracy= 1.00D-12.
 ------------------------------------------------------------------------------
 Polarizable Continuum Model (PCM)
 =================================
 Model                : C-PCM.
 Atomic radii         : UFF (Universal Force Field).
 Polarization charges : Total charges.
 Charge compensation  : None.
 Solution method      : On-the-fly selection.
 Cavity type          : Scaled VdW (van der Waals Surface) (Alpha=1.100).
 Cavity algorithm     : GePol (No added spheres)
                        Default sphere list used, NSphG=   19.
                        Lebedev-Laikov grids with approx.  5.0 points / Ang**2.
                        Smoothing algorithm: York/Karplus (Gamma=1.0000).
                        Polarization charges: spherical gaussians, with
                                              point-specific exponents (IZeta= 3).
                        Self-potential: point-specific (ISelfS= 7).
                        Self-field    : sphere-specific E.n sum rule (ISelfD= 2).
 1st derivatives      : Analytical E(r).r(x)/FMM algorithm (CHGder, D1EAlg=3).
                        Cavity 1st derivative terms included.
 Solvent              : TetraHydroFuran, Eps=   7.425700 Eps(inf)=   1.974025
 ------------------------------------------------------------------------------
 Spheres list:
 ISph  on   Nord     Re0    Alpha      Xe            Ye            Ze
    1   B      1    2.0415  1.100     -1.026041     -0.646277     -0.034609
    2   F      2    1.6820  1.100     -1.745059     -0.119076     -1.088901
    3   F      3    1.6820  1.100     -1.547394     -0.334292      1.211995
    4   F      4    1.6820  1.100     -0.773403     -1.996470     -0.195719
    5   O      5    1.7500  1.100      0.431703      0.085854     -0.098919
    6   C      6    1.9255  1.100      1.573411     -0.715268      0.359798
    7   C      7    1.9255  1.100      2.849601     -0.332618     -0.358014
    8   C      8    1.9255  1.100      0.492240      1.460499      0.408946
    9   C      9    1.9255  1.100     -0.540258      2.363317     -0.225889
   10   H     10    1.4430  1.100      1.646433     -0.594477      1.448631
   11   H     11    1.4430  1.100      1.300596     -1.744862      0.129222
   12   H     12    1.4430  1.100      3.615428     -1.073948     -0.094422
   13   H     13    1.4430  1.100      2.704419     -0.361932     -1.444936
   14   H     14    1.4430  1.100      3.234204      0.651164     -0.066256
   15   H     15    1.4430  1.100      0.378314      1.409205      1.499154
   16   H     16    1.4430  1.100      1.495955      1.816931      0.165254
   17   H     17    1.4430  1.100     -0.334649      3.384035      0.122827
   18   H     18    1.4430  1.100     -0.460367      2.349580     -1.318955
   19   H     19    1.4430  1.100     -1.561006      2.101822      0.068456
 ------------------------------------------------------------------------------
 One-electron integrals computed using PRISM.
 NBasis=   297 RedAO= T EigKep=  2.92D-05  NBF=   297
 NBsUse=   297 1.00D-06 EigRej= -1.00D+00 NBFU=   297
 Initial guess from the checkpoint file:  "/inspire/hdd/project/materialscienceresearch/lipenghui-253107030018/g16/00-B-DFT-Shift/04-output/BF3OEt2_THF/BF3OEt2_THF.chk"
 B after Tr=    -0.000000    0.000000    0.000000
         Rot=    0.999903    0.009125    0.005835   -0.008724 Ang=   1.59 deg.
 ExpMin= 2.38D-02 ExpMax= 1.47D+04 ExpMxC= 5.03D+02 IAcc=3 IRadAn=         5 AccDes= 0.00D+00
 Harris functional with IExCor= 4639 and IRadAn=       5 diagonalized for initial guess.
 HarFok:  IExCor= 4639 AccDes= 0.00D+00 IRadAn=         5 IDoV= 1 UseB2=F ITyADJ=14
 ICtDFT=  3500011 ScaDFX=  1.000000  1.000000  1.000000  1.000000
 FoFCou: FMM=F IPFlag=           0 FMFlag=      100000 FMFlg1=           0
         NFxFlg=           0 DoJE=T BraDBF=F KetDBF=T FulRan=T
         wScrn=  0.000000 ICntrl=       500 IOpCl=  0 I1Cent=   200000004 NGrid=           0
         NMat0=    1 NMatS0=      1 NMatT0=    0 NMatD0=    1 NMtDS0=    0 NMtDT0=    0
 Petite list used in FoFCou.
 Requested convergence on RMS density matrix=1.00D-08 within 128 cycles.
 Requested convergence on MAX density matrix=1.00D-06.
 Requested convergence on             energy=1.00D-06.
 No special actions if energy rises.
 Inv3:  Mode=1 IEnd=     6940323.
 Iteration    1 A*A^-1 deviation from unit magnitude is 3.33D-15 for   1490.
 Iteration    1 A*A^-1 deviation from orthogonality  is 1.73D-15 for   1368    256.
 Iteration    1 A^-1*A deviation from unit magnitude is 3.55D-15 for   1490.
 Iteration    1 A^-1*A deviation from orthogonality  is 1.85D-15 for   1515    831.
 Error on total polarization charges =  0.00982
 SCF Done:  E(RwB97XD) =  -558.149305356     A.U. after   11 cycles
            NFock= 11  Conv=0.33D-08     -V/T= 2.0061
 D1PCM: C-PCM CHGder 1st derivatives, ID1Alg=3 FixD1E=F DoIter=F DoCFld=F I1PDM=0.
 Calling FoFJK, ICntrl=      2127 FMM=F ISym2X=0 I1Cent= 0 IOpClX= 0 NMat=1 NMatS=1 NMatT=0.
 ***** Axes restored to original set *****
 -------------------------------------------------------------------
 Center     Atomic                   Forces (Hartrees/Bohr)
 Number     Number              X              Y              Z
 -------------------------------------------------------------------
      1        5           0.002963705   -0.001419745   -0.000150569
      2        9           0.000216585   -0.000207418    0.000736746
      3        9          -0.000088425   -0.000060581   -0.000795200
      4        9          -0.000123443    0.000558137    0.000105987
      5        8          -0.003691114    0.001461665    0.000405157
      6        6           0.000045559   -0.001614302   -0.000830640
      7        6           0.000208423   -0.000158969   -0.000126976
      8        6           0.001580463    0.001129032    0.000621322
      9        6          -0.000195517    0.000248738   -0.000228409
     10        1           0.000202629    0.000356830   -0.000333364
     11        1           0.000403655    0.000185945    0.000710326
     12        1          -0.000201706    0.000417988    0.000027605
     13        1          -0.000014074    0.000019813    0.000268209
     14        1          -0.000091372    0.000309762   -0.000188479
     15        1          -0.000362314    0.000034879   -0.000426831
     16        1          -0.000460476   -0.000376623    0.000256918
     17        1          -0.000219716   -0.000540561   -0.000033396
     18        1          -0.000202810   -0.000113165    0.000243738
     19        1           0.000029950   -0.000231424   -0.000262144
 -------------------------------------------------------------------
 Cartesian Forces:  Max     0.003691114 RMS     0.000824812

 GradGradGradGradGradGradGradGradGradGradGradGradGradGradGradGradGradGrad
 Berny optimization.
 Using GEDIIS/GDIIS optimizer.
 FormGI is forming the generalized inverse of G from B-inverse, IUseBI=4.
 Internal  Forces:  Max     0.003152635 RMS     0.000530504
 Search for a local minimum.
 Step number   8 out of a maximum of   97
 All quantities printed in internal units (Hartrees-Bohrs-Radians)
 Mixed Optimization -- En-DIIS/RFO-DIIS
 Swapping is turned off.
 Update second derivatives using D2CorX and points    5    6    7    8
 DE= -2.10D-04 DEPred=-1.79D-04 R= 1.18D+00
 TightC=F SS=  1.41D+00  RLast= 3.42D-01 DXNew= 1.4270D+00 1.0263D+00
 Trust test= 1.18D+00 RLast= 3.42D-01 DXMaxT set to 1.03D+00
 ITU=  1  1  1  1  1  1  1  0
     Eigenvalues ---    0.00105   0.00282   0.00345   0.01437   0.01518
     Eigenvalues ---    0.02468   0.04444   0.04614   0.05158   0.05273
     Eigenvalues ---    0.05391   0.05525   0.05839   0.05900   0.09739
     Eigenvalues ---    0.10261   0.12794   0.12936   0.13001   0.13280
     Eigenvalues ---    0.15347   0.15999   0.16001   0.16011   0.16063
     Eigenvalues ---    0.16135   0.17193   0.20394   0.21023   0.24637
     Eigenvalues ---    0.24877   0.25342   0.28273   0.28442   0.28634
     Eigenvalues ---    0.28968   0.29631   0.31823   0.31892   0.31944
     Eigenvalues ---    0.32024   0.32095   0.32138   0.32156   0.32201
     Eigenvalues ---    0.32290   0.33922   0.37933   0.41246   0.46654
     Eigenvalues ---    0.52352
 En-DIIS/RFO-DIIS/Sim-DIIS IScMMF=       -3 using points:     8    7    6
 RFO step:  Lambda=-2.48827721D-04.
 DidBck=F Rises=F RFO-DIIS coefs:    1.18151    1.06408   -1.24559
 Iteration  1 RMS(Cart)=  0.05403081 RMS(Int)=  0.00133920
 Iteration  2 RMS(Cart)=  0.00164926 RMS(Int)=  0.00003428
 Iteration  3 RMS(Cart)=  0.00000130 RMS(Int)=  0.00003427
 Iteration  4 RMS(Cart)=  0.00000000 RMS(Int)=  0.00003427
 Variable       Old X    -DE/DX   Delta X   Delta X   Delta X     New X
                                 (Linear)    (Quad)   (Total)
    R1        2.60923  -0.00063   0.00067  -0.00241  -0.00174   2.60749
    R2        2.62064  -0.00076  -0.00135  -0.00185  -0.00319   2.61744
    R3        2.61357  -0.00033  -0.00118  -0.00107  -0.00225   2.61132
    R4        3.08504  -0.00315   0.03044  -0.01082   0.01963   3.10467
    R5        2.77456   0.00036  -0.01285   0.00381  -0.00904   2.76553
    R6        2.77168   0.00027  -0.01367   0.00454  -0.00914   2.76254
    R7        2.85988  -0.00034   0.00231  -0.00100   0.00132   2.86120
    R8        2.07481  -0.00037   0.00121  -0.00087   0.00034   2.07515
    R9        2.05942  -0.00066   0.00224  -0.00194   0.00030   2.05972
   R10        2.07487  -0.00037   0.00111  -0.00085   0.00027   2.07513
   R11        2.07297  -0.00026   0.00078  -0.00076   0.00002   2.07299
   R12        2.07084  -0.00009   0.00203  -0.00089   0.00113   2.07198
   R13        2.85602  -0.00060   0.00332  -0.00214   0.00118   2.85720
   R14        2.07368  -0.00034   0.00132  -0.00088   0.00044   2.07412
   R15        2.06480  -0.00023   0.00343  -0.00163   0.00180   2.06660
   R16        2.07504  -0.00038   0.00063  -0.00067  -0.00004   2.07500
   R17        2.07127  -0.00028   0.00157  -0.00101   0.00056   2.07183
   R18        2.06745  -0.00022   0.00214  -0.00138   0.00077   2.06822
    A1        1.98746  -0.00040   0.00528  -0.00281   0.00237   1.98983
    A2        1.95944  -0.00002   0.00414  -0.00149   0.00259   1.96202
    A3        1.83763  -0.00051  -0.00784   0.00137  -0.00653   1.83110
    A4        1.97471  -0.00037   0.00503  -0.00208   0.00291   1.97761
    A5        1.84441   0.00037  -0.00570   0.00271  -0.00305   1.84136
    A6        1.84431   0.00107  -0.00323   0.00349   0.00022   1.84452
    A7        2.02344   0.00159   0.00832   0.00364   0.01197   2.03541
    A8        2.03033  -0.00092  -0.00347   0.00053  -0.00295   2.02737
    A9        1.95100  -0.00049  -0.00336   0.00067  -0.00270   1.94830
   A10        1.94936  -0.00079  -0.00697   0.00149  -0.00544   1.94391
   A11        1.87709  -0.00008   0.00661  -0.00394   0.00264   1.87972
   A12        1.82836   0.00042   0.01039   0.00001   0.01037   1.83873
   A13        1.96760   0.00036  -0.00230   0.00086  -0.00143   1.96617
   A14        1.92797   0.00028  -0.00272   0.00114  -0.00155   1.92641
   A15        1.90753  -0.00019  -0.00382   0.00025  -0.00373   1.90381
   A16        1.87925  -0.00030   0.00603  -0.00179   0.00423   1.88349
   A17        1.93008  -0.00005  -0.00063  -0.00088  -0.00153   1.92855
   A18        1.97868  -0.00008  -0.00209   0.00059  -0.00152   1.97716
   A19        1.88824   0.00015   0.00171   0.00009   0.00178   1.89003
   A20        1.87279   0.00031  -0.00183   0.00192   0.00009   1.87288
   A21        1.91160  -0.00002  -0.00280   0.00012  -0.00270   1.90889
   A22        1.96733  -0.00072  -0.00539   0.00294  -0.00242   1.96491
   A23        1.87121  -0.00003   0.00777  -0.00346   0.00429   1.87550
   A24        1.84048   0.00001   0.00698  -0.00274   0.00423   1.84470
   A25        1.95445   0.00037  -0.00226   0.00114  -0.00111   1.95334
   A26        1.91667   0.00048  -0.00163   0.00078  -0.00085   1.91582
   A27        1.90943  -0.00013  -0.00480   0.00104  -0.00387   1.90556
   A28        1.86917  -0.00057   0.00767  -0.00370   0.00396   1.87313
   A29        1.94080  -0.00010   0.00051  -0.00127  -0.00078   1.94001
   A30        1.96233   0.00004  -0.00223   0.00101  -0.00121   1.96112
   A31        1.89094   0.00031  -0.00093   0.00134   0.00038   1.89133
   A32        1.88751   0.00036  -0.00363   0.00257  -0.00105   1.88646
   A33        1.91061  -0.00002  -0.00127   0.00012  -0.00115   1.90946
    D1       -2.58496  -0.00042   0.02736  -0.00845   0.01893  -2.56602
    D2        1.35050  -0.00042   0.02707  -0.01441   0.01267   1.36317
    D3        1.58935   0.00010   0.02810  -0.00722   0.02086   1.61021
    D4       -0.75838   0.00010   0.02780  -0.01318   0.01459  -0.74378
    D5       -0.50816  -0.00019   0.02674  -0.00786   0.01890  -0.48925
    D6       -2.85588  -0.00018   0.02645  -0.01382   0.01264  -2.84325
    D7        2.61740  -0.00003  -0.07678  -0.00292  -0.07971   2.53769
    D8       -1.49818  -0.00015  -0.07955  -0.00360  -0.08323  -1.58141
    D9        0.53007  -0.00020  -0.07622  -0.00508  -0.08124   0.44883
   D10       -1.28326  -0.00028  -0.07687   0.00264  -0.07423  -1.35748
   D11        0.88435  -0.00040  -0.07964   0.00195  -0.07774   0.80661
   D12        2.91260  -0.00045  -0.07631   0.00047  -0.07575   2.83685
   D13       -0.92601   0.00025  -0.01217  -0.01054  -0.02272  -0.94873
   D14        1.23260   0.00022  -0.01297  -0.00964  -0.02267   1.20993
   D15       -3.01700   0.00006  -0.01169  -0.01138  -0.02304  -3.04004
   D16        2.97786  -0.00067  -0.01759  -0.01757  -0.03515   2.94271
   D17       -1.14671  -0.00070  -0.01840  -0.01667  -0.03510  -1.18181
   D18        0.88687  -0.00086  -0.01711  -0.01841  -0.03547   0.85140
   D19       -2.97841  -0.00020  -0.03690   0.00013  -0.03677  -3.01518
   D20       -0.91875  -0.00022  -0.03164  -0.00132  -0.03296  -0.95171
   D21        1.23590  -0.00035  -0.03739  -0.00141  -0.03879   1.19711
   D22        1.18888   0.00022  -0.03876   0.00355  -0.03522   1.15366
   D23       -3.03465   0.00020  -0.03350   0.00209  -0.03141  -3.06605
   D24       -0.87999   0.00008  -0.03925   0.00201  -0.03723  -0.91722
   D25       -0.95087   0.00001  -0.03001   0.00177  -0.02825  -0.97912
   D26        1.10879  -0.00001  -0.02475   0.00032  -0.02444   1.08435
   D27       -3.01974  -0.00013  -0.03050   0.00023  -0.03026  -3.05000
   D28       -3.02215  -0.00002  -0.00897   0.00744  -0.00154  -3.02369
   D29       -0.95929  -0.00004  -0.00523   0.00611   0.00089  -0.95841
   D30        1.19017  -0.00012  -0.00815   0.00607  -0.00208   1.18809
   D31        1.14926   0.00027  -0.01355   0.00899  -0.00456   1.14470
   D32       -3.07107   0.00024  -0.00982   0.00766  -0.00214  -3.07321
   D33       -0.92161   0.00017  -0.01274   0.00762  -0.00511  -0.92671
   D34       -0.97572  -0.00015  -0.00466   0.00636   0.00168  -0.97404
   D35        1.08713  -0.00017  -0.00092   0.00503   0.00411   1.09124
   D36       -3.04659  -0.00024  -0.00384   0.00499   0.00114  -3.04545
         Item               Value     Threshold  Converged?
 Maximum Force            0.003153     0.000450     NO 
 RMS     Force            0.000531     0.000300     NO 
 Maximum Displacement     0.224814     0.001800     NO 
 RMS     Displacement     0.054157     0.001200     NO 
 Predicted change in Energy=-1.061807D-04
 GradGradGradGradGradGradGradGradGradGradGradGradGradGradGradGradGradGrad

                          Input orientation:                          
 ---------------------------------------------------------------------
 Center     Atomic      Atomic             Coordinates (Angstroms)
 Number     Number       Type             X           Y           Z
 ---------------------------------------------------------------------
      1          5           0       -1.806246    0.723031   -0.157859
      2          9           0       -1.653294    1.713024   -1.106773
      3          9           0       -2.009504    1.200039    1.126520
      4          9           0       -2.728173   -0.233489   -0.538173
      5          8           0       -0.356827   -0.049336   -0.115174
      6          6           0       -0.386638   -1.484331    0.170474
      7          6           0        0.699849   -2.220125   -0.584906
      8          6           0        0.711165    0.624597    0.621227
      9          6           0        0.942117    2.040294    0.143209
     10          1           0       -0.304809   -1.609980    1.258310
     11          1           0       -1.370493   -1.822815   -0.154280
     12          1           0        0.545791   -3.296948   -0.434675
     13          1           0        0.631162   -2.009100   -1.659202
     14          1           0        1.710268   -1.982732   -0.231516
     15          1           0        0.449499    0.589440    1.686575
     16          1           0        1.610499    0.025782    0.452190
     17          1           0        1.832012    2.419693    0.662673
     18          1           0        1.134314    2.067160   -0.935842
     19          1           0        0.102849    2.701780    0.379636
 ---------------------------------------------------------------------
                    Distance matrix (angstroms):
                    1          2          3          4          5
     1  B    0.000000
     2  F    1.379826   0.000000
     3  F    1.385092   2.318974   0.000000
     4  F    1.381853   2.295122   2.311426   0.000000
     5  O    1.642921   2.402085   2.415385   2.415806   0.000000
     6  C    2.644908   3.668632   3.279263   2.747649   1.463453
     7  C    3.889094   4.612949   4.686907   3.962353   2.459581
     8  C    2.637048   3.124312   2.826392   3.729553   1.461876
     9  C    3.062568   2.899262   3.222575   4.370972   2.473979
    10  H    3.114930   4.295857   3.289310   3.315836   2.079609
    11  H    2.582872   3.672789   3.344612   2.125235   2.043104
    12  H    4.665719   5.512487   5.402755   4.484900   3.385821
    13  H    3.957212   4.402059   5.003192   3.961645   2.683433
    14  H    4.437618   5.073287   5.080453   4.780549   2.832743
    15  H    2.916877   3.672462   2.594839   3.965389   2.074728
    16  H    3.540122   3.991178   3.864974   4.457815   2.048882
    17  H    4.097421   3.972113   4.057087   5.410794   3.390010
    18  H    3.325483   2.815207   3.858604   4.513306   2.715981
    19  H    2.801605   2.504214   2.697238   4.180055   2.832804
                    6          7          8          9         10
     6  C    0.000000
     7  C    1.514082   0.000000
     8  C    2.419903   3.089875   0.000000
     9  C    3.766870   4.328974   1.511964   0.000000
    10  H    1.098121   2.186106   2.536023   4.015316   0.000000
    11  H    1.089958   2.151653   3.305229   4.512236   1.782243
    12  H    2.126313   1.098112   4.064578   5.383045   2.536845
    13  H    2.158474   1.096978   3.484697   4.443306   3.089856
    14  H    2.192490   1.096442   2.919511   4.112811   2.533586
    15  H    2.701520   3.621596   1.097575   2.174770   2.364283
    16  H    2.519595   2.636086   1.093597   2.144869   2.644607
    17  H    4.517308   4.936209   2.116692   1.098043   4.599896
    18  H    4.018746   4.323509   2.164372   1.096364   4.517381
    19  H    4.219819   5.050931   2.177866   1.094455   4.419222
                   11         12         13         14         15
    11  H    0.000000
    12  H    2.433893   0.000000
    13  H    2.511198   1.779131   0.000000
    14  H    3.085875   1.767610   1.789819   0.000000
    15  H    3.538374   4.428655   4.240239   3.447416   0.000000
    16  H    3.559695   3.600093   3.091572   2.124038   1.785871
    17  H    5.377948   5.961419   5.142698   4.493967   2.511880
    18  H    4.692207   5.419519   4.170408   4.150834   3.087021
    19  H    4.788294   6.069929   5.160267   4.990186   2.508034
                   16         17         18         19
    16  H    0.000000
    17  H    2.413334   0.000000
    18  H    2.514082   1.779413   0.000000
    19  H    3.072335   1.774736   1.788056   0.000000
 Stoichiometry    C4H10BF3O
 Framework group  C1[X(C4H10BF3O)]
 Deg. of freedom    51
 Full point group                 C1      NOp   1
 Largest Abelian subgroup         C1      NOp   1
 Largest concise Abelian subgroup C1      NOp   1
                         Standard orientation:                         
 ---------------------------------------------------------------------
 Center     Atomic      Atomic             Coordinates (Angstroms)
 Number     Number       Type             X           Y           Z
 ---------------------------------------------------------------------
      1          5           0       -1.024949   -0.654786   -0.037431
      2          9           0       -1.714041   -0.141100   -1.116874
      3          9           0       -1.577588   -0.329870    1.190372
      4          9           0       -0.756794   -2.003194   -0.176732
      5          8           0        0.436613    0.094709   -0.073278
      6          6           0        1.584156   -0.683253    0.395352
      7          6           0        2.836105   -0.345677   -0.386384
      8          6           0        0.470872    1.464994    0.434881
      9          6           0       -0.538750    2.361799   -0.245149
     10          1           0        1.695276   -0.498759    1.472146
     11          1           0        1.308877   -1.726238    0.239107
     12          1           0        3.624021   -1.047280   -0.081768
     13          1           0        2.662141   -0.469381   -1.462393
     14          1           0        3.208351    0.667204   -0.192244
     15          1           0        0.311827    1.417912    1.519851
     16          1           0        1.482580    1.829215    0.235521
     17          1           0       -0.357739    3.385296    0.108955
     18          1           0       -0.412247    2.345575   -1.334069
     19          1           0       -1.569730    2.093011    0.005182
 ---------------------------------------------------------------------
 Rotational constants (GHZ):           1.8061041           1.3749821           0.9828759
 Standard basis: Aug-CC-pVDZ (5D, 7F)
 There are   315 symmetry adapted cartesian basis functions of A   symmetry.
 There are   297 symmetry adapted basis functions of A   symmetry.
   297 basis functions,   497 primitive gaussians,   315 cartesian basis functions
    37 alpha electrons       37 beta electrons
       nuclear repulsion energy       522.9651833220 Hartrees.
 NAtoms=   19 NActive=   19 NUniq=   19 SFac= 1.00D+00 NAtFMM=   60 NAOKFM=F Big=F
 Integral buffers will be    131072 words long.
 Raffenetti 2 integral format.
 Two-electron integral symmetry is turned on.
 Nuclear repulsion after empirical dispersion term =      522.9531758357 Hartrees.
 Force PCM accuracy= 1.00D-12.
 ------------------------------------------------------------------------------
 Polarizable Continuum Model (PCM)
 =================================
 Model                : C-PCM.
 Atomic radii         : UFF (Universal Force Field).
 Polarization charges : Total charges.
 Charge compensation  : None.
 Solution method      : On-the-fly selection.
 Cavity type          : Scaled VdW (van der Waals Surface) (Alpha=1.100).
 Cavity algorithm     : GePol (No added spheres)
                        Default sphere list used, NSphG=   19.
                        Lebedev-Laikov grids with approx.  5.0 points / Ang**2.
                        Smoothing algorithm: York/Karplus (Gamma=1.0000).
                        Polarization charges: spherical gaussians, with
                                              point-specific exponents (IZeta= 3).
                        Self-potential: point-specific (ISelfS= 7).
                        Self-field    : sphere-specific E.n sum rule (ISelfD= 2).
 1st derivatives      : Analytical E(r).r(x)/FMM algorithm (CHGder, D1EAlg=3).
                        Cavity 1st derivative terms included.
 Solvent              : TetraHydroFuran, Eps=   7.425700 Eps(inf)=   1.974025
 ------------------------------------------------------------------------------
 Spheres list:
 ISph  on   Nord     Re0    Alpha      Xe            Ye            Ze
    1   B      1    2.0415  1.100     -1.024949     -0.654786     -0.037431
    2   F      2    1.6820  1.100     -1.714041     -0.141100     -1.116874
    3   F      3    1.6820  1.100     -1.577588     -0.329870      1.190372
    4   F      4    1.6820  1.100     -0.756794     -2.003194     -0.176732
    5   O      5    1.7500  1.100      0.436613      0.094709     -0.073278
    6   C      6    1.9255  1.100      1.584156     -0.683253      0.395352
    7   C      7    1.9255  1.100      2.836105     -0.345677     -0.386384
    8   C      8    1.9255  1.100      0.470872      1.464994      0.434881
    9   C      9    1.9255  1.100     -0.538750      2.361799     -0.245149
   10   H     10    1.4430  1.100      1.695276     -0.498759      1.472146
   11   H     11    1.4430  1.100      1.308877     -1.726238      0.239107
   12   H     12    1.4430  1.100      3.624021     -1.047280     -0.081768
   13   H     13    1.4430  1.100      2.662141     -0.469381     -1.462393
   14   H     14    1.4430  1.100      3.208351      0.667204     -0.192244
   15   H     15    1.4430  1.100      0.311827      1.417912      1.519851
   16   H     16    1.4430  1.100      1.482580      1.829215      0.235521
   17   H     17    1.4430  1.100     -0.357739      3.385296      0.108955
   18   H     18    1.4430  1.100     -0.412247      2.345575     -1.334069
   19   H     19    1.4430  1.100     -1.569730      2.093011      0.005182
 ------------------------------------------------------------------------------
 One-electron integrals computed using PRISM.
 NBasis=   297 RedAO= T EigKep=  2.75D-05  NBF=   297
 NBsUse=   297 1.00D-06 EigRej= -1.00D+00 NBFU=   297
 Initial guess from the checkpoint file:  "/inspire/hdd/project/materialscienceresearch/lipenghui-253107030018/g16/00-B-DFT-Shift/04-output/BF3OEt2_THF/BF3OEt2_THF.chk"
 B after Tr=    -0.000000    0.000000   -0.000000
         Rot=    0.999982    0.004491    0.003441   -0.002010 Ang=   0.69 deg.
 ExpMin= 2.38D-02 ExpMax= 1.47D+04 ExpMxC= 5.03D+02 IAcc=3 IRadAn=         5 AccDes= 0.00D+00
 Harris functional with IExCor= 4639 and IRadAn=       5 diagonalized for initial guess.
 HarFok:  IExCor= 4639 AccDes= 0.00D+00 IRadAn=         5 IDoV= 1 UseB2=F ITyADJ=14
 ICtDFT=  3500011 ScaDFX=  1.000000  1.000000  1.000000  1.000000
 FoFCou: FMM=F IPFlag=           0 FMFlag=      100000 FMFlg1=           0
         NFxFlg=           0 DoJE=T BraDBF=F KetDBF=T FulRan=T
         wScrn=  0.000000 ICntrl=       500 IOpCl=  0 I1Cent=   200000004 NGrid=           0
         NMat0=    1 NMatS0=      1 NMatT0=    0 NMatD0=    1 NMtDS0=    0 NMtDT0=    0
 Petite list used in FoFCou.
 Requested convergence on RMS density matrix=1.00D-08 within 128 cycles.
 Requested convergence on MAX density matrix=1.00D-06.
 Requested convergence on             energy=1.00D-06.
 No special actions if energy rises.
 Inv3:  Mode=1 IEnd=     6876588.
 Iteration    1 A*A^-1 deviation from unit magnitude is 6.00D-15 for   1506.
 Iteration    1 A*A^-1 deviation from orthogonality  is 1.83D-15 for   1502   1069.
 Iteration    1 A^-1*A deviation from unit magnitude is 5.77D-15 for   1506.
 Iteration    1 A^-1*A deviation from orthogonality  is 1.82D-15 for   1410    506.
 Error on total polarization charges =  0.00988
 SCF Done:  E(RwB97XD) =  -558.149426889     A.U. after   11 cycles
            NFock= 11  Conv=0.25D-08     -V/T= 2.0061
 D1PCM: C-PCM CHGder 1st derivatives, ID1Alg=3 FixD1E=F DoIter=F DoCFld=F I1PDM=0.
 Calling FoFJK, ICntrl=      2127 FMM=F ISym2X=0 I1Cent= 0 IOpClX= 0 NMat=1 NMatS=1 NMatT=0.
 ***** Axes restored to original set *****
 -------------------------------------------------------------------
 Center     Atomic                   Forces (Hartrees/Bohr)
 Number     Number              X              Y              Z
 -------------------------------------------------------------------
      1        5           0.003854678   -0.001962752   -0.000401834
      2        9           0.000030948   -0.000074325    0.000694519
      3        9          -0.000126898   -0.000048202   -0.000618474
      4        9           0.000317050    0.000254913    0.000182777
      5        8          -0.006034213    0.002399883   -0.000094903
      6        6           0.000335039   -0.003852823   -0.000552725
      7        6           0.000348986   -0.000083809   -0.000118727
      8        6           0.003624269    0.002469386    0.001427743
      9        6          -0.000368811    0.000412529   -0.000281026
     10        1           0.000189313    0.000572584   -0.000473858
     11        1           0.000152986    0.000670326    0.000504360
     12        1          -0.000310108    0.000497550    0.000025516
     13        1          -0.000015683   -0.000053359    0.000314223
     14        1          -0.000316227    0.000448186   -0.000198069
     15        1          -0.000605924    0.000011533   -0.000642686
     16        1          -0.000873275   -0.000453760    0.000179539
     17        1          -0.000201919   -0.000714756   -0.000004411
     18        1          -0.000222986   -0.000136818    0.000351959
     19        1           0.000222776   -0.000356286   -0.000293925
 -------------------------------------------------------------------
 Cartesian Forces:  Max     0.006034213 RMS     0.001351365

 GradGradGradGradGradGradGradGradGradGradGradGradGradGradGradGradGradGrad
 Berny optimization.
 Using GEDIIS/GDIIS optimizer.
 FormGI is forming the generalized inverse of G from B-inverse, IUseBI=4.
 Internal  Forces:  Max     0.004453261 RMS     0.000662675
 Search for a local minimum.
 Step number   9 out of a maximum of   97
 All quantities printed in internal units (Hartrees-Bohrs-Radians)
 Mixed Optimization -- En-DIIS/RFO-DIIS
 Swapping is turned off.
 Update second derivatives using D2CorX and points    7    8    9
 DE= -1.22D-04 DEPred=-1.06D-04 R= 1.14D+00
 TightC=F SS=  1.41D+00  RLast= 2.35D-01 DXNew= 1.7260D+00 7.0468D-01
 Trust test= 1.14D+00 RLast= 2.35D-01 DXMaxT set to 1.03D+00
 ITU=  1  1  1  1  1  1  1  1  0
     Eigenvalues ---    0.00050   0.00282   0.00347   0.01451   0.01499
     Eigenvalues ---    0.02468   0.04449   0.04649   0.05176   0.05287
     Eigenvalues ---    0.05420   0.05675   0.05817   0.05891   0.09707
     Eigenvalues ---    0.10422   0.12787   0.12926   0.13041   0.13416
     Eigenvalues ---    0.15391   0.16000   0.16003   0.16011   0.16101
     Eigenvalues ---    0.16251   0.18045   0.20577   0.21167   0.24632
     Eigenvalues ---    0.25143   0.26197   0.28317   0.28457   0.28706
     Eigenvalues ---    0.29044   0.31359   0.31800   0.31940   0.32014
     Eigenvalues ---    0.32089   0.32107   0.32155   0.32164   0.32200
     Eigenvalues ---    0.32405   0.35850   0.38256   0.40845   0.49864
     Eigenvalues ---    0.66015
 En-DIIS/RFO-DIIS/Sim-DIIS IScMMF=       -3 using points:     9    8    7    6
 RFO step:  Lambda=-3.30505164D-04.
 DidBck=F Rises=F RFO-DIIS coefs:    2.95648   -1.99518    0.92120   -0.88250
 Iteration  1 RMS(Cart)=  0.12773537 RMS(Int)=  0.00751275
 Iteration  2 RMS(Cart)=  0.00949280 RMS(Int)=  0.00007910
 Iteration  3 RMS(Cart)=  0.00005031 RMS(Int)=  0.00006967
 Iteration  4 RMS(Cart)=  0.00000001 RMS(Int)=  0.00006967
 Variable       Old X    -DE/DX   Delta X   Delta X   Delta X     New X
                                 (Linear)    (Quad)   (Total)
    R1        2.60749  -0.00053  -0.00252  -0.00031  -0.00284   2.60466
    R2        2.61744  -0.00057  -0.00644   0.00036  -0.00608   2.61137
    R3        2.61132  -0.00044  -0.00446  -0.00044  -0.00490   2.60642
    R4        3.10467  -0.00445   0.05355  -0.01388   0.03967   3.14434
    R5        2.76553   0.00166  -0.02401   0.00581  -0.01821   2.74732
    R6        2.76254   0.00209  -0.02478   0.00711  -0.01767   2.74488
    R7        2.86120  -0.00061   0.00357  -0.00114   0.00243   2.86363
    R8        2.07515  -0.00052   0.00133  -0.00083   0.00050   2.07565
    R9        2.05972  -0.00050   0.00194  -0.00024   0.00170   2.06143
   R10        2.07513  -0.00044   0.00122  -0.00060   0.00063   2.07576
   R11        2.07299  -0.00032   0.00058  -0.00050   0.00008   2.07307
   R12        2.07198  -0.00026   0.00343  -0.00112   0.00231   2.07428
   R13        2.85720  -0.00076   0.00409  -0.00171   0.00239   2.85958
   R14        2.07412  -0.00048   0.00163  -0.00083   0.00080   2.07492
   R15        2.06660  -0.00050   0.00561  -0.00204   0.00357   2.07017
   R16        2.07500  -0.00041   0.00037  -0.00039  -0.00003   2.07497
   R17        2.07183  -0.00039   0.00204  -0.00083   0.00121   2.07304
   R18        2.06822  -0.00045   0.00280  -0.00130   0.00149   2.06972
    A1        1.98983  -0.00042   0.00713  -0.00118   0.00577   1.99560
    A2        1.96202   0.00021   0.00717   0.00007   0.00713   1.96915
    A3        1.83110   0.00006  -0.01665   0.00375  -0.01301   1.81809
    A4        1.97761  -0.00014   0.00831  -0.00121   0.00704   1.98466
    A5        1.84136   0.00047  -0.00904   0.00247  -0.00667   1.83469
    A6        1.84452  -0.00010  -0.00097  -0.00349  -0.00452   1.84000
    A7        2.03541   0.00070   0.02765  -0.00386   0.02381   2.05922
    A8        2.02737  -0.00029  -0.00755   0.00313  -0.00460   2.02277
    A9        1.94830  -0.00016  -0.00740   0.00452  -0.00302   1.94528
   A10        1.94391  -0.00062  -0.01515   0.00361  -0.01149   1.93242
   A11        1.87972  -0.00023   0.00844  -0.00252   0.00581   1.88554
   A12        1.83873  -0.00001   0.02591  -0.00627   0.01959   1.85832
   A13        1.96617   0.00041  -0.00416   0.00220  -0.00195   1.96422
   A14        1.92641   0.00051  -0.00388   0.00124  -0.00254   1.92388
   A15        1.90381  -0.00012  -0.00883   0.00110  -0.00798   1.89583
   A16        1.88349  -0.00040   0.01138  -0.00141   0.00997   1.89345
   A17        1.92855   0.00003  -0.00312   0.00008  -0.00310   1.92545
   A18        1.97716  -0.00029  -0.00442  -0.00082  -0.00528   1.97188
   A19        1.89003   0.00015   0.00426  -0.00019   0.00404   1.89407
   A20        1.87288   0.00049  -0.00060   0.00196   0.00138   1.87425
   A21        1.90889   0.00004  -0.00662   0.00043  -0.00628   1.90262
   A22        1.96491  -0.00014  -0.00842   0.00357  -0.00482   1.96009
   A23        1.87550  -0.00036   0.01243  -0.00396   0.00845   1.88395
   A24        1.84470  -0.00038   0.01182  -0.00348   0.00831   1.85301
   A25        1.95334   0.00034  -0.00327   0.00130  -0.00196   1.95139
   A26        1.91582   0.00048  -0.00194   0.00064  -0.00128   1.91454
   A27        1.90556  -0.00000  -0.00974   0.00161  -0.00828   1.89728
   A28        1.87313  -0.00082   0.01180  -0.00366   0.00814   1.88127
   A29        1.94001  -0.00012  -0.00106  -0.00079  -0.00188   1.93814
   A30        1.96112   0.00012  -0.00368   0.00129  -0.00239   1.95872
   A31        1.89133   0.00039   0.00016   0.00078   0.00091   1.89224
   A32        1.88646   0.00045  -0.00399   0.00195  -0.00203   1.88443
   A33        1.90946  -0.00001  -0.00288   0.00043  -0.00247   1.90700
    D1       -2.56602  -0.00018   0.04957  -0.00216   0.04748  -2.51854
    D2        1.36317  -0.00041   0.03783  -0.00870   0.02913   1.39230
    D3        1.61021   0.00005   0.05397  -0.00380   0.05016   1.66037
    D4       -0.74378  -0.00018   0.04223  -0.01033   0.03181  -0.71198
    D5       -0.48925   0.00004   0.04936  -0.00193   0.04750  -0.44175
    D6       -2.84325  -0.00019   0.03762  -0.00846   0.02915  -2.81410
    D7        2.53769  -0.00024  -0.18928  -0.00232  -0.19169   2.34600
    D8       -1.58141  -0.00028  -0.19848   0.00104  -0.19761  -1.77902
    D9        0.44883  -0.00053  -0.19234  -0.00195  -0.19421   0.25462
   D10       -1.35748  -0.00010  -0.17905   0.00354  -0.17548  -1.53296
   D11        0.80661  -0.00014  -0.18825   0.00690  -0.18140   0.62521
   D12        2.83685  -0.00038  -0.18212   0.00391  -0.17800   2.65884
   D13       -0.94873  -0.00002  -0.04819  -0.01112  -0.05939  -1.00812
   D14        1.20993   0.00007  -0.04896  -0.00994  -0.05905   1.15089
   D15       -3.04004  -0.00029  -0.04872  -0.01167  -0.06042  -3.10046
   D16        2.94271  -0.00062  -0.07480  -0.01370  -0.08842   2.85429
   D17       -1.18181  -0.00054  -0.07557  -0.01253  -0.08808  -1.26989
   D18        0.85140  -0.00089  -0.07533  -0.01426  -0.08945   0.76195
   D19       -3.01518  -0.00012  -0.09315   0.00180  -0.09135  -3.10653
   D20       -0.95171  -0.00017  -0.08301   0.00077  -0.08224  -1.03395
   D21        1.19711  -0.00029  -0.09734   0.00080  -0.09651   1.10060
   D22        1.15366   0.00032  -0.09010   0.00089  -0.08923   1.06444
   D23       -3.06605   0.00028  -0.07996  -0.00014  -0.08012   3.13702
   D24       -0.91722   0.00015  -0.09429  -0.00011  -0.09439  -1.01161
   D25       -0.97912  -0.00018  -0.07280  -0.00297  -0.07579  -1.05490
   D26        1.08435  -0.00023  -0.06266  -0.00400  -0.06668   1.01768
   D27       -3.05000  -0.00036  -0.07699  -0.00398  -0.08095  -3.13095
   D28       -3.02369   0.00005  -0.00943   0.00877  -0.00067  -3.02436
   D29       -0.95841  -0.00004  -0.00272   0.00705   0.00433  -0.95408
   D30        1.18809  -0.00005  -0.00997   0.00796  -0.00200   1.18609
   D31        1.14470   0.00036  -0.01716   0.01040  -0.00677   1.13793
   D32       -3.07321   0.00027  -0.01045   0.00867  -0.00176  -3.07497
   D33       -0.92671   0.00026  -0.01770   0.00959  -0.00809  -0.93480
   D34       -0.97404  -0.00020  -0.00118   0.00706   0.00586  -0.96818
   D35        1.09124  -0.00029   0.00554   0.00533   0.01086   1.10211
   D36       -3.04545  -0.00030  -0.00171   0.00625   0.00454  -3.04091
         Item               Value     Threshold  Converged?
 Maximum Force            0.004453     0.000450     NO 
 RMS     Force            0.000663     0.000300     NO 
 Maximum Displacement     0.539524     0.001800     NO 
 RMS     Displacement     0.129070     0.001200     NO 
 Predicted change in Energy=-1.873391D-04
 GradGradGradGradGradGradGradGradGradGradGradGradGradGradGradGradGradGrad

                          Input orientation:                          
 ---------------------------------------------------------------------
 Center     Atomic      Atomic             Coordinates (Angstroms)
 Number     Number       Type             X           Y           Z
 ---------------------------------------------------------------------
      1          5           0       -1.805961    0.710976   -0.204406
      2          9           0       -1.602752    1.653573   -1.189289
      3          9           0       -2.056679    1.240083    1.047302
      4          9           0       -2.698026   -0.271593   -0.580091
      5          8           0       -0.335863   -0.055820   -0.064962
      6          6           0       -0.334375   -1.481600    0.219183
      7          6           0        0.649050   -2.205994   -0.677740
      8          6           0        0.672371    0.642157    0.713580
      9          6           0        0.967356    2.021747    0.166248
     10          1           0       -0.109011   -1.615506    1.285828
     11          1           0       -1.348721   -1.835728    0.030319
     12          1           0        0.594346   -3.280859   -0.458077
     13          1           0        0.387908   -2.052030   -1.732044
     14          1           0        1.688139   -1.890831   -0.517020
     15          1           0        0.327813    0.681763    1.755365
     16          1           0        1.576161    0.024943    0.665665
     17          1           0        1.816312    2.431547    0.729280
     18          1           0        1.245293    1.973863   -0.893882
     19          1           0        0.120177    2.705291    0.287158
 ---------------------------------------------------------------------
                    Distance matrix (angstroms):
                    1          2          3          4          5
     1  B    0.000000
     2  F    1.378325   0.000000
     3  F    1.381877   2.319345   0.000000
     4  F    1.379260   2.297174   2.311904   0.000000
     5  O    1.663914   2.406479   2.424397   2.427289   0.000000
     6  C    2.674394   3.663588   3.325608   2.773049   1.453819
     7  C    3.841853   4.497616   4.708735   3.867086   2.443112
     8  C    2.643778   3.133696   2.813644   3.723989   1.452526
     9  C    3.089789   2.928906   3.245310   4.387648   2.463355
    10  H    3.242369   4.363983   3.464779   3.462767   2.075745
    11  H    2.598050   3.705023   3.316032   2.154006   2.050130
    12  H    4.664822   5.450736   5.452799   4.462094   3.379453
    13  H    3.844599   4.241321   4.953663   3.744321   2.699604
    14  H    4.367593   4.883104   5.125757   4.675933   2.769153
    15  H    2.897335   3.652737   2.549289   3.939409   2.073182
    16  H    3.558991   4.024770   3.849641   4.461896   2.048456
    17  H    4.117402   3.997018   4.064576   5.422238   3.383736
    18  H    3.373487   2.881182   3.899954   4.548658   2.703104
    19  H    2.815837   2.500898   2.731914   4.190015   2.820584
                    6          7          8          9         10
     6  C    0.000000
     7  C    1.515368   0.000000
     8  C    2.401730   3.169902   0.000000
     9  C    3.737746   4.322895   1.513227   0.000000
    10  H    1.098386   2.186077   2.456638   3.954951   0.000000
    11  H    1.090860   2.151636   3.269797   4.501422   1.778112
    12  H    2.135073   1.098444   4.094988   5.352247   2.511835
    13  H    2.157399   1.097022   3.649745   4.531548   3.089504
    14  H    2.190896   1.097663   2.993692   4.036663   2.560432
    15  H    2.734683   3.789767   1.098001   2.174825   2.385105
    16  H    2.473694   2.764299   1.095485   2.146459   2.432176
    17  H    4.494260   4.984877   2.123856   1.098029   4.516111
    18  H    3.959101   4.227697   2.164627   1.097004   4.412351
    19  H    4.212041   5.033036   2.177906   1.095246   4.440626
                   11         12         13         14         15
    11  H    0.000000
    12  H    2.470313   0.000000
    13  H    2.483665   1.782030   0.000000
    14  H    3.086282   1.769755   1.786860   0.000000
    15  H    3.481998   4.546728   4.431620   3.692217   0.000000
    16  H    3.524301   3.626994   3.387443   2.254213   1.782479
    17  H    5.358696   5.961091   5.310454   4.500295   2.515994
    18  H    4.700642   5.312792   4.200647   3.908196   3.087037
    19  H    4.779590   6.050967   5.175032   4.922352   2.508667
                   16         17         18         19
    16  H    0.000000
    17  H    2.419393   0.000000
    18  H    2.517925   1.780504   0.000000
    19  H    3.073666   1.774058   1.787660   0.000000
 Stoichiometry    C4H10BF3O
 Framework group  C1[X(C4H10BF3O)]
 Deg. of freedom    51
 Full point group                 C1      NOp   1
 Largest Abelian subgroup         C1      NOp   1
 Largest concise Abelian subgroup C1      NOp   1
                         Standard orientation:                         
 ---------------------------------------------------------------------
 Center     Atomic      Atomic             Coordinates (Angstroms)
 Number     Number       Type             X           Y           Z
 ---------------------------------------------------------------------
      1          5           0       -1.010037   -0.686757   -0.042130
      2          9           0       -1.639272   -0.217060   -1.174926
      3          9           0       -1.636620   -0.344196    1.140930
      4          9           0       -0.680378   -2.023259   -0.128419
      5          8           0        0.441481    0.126268   -0.015730
      6          6           0        1.612326   -0.583803    0.472643
      7          6           0        2.796576   -0.360663   -0.446108
      8          6           0        0.396973    1.487662    0.488709
      9          6           0       -0.559759    2.359563   -0.295069
     10          1           0        1.808153   -0.250064    1.500613
     11          1           0        1.345912   -1.641404    0.494538
     12          1           0        3.647836   -0.940339   -0.064124
     13          1           0        2.563661   -0.710154   -1.459549
     14          1           0        3.110178    0.690180   -0.493500
     15          1           0        0.131463    1.445419    1.553286
     16          1           0        1.415250    1.880834    0.395903
     17          1           0       -0.446312    3.390450    0.065584
     18          1           0       -0.323926    2.339201   -1.366230
     19          1           0       -1.604141    2.063604   -0.149340
 ---------------------------------------------------------------------
 Rotational constants (GHZ):           1.7759847           1.3858724           0.9911700
 Standard basis: Aug-CC-pVDZ (5D, 7F)
 There are   315 symmetry adapted cartesian basis functions of A   symmetry.
 There are   297 symmetry adapted basis functions of A   symmetry.
   297 basis functions,   497 primitive gaussians,   315 cartesian basis functions
    37 alpha electrons       37 beta electrons
       nuclear repulsion energy       522.6968353055 Hartrees.
 NAtoms=   19 NActive=   19 NUniq=   19 SFac= 1.00D+00 NAtFMM=   60 NAOKFM=F Big=F
 Integral buffers will be    131072 words long.
 Raffenetti 2 integral format.
 Two-electron integral symmetry is turned on.
 Nuclear repulsion after empirical dispersion term =      522.6848136067 Hartrees.
 Force PCM accuracy= 1.00D-12.
 ------------------------------------------------------------------------------
 Polarizable Continuum Model (PCM)
 =================================
 Model                : C-PCM.
 Atomic radii         : UFF (Universal Force Field).
 Polarization charges : Total charges.
 Charge compensation  : None.
 Solution method      : On-the-fly selection.
 Cavity type          : Scaled VdW (van der Waals Surface) (Alpha=1.100).
 Cavity algorithm     : GePol (No added spheres)
                        Default sphere list used, NSphG=   19.
                        Lebedev-Laikov grids with approx.  5.0 points / Ang**2.
                        Smoothing algorithm: York/Karplus (Gamma=1.0000).
                        Polarization charges: spherical gaussians, with
                                              point-specific exponents (IZeta= 3).
                        Self-potential: point-specific (ISelfS= 7).
                        Self-field    : sphere-specific E.n sum rule (ISelfD= 2).
 1st derivatives      : Analytical E(r).r(x)/FMM algorithm (CHGder, D1EAlg=3).
                        Cavity 1st derivative terms included.
 Solvent              : TetraHydroFuran, Eps=   7.425700 Eps(inf)=   1.974025
 ------------------------------------------------------------------------------
 Spheres list:
 ISph  on   Nord     Re0    Alpha      Xe            Ye            Ze
    1   B      1    2.0415  1.100     -1.010037     -0.686757     -0.042130
    2   F      2    1.6820  1.100     -1.639272     -0.217060     -1.174926
    3   F      3    1.6820  1.100     -1.636620     -0.344196      1.140930
    4   F      4    1.6820  1.100     -0.680378     -2.023259     -0.128419
    5   O      5    1.7500  1.100      0.441481      0.126268     -0.015730
    6   C      6    1.9255  1.100      1.612326     -0.583803      0.472643
    7   C      7    1.9255  1.100      2.796576     -0.360663     -0.446108
    8   C      8    1.9255  1.100      0.396973      1.487662      0.488709
    9   C      9    1.9255  1.100     -0.559759      2.359563     -0.295069
   10   H     10    1.4430  1.100      1.808153     -0.250064      1.500613
   11   H     11    1.4430  1.100      1.345912     -1.641404      0.494538
   12   H     12    1.4430  1.100      3.647836     -0.940339     -0.064124
   13   H     13    1.4430  1.100      2.563661     -0.710154     -1.459549
   14   H     14    1.4430  1.100      3.110178      0.690180     -0.493500
   15   H     15    1.4430  1.100      0.131463      1.445419      1.553286
   16   H     16    1.4430  1.100      1.415250      1.880834      0.395903
   17   H     17    1.4430  1.100     -0.446312      3.390450      0.065584
   18   H     18    1.4430  1.100     -0.323926      2.339201     -1.366230
   19   H     19    1.4430  1.100     -1.604141      2.063604     -0.149340
 ------------------------------------------------------------------------------
 One-electron integrals computed using PRISM.
 NBasis=   297 RedAO= T EigKep=  2.62D-05  NBF=   297
 NBsUse=   297 1.00D-06 EigRej= -1.00D+00 NBFU=   297
 Initial guess from the checkpoint file:  "/inspire/hdd/project/materialscienceresearch/lipenghui-253107030018/g16/00-B-DFT-Shift/04-output/BF3OEt2_THF/BF3OEt2_THF.chk"
 B after Tr=     0.000000   -0.000000   -0.000000
         Rot=    0.999848    0.011529    0.007726   -0.010571 Ang=   2.00 deg.
 ExpMin= 2.38D-02 ExpMax= 1.47D+04 ExpMxC= 5.03D+02 IAcc=3 IRadAn=         5 AccDes= 0.00D+00
 Harris functional with IExCor= 4639 and IRadAn=       5 diagonalized for initial guess.
 HarFok:  IExCor= 4639 AccDes= 0.00D+00 IRadAn=         5 IDoV= 1 UseB2=F ITyADJ=14
 ICtDFT=  3500011 ScaDFX=  1.000000  1.000000  1.000000  1.000000
 FoFCou: FMM=F IPFlag=           0 FMFlag=      100000 FMFlg1=           0
         NFxFlg=           0 DoJE=T BraDBF=F KetDBF=T FulRan=T
         wScrn=  0.000000 ICntrl=       500 IOpCl=  0 I1Cent=   200000004 NGrid=           0
         NMat0=    1 NMatS0=      1 NMatT0=    0 NMatD0=    1 NMtDS0=    0 NMtDT0=    0
 Petite list used in FoFCou.
 Requested convergence on RMS density matrix=1.00D-08 within 128 cycles.
 Requested convergence on MAX density matrix=1.00D-06.
 Requested convergence on             energy=1.00D-06.
 No special actions if energy rises.
 Inv3:  Mode=1 IEnd=     7004352.
 Iteration    1 A*A^-1 deviation from unit magnitude is 4.00D-15 for   1518.
 Iteration    1 A*A^-1 deviation from orthogonality  is 2.07D-15 for   1525    792.
 Iteration    1 A^-1*A deviation from unit magnitude is 4.00D-15 for   1518.
 Iteration    1 A^-1*A deviation from orthogonality  is 1.37D-15 for   1501   1024.
 Error on total polarization charges =  0.00992
 SCF Done:  E(RwB97XD) =  -558.149385305     A.U. after   11 cycles
            NFock= 11  Conv=0.52D-08     -V/T= 2.0061
 D1PCM: C-PCM CHGder 1st derivatives, ID1Alg=3 FixD1E=F DoIter=F DoCFld=F I1PDM=0.
 Calling FoFJK, ICntrl=      2127 FMM=F ISym2X=0 I1Cent= 0 IOpClX= 0 NMat=1 NMatS=1 NMatT=0.
 ***** Axes restored to original set *****
 -------------------------------------------------------------------
 Center     Atomic                   Forces (Hartrees/Bohr)
 Number     Number              X              Y              Z
 -------------------------------------------------------------------
      1        5           0.005906140   -0.003075309   -0.000749939
      2        9          -0.000481041   -0.000016617    0.000920091
      3        9          -0.000206776    0.000123409   -0.000637117
      4        9           0.000700450   -0.000048484    0.000283089
      5        8          -0.009866890    0.004630471   -0.000986456
      6        6           0.000093647   -0.008945227   -0.000501945
      7        6           0.000688030    0.000142696    0.000034769
      8        6           0.007712361    0.005362303    0.003328723
      9        6          -0.000832199    0.000686083   -0.000495505
     10        1          -0.000023066    0.001076096   -0.000972967
     11        1          -0.000122648    0.001415610    0.000443571
     12        1          -0.000631907    0.000641258   -0.000068531
     13        1           0.000138495   -0.000151782    0.000327107
     14        1          -0.000708137    0.000953471    0.000284470
     15        1          -0.000949514   -0.000250685   -0.001002823
     16        1          -0.001333508   -0.000678366   -0.000608212
     17        1          -0.000204681   -0.001032477    0.000092808
     18        1          -0.000283967   -0.000181141    0.000597250
     19        1           0.000405211   -0.000651310   -0.000288382
 -------------------------------------------------------------------
 Cartesian Forces:  Max     0.009866890 RMS     0.002519739

 GradGradGradGradGradGradGradGradGradGradGradGradGradGradGradGradGradGrad
 Berny optimization.
 Using GEDIIS/GDIIS optimizer.
 FormGI is forming the generalized inverse of G from B-inverse, IUseBI=4.
 Internal  Forces:  Max     0.006604620 RMS     0.001232799
 Search for a local minimum.
 Step number  10 out of a maximum of   97
 All quantities printed in internal units (Hartrees-Bohrs-Radians)
 Mixed Optimization -- RFO/linear search
 Update second derivatives using D2CorX and points    7    8   10    9
 DE=  4.16D-05 DEPred=-1.87D-04 R=-2.22D-01
 Trust test=-2.22D-01 RLast= 5.68D-01 DXMaxT set to 5.13D-01
 ITU= -1  1  1  1  1  1  1  1  1  0
 Use linear search instead of GDIIS.
     Eigenvalues ---    0.00170   0.00282   0.00376   0.01444   0.01496
     Eigenvalues ---    0.02408   0.04459   0.04740   0.05220   0.05315
     Eigenvalues ---    0.05462   0.05675   0.05756   0.05838   0.09626
     Eigenvalues ---    0.10301   0.12761   0.12913   0.13134   0.13584
     Eigenvalues ---    0.15275   0.16000   0.16003   0.16011   0.16094
     Eigenvalues ---    0.16329   0.17631   0.20820   0.21590   0.24602
     Eigenvalues ---    0.25148   0.26499   0.28320   0.28462   0.28711
     Eigenvalues ---    0.29057   0.31390   0.31782   0.31946   0.32009
     Eigenvalues ---    0.32092   0.32131   0.32157   0.32202   0.32215
     Eigenvalues ---    0.32806   0.36172   0.38164   0.40669   0.49288
     Eigenvalues ---    0.60961
 RFO step:  Lambda=-2.10520389D-04 EMin= 1.69618892D-03
 Quartic linear search produced a step of -0.52278.
 Iteration  1 RMS(Cart)=  0.05027933 RMS(Int)=  0.00111372
 Iteration  2 RMS(Cart)=  0.00143232 RMS(Int)=  0.00001887
 Iteration  3 RMS(Cart)=  0.00000069 RMS(Int)=  0.00001887
 Variable       Old X    -DE/DX   Delta X   Delta X   Delta X     New X
                                 (Linear)    (Quad)   (Total)
    R1        2.60466  -0.00074   0.00148   0.00029   0.00177   2.60643
    R2        2.61137  -0.00049   0.00318   0.00001   0.00319   2.61456
    R3        2.60642  -0.00049   0.00256   0.00083   0.00339   2.60982
    R4        3.14434  -0.00660  -0.02074  -0.01067  -0.03141   3.11293
    R5        2.74732   0.00469   0.00952   0.00169   0.01121   2.75853
    R6        2.74488   0.00556   0.00924   0.00212   0.01135   2.75623
    R7        2.86363  -0.00143  -0.00127  -0.00161  -0.00288   2.86075
    R8        2.07565  -0.00108  -0.00026  -0.00105  -0.00131   2.07434
    R9        2.06143  -0.00042  -0.00089  -0.00001  -0.00090   2.06052
   R10        2.07576  -0.00061  -0.00033  -0.00031  -0.00064   2.07512
   R11        2.07307  -0.00037  -0.00004  -0.00004  -0.00009   2.07298
   R12        2.07428  -0.00035  -0.00121   0.00048  -0.00073   2.07356
   R13        2.85958  -0.00121  -0.00125  -0.00122  -0.00247   2.85712
   R14        2.07492  -0.00066  -0.00042  -0.00033  -0.00075   2.07417
   R15        2.07017  -0.00069  -0.00186   0.00052  -0.00134   2.06882
   R16        2.07497  -0.00050   0.00001  -0.00031  -0.00030   2.07468
   R17        2.07304  -0.00064  -0.00063  -0.00023  -0.00087   2.07217
   R18        2.06972  -0.00075  -0.00078  -0.00016  -0.00094   2.06878
    A1        1.99560  -0.00081  -0.00302  -0.00280  -0.00581   1.98979
    A2        1.96915   0.00025  -0.00373   0.00018  -0.00354   1.96561
    A3        1.81809   0.00117   0.00680   0.00077   0.00758   1.82567
    A4        1.98466   0.00002  -0.00368  -0.00048  -0.00417   1.98049
    A5        1.83469   0.00082   0.00349   0.00194   0.00543   1.84012
    A6        1.84000  -0.00134   0.00236   0.00108   0.00345   1.84345
    A7        2.05922  -0.00113  -0.01245   0.00503  -0.00742   2.05180
    A8        2.02277   0.00091   0.00240   0.00134   0.00382   2.02660
    A9        1.94528   0.00068   0.00158   0.00224   0.00389   1.94917
   A10        1.93242  -0.00104   0.00601  -0.00501   0.00099   1.93341
   A11        1.88554  -0.00024  -0.00304  -0.00280  -0.00582   1.87972
   A12        1.85832  -0.00048  -0.01024   0.00463  -0.00561   1.85271
   A13        1.96422   0.00040   0.00102  -0.00096   0.00005   1.96426
   A14        1.92388   0.00145   0.00133   0.00518   0.00648   1.93035
   A15        1.89583  -0.00016   0.00417  -0.00081   0.00337   1.89920
   A16        1.89345  -0.00046  -0.00521   0.00178  -0.00343   1.89002
   A17        1.92545   0.00044   0.00162   0.00051   0.00215   1.92760
   A18        1.97188  -0.00141   0.00276  -0.00580  -0.00304   1.96885
   A19        1.89407   0.00005  -0.00211   0.00107  -0.00104   1.89303
   A20        1.87425   0.00107  -0.00072   0.00402   0.00329   1.87755
   A21        1.90262   0.00036   0.00328  -0.00123   0.00208   1.90470
   A22        1.96009   0.00030   0.00252  -0.00237   0.00015   1.96024
   A23        1.88395  -0.00072  -0.00442  -0.00126  -0.00568   1.87827
   A24        1.85301  -0.00100  -0.00434  -0.00164  -0.00598   1.84703
   A25        1.95139   0.00038   0.00102   0.00153   0.00254   1.95392
   A26        1.91454   0.00068   0.00067   0.00277   0.00343   1.91797
   A27        1.89728   0.00028   0.00433   0.00086   0.00517   1.90246
   A28        1.88127  -0.00123  -0.00425  -0.00122  -0.00547   1.87580
   A29        1.93814  -0.00016   0.00098  -0.00095   0.00003   1.93817
   A30        1.95872   0.00009   0.00125  -0.00044   0.00082   1.95954
   A31        1.89224   0.00055  -0.00048   0.00129   0.00081   1.89305
   A32        1.88443   0.00070   0.00106   0.00206   0.00312   1.88755
   A33        1.90700   0.00007   0.00129  -0.00059   0.00071   1.90770
    D1       -2.51854   0.00030  -0.02482   0.00337  -0.02147  -2.54001
    D2        1.39230  -0.00060  -0.01523  -0.00838  -0.02359   1.36870
    D3        1.66037   0.00030  -0.02622   0.00530  -0.02094   1.63943
    D4       -0.71198  -0.00059  -0.01663  -0.00645  -0.02306  -0.73503
    D5       -0.44175   0.00053  -0.02483   0.00441  -0.02045  -0.46220
    D6       -2.81410  -0.00037  -0.01524  -0.00735  -0.02257  -2.83667
    D7        2.34600  -0.00005   0.10021  -0.02144   0.07880   2.42480
    D8       -1.77902  -0.00038   0.10331  -0.02774   0.07561  -1.70341
    D9        0.25462  -0.00093   0.10153  -0.02770   0.07384   0.32846
   D10       -1.53296   0.00095   0.09174  -0.01063   0.08109  -1.45187
   D11        0.62521   0.00062   0.09483  -0.01693   0.07789   0.70310
   D12        2.65884   0.00007   0.09306  -0.01688   0.07613   2.73497
   D13       -1.00812  -0.00013   0.03105  -0.01084   0.02024  -0.98788
   D14        1.15089   0.00004   0.03087  -0.01137   0.01954   1.17042
   D15       -3.10046  -0.00049   0.03158  -0.01182   0.01979  -3.08066
   D16        2.85429  -0.00018   0.04622  -0.02308   0.02311   2.87740
   D17       -1.26989  -0.00001   0.04605  -0.02361   0.02241  -1.24748
   D18        0.76195  -0.00054   0.04676  -0.02406   0.02266   0.78461
   D19       -3.10653  -0.00014   0.04776  -0.02875   0.01900  -3.08753
   D20       -1.03395  -0.00011   0.04299  -0.02608   0.01692  -1.01704
   D21        1.10060  -0.00031   0.05045  -0.03139   0.01905   1.11965
   D22        1.06444   0.00063   0.04665  -0.02093   0.02573   1.09017
   D23        3.13702   0.00067   0.04188  -0.01825   0.02365  -3.12252
   D24       -1.01161   0.00046   0.04934  -0.02357   0.02578  -0.98584
   D25       -1.05490  -0.00047   0.03962  -0.02291   0.01671  -1.03819
   D26        1.01768  -0.00043   0.03486  -0.02023   0.01462   1.03230
   D27       -3.13095  -0.00063   0.04232  -0.02555   0.01675  -3.11420
   D28       -3.02436   0.00016   0.00035  -0.00041  -0.00006  -3.02442
   D29       -0.95408  -0.00001  -0.00226  -0.00014  -0.00240  -0.95647
   D30        1.18609   0.00004   0.00104  -0.00191  -0.00087   1.18522
   D31        1.13793   0.00061   0.00354   0.00183   0.00537   1.14330
   D32       -3.07497   0.00044   0.00092   0.00210   0.00303  -3.07194
   D33       -0.93480   0.00049   0.00423   0.00033   0.00456  -0.93024
   D34       -0.96818  -0.00045  -0.00306  -0.00212  -0.00519  -0.97337
   D35        1.10211  -0.00063  -0.00568  -0.00185  -0.00753   1.09457
   D36       -3.04091  -0.00058  -0.00237  -0.00363  -0.00600  -3.04692
         Item               Value     Threshold  Converged?
 Maximum Force            0.006605     0.000450     NO 
 RMS     Force            0.001233     0.000300     NO 
 Maximum Displacement     0.211168     0.001800     NO 
 RMS     Displacement     0.050371     0.001200     NO 
 Predicted change in Energy=-1.931088D-04
 GradGradGradGradGradGradGradGradGradGradGradGradGradGradGradGradGradGrad

                          Input orientation:                          
 ---------------------------------------------------------------------
 Center     Atomic      Atomic             Coordinates (Angstroms)
 Number     Number       Type             X           Y           Z
 ---------------------------------------------------------------------
      1          5           0       -1.804243    0.714434   -0.181515
      2          9           0       -1.618333    1.683746   -1.144965
      3          9           0       -2.044838    1.217979    1.084505
      4          9           0       -2.709486   -0.253642   -0.569695
      5          8           0       -0.350435   -0.053342   -0.078866
      6          6           0       -0.361584   -1.486344    0.199084
      7          6           0        0.671936   -2.204578   -0.642164
      8          6           0        0.686818    0.634875    0.681255
      9          6           0        0.960840    2.024015    0.151060
     10          1           0       -0.193690   -1.618780    1.275748
     11          1           0       -1.365250   -1.835048   -0.045853
     12          1           0        0.590730   -3.281366   -0.442751
     13          1           0        0.483369   -2.033693   -1.709215
     14          1           0        1.699219   -1.900286   -0.405275
     15          1           0        0.372289    0.651650    1.732691
     16          1           0        1.585409    0.016546    0.587804
     17          1           0        1.827982    2.419721    0.695861
     18          1           0        1.205062    1.996615   -0.917593
     19          1           0        0.117746    2.703480    0.312299
 ---------------------------------------------------------------------
                    Distance matrix (angstroms):
                    1          2          3          4          5
     1  B    0.000000
     2  F    1.379262   0.000000
     3  F    1.383565   2.317192   0.000000
     4  F    1.381057   2.296742   2.311666   0.000000
     5  O    1.647293   2.400335   2.416753   2.417882   0.000000
     6  C    2.658862   3.665428   3.306158   2.761018   1.459752
     7  C    3.855424   4.540617   4.698526   3.904538   2.447521
     8  C    2.637440   3.122328   2.822157   3.726824   1.458534
     9  C    3.077547   2.906475   3.248864   4.379327   2.467332
    10  H    3.187693   4.335451   3.392716   3.405655   2.076088
    11  H    2.590555   3.695133   3.325736   2.140613   2.050710
    12  H    4.665893   5.479544   5.433492   4.480475   3.382061
    13  H    3.888347   4.307538   4.976954   3.829022   2.697231
    14  H    4.377337   4.939493   5.095193   4.709051   2.778278
    15  H    2.899211   3.648110   2.565810   3.951946   2.073906
    16  H    3.545228   4.005747   3.856015   4.456336   2.048616
    17  H    4.107414   3.975850   4.073569   5.416374   3.385520
    18  H    3.352867   2.849762   3.895705   4.528617   2.706540
    19  H    2.809661   2.485446   2.734920   4.185179   2.823521
                    6          7          8          9         10
     6  C    0.000000
     7  C    1.513844   0.000000
     8  C    2.414789   3.132754   0.000000
     9  C    3.751498   4.312038   1.511922   0.000000
    10  H    1.097694   2.184228   2.491521   3.983443   0.000000
    11  H    1.090382   2.154592   3.292444   4.510193   1.779312
    12  H    2.130952   1.098104   4.075483   5.351324   2.516495
    13  H    2.157578   1.096976   3.588453   4.489276   3.088780
    14  H    2.187124   1.097279   2.938120   4.031731   2.547193
    15  H    2.731582   3.726628   1.097601   2.175164   2.384110
    16  H    2.490093   2.698266   1.094774   2.147270   2.512519
    17  H    4.505367   4.950847   2.118524   1.097873   4.553341
    18  H    3.978989   4.243831   2.163152   1.096546   4.454024
    19  H    4.218673   5.030622   2.176947   1.094750   4.439274
                   11         12         13         14         15
    11  H    0.000000
    12  H    2.464796   0.000000
    13  H    2.494719   1.781051   0.000000
    14  H    3.086165   1.771309   1.787834   0.000000
    15  H    3.516522   4.499875   4.366935   3.583856   0.000000
    16  H    3.540665   3.595504   3.270209   2.161805   1.784877
    17  H    5.371212   5.943872   5.236914   4.459993   2.513988
    18  H    4.695538   5.334788   4.170239   3.961377   3.086495
    19  H    4.788087   6.050801   5.163430   4.920430   2.508448
                   16         17         18         19
    16  H    0.000000
    17  H    2.417802   0.000000
    18  H    2.516259   1.780528   0.000000
    19  H    3.074013   1.775541   1.787330   0.000000
 Stoichiometry    C4H10BF3O
 Framework group  C1[X(C4H10BF3O)]
 Deg. of freedom    51
 Full point group                 C1      NOp   1
 Largest Abelian subgroup         C1      NOp   1
 Largest concise Abelian subgroup C1      NOp   1
                         Standard orientation:                         
 ---------------------------------------------------------------------
 Center     Atomic      Atomic             Coordinates (Angstroms)
 Number     Number       Type             X           Y           Z
 ---------------------------------------------------------------------
      1          5           0       -1.016785   -0.666885   -0.041523
      2          9           0       -1.671136   -0.164902   -1.147055
      3          9           0       -1.614947   -0.341034    1.162750
      4          9           0       -0.721854   -2.010560   -0.163474
      5          8           0        0.437186    0.107363   -0.032400
      6          6           0        1.597676   -0.640583    0.441639
      7          6           0        2.807335   -0.360670   -0.424442
      8          6           0        0.433288    1.474664    0.475335
      9          6           0       -0.532137    2.363211   -0.275894
     10          1           0        1.761512   -0.371315    1.493107
     11          1           0        1.322383   -1.694236    0.387215
     12          1           0        3.638276   -0.983566   -0.067550
     13          1           0        2.599790   -0.623607   -1.469021
     14          1           0        3.132854    0.686043   -0.374942
     15          1           0        0.201041    1.430347    1.547168
     16          1           0        1.455994    1.843679    0.347154
     17          1           0       -0.384400    3.389591    0.084719
     18          1           0       -0.330510    2.341337   -1.353522
     19          1           0       -1.576045    2.085988   -0.097343
 ---------------------------------------------------------------------
 Rotational constants (GHZ):           1.7894108           1.3832382           0.9892533
 Standard basis: Aug-CC-pVDZ (5D, 7F)
 There are   315 symmetry adapted cartesian basis functions of A   symmetry.
 There are   297 symmetry adapted basis functions of A   symmetry.
   297 basis functions,   497 primitive gaussians,   315 cartesian basis functions
    37 alpha electrons       37 beta electrons
       nuclear repulsion energy       523.0346939841 Hartrees.
 NAtoms=   19 NActive=   19 NUniq=   19 SFac= 1.00D+00 NAtFMM=   60 NAOKFM=F Big=F
 Integral buffers will be    131072 words long.
 Raffenetti 2 integral format.
 Two-electron integral symmetry is turned on.
 Nuclear repulsion after empirical dispersion term =      523.0226802245 Hartrees.
 Force PCM accuracy= 1.00D-12.
 ------------------------------------------------------------------------------
 Polarizable Continuum Model (PCM)
 =================================
 Model                : C-PCM.
 Atomic radii         : UFF (Universal Force Field).
 Polarization charges : Total charges.
 Charge compensation  : None.
 Solution method      : On-the-fly selection.
 Cavity type          : Scaled VdW (van der Waals Surface) (Alpha=1.100).
 Cavity algorithm     : GePol (No added spheres)
                        Default sphere list used, NSphG=   19.
                        Lebedev-Laikov grids with approx.  5.0 points / Ang**2.
                        Smoothing algorithm: York/Karplus (Gamma=1.0000).
                        Polarization charges: spherical gaussians, with
                                              point-specific exponents (IZeta= 3).
                        Self-potential: point-specific (ISelfS= 7).
                        Self-field    : sphere-specific E.n sum rule (ISelfD= 2).
 1st derivatives      : Analytical E(r).r(x)/FMM algorithm (CHGder, D1EAlg=3).
                        Cavity 1st derivative terms included.
 Solvent              : TetraHydroFuran, Eps=   7.425700 Eps(inf)=   1.974025
 ------------------------------------------------------------------------------
 Spheres list:
 ISph  on   Nord     Re0    Alpha      Xe            Ye            Ze
    1   B      1    2.0415  1.100     -1.016785     -0.666885     -0.041523
    2   F      2    1.6820  1.100     -1.671136     -0.164902     -1.147055
    3   F      3    1.6820  1.100     -1.614947     -0.341034      1.162750
    4   F      4    1.6820  1.100     -0.721854     -2.010560     -0.163474
    5   O      5    1.7500  1.100      0.437186      0.107363     -0.032400
    6   C      6    1.9255  1.100      1.597676     -0.640583      0.441639
    7   C      7    1.9255  1.100      2.807335     -0.360670     -0.424442
    8   C      8    1.9255  1.100      0.433288      1.474664      0.475335
    9   C      9    1.9255  1.100     -0.532137      2.363211     -0.275894
   10   H     10    1.4430  1.100      1.761512     -0.371315      1.493107
   11   H     11    1.4430  1.100      1.322383     -1.694236      0.387215
   12   H     12    1.4430  1.100      3.638276     -0.983566     -0.067550
   13   H     13    1.4430  1.100      2.599790     -0.623607     -1.469021
   14   H     14    1.4430  1.100      3.132854      0.686043     -0.374942
   15   H     15    1.4430  1.100      0.201041      1.430347      1.547168
   16   H     16    1.4430  1.100      1.455994      1.843679      0.347154
   17   H     17    1.4430  1.100     -0.384400      3.389591      0.084719
   18   H     18    1.4430  1.100     -0.330510      2.341337     -1.353522
   19   H     19    1.4430  1.100     -1.576045      2.085988     -0.097343
 ------------------------------------------------------------------------------
 One-electron integrals computed using PRISM.
 NBasis=   297 RedAO= T EigKep=  2.62D-05  NBF=   297
 NBsUse=   297 1.00D-06 EigRej= -1.00D+00 NBFU=   297
 Lowest energy guess from the checkpoint file:  "/inspire/hdd/project/materialscienceresearch/lipenghui-253107030018/g16/00-B-DFT-Shift/04-output/BF3OEt2_THF/BF3OEt2_THF.chk"
 B after Tr=     0.000000   -0.000000   -0.000000
         Rot=    0.999971    0.004718    0.004795   -0.003607 Ang=   0.87 deg.
 B after Tr=    -0.000000   -0.000000    0.000000
         Rot=    0.999948   -0.006898   -0.002941    0.006948 Ang=  -1.17 deg.
 Requested convergence on RMS density matrix=1.00D-08 within 128 cycles.
 Requested convergence on MAX density matrix=1.00D-06.
 Requested convergence on             energy=1.00D-06.
 No special actions if energy rises.
 Inv3:  Mode=1 IEnd=     6867507.
 Iteration    1 A*A^-1 deviation from unit magnitude is 4.00D-15 for   1493.
 Iteration    1 A*A^-1 deviation from orthogonality  is 2.02D-15 for   1270    653.
 Iteration    1 A^-1*A deviation from unit magnitude is 3.77D-15 for   1493.
 Iteration    1 A^-1*A deviation from orthogonality  is 2.52D-15 for    824    431.
 Error on total polarization charges =  0.00990
 SCF Done:  E(RwB97XD) =  -558.149685933     A.U. after   10 cycles
            NFock= 10  Conv=0.43D-08     -V/T= 2.0061
 D1PCM: C-PCM CHGder 1st derivatives, ID1Alg=3 FixD1E=F DoIter=F DoCFld=F I1PDM=0.
 Calling FoFJK, ICntrl=      2127 FMM=F ISym2X=0 I1Cent= 0 IOpClX= 0 NMat=1 NMatS=1 NMatT=0.
 ***** Axes restored to original set *****
 -------------------------------------------------------------------
 Center     Atomic                   Forces (Hartrees/Bohr)
 Number     Number              X              Y              Z
 -------------------------------------------------------------------
      1        5           0.004622796   -0.002507171   -0.000565640
      2        9          -0.000407780    0.000098669    0.000392761
      3        9          -0.000206859    0.000131162   -0.000252932
      4        9           0.000468934    0.000139170    0.000170051
      5        8          -0.007772288    0.003051233   -0.000778231
      6        6           0.000691501   -0.005431386   -0.000065455
      7        6           0.000475778    0.000155660   -0.000267658
      8        6           0.004880154    0.002984350    0.002122841
      9        6          -0.000428210    0.000483630   -0.000332455
     10        1           0.000104733    0.000690008   -0.000345960
     11        1           0.000061753    0.001237930    0.000226050
     12        1          -0.000281871    0.000501691    0.000013760
     13        1           0.000061646   -0.000101875    0.000345703
     14        1          -0.000486031    0.000184589   -0.000099164
     15        1          -0.000691967   -0.000122125   -0.000744936
     16        1          -0.001156434   -0.000318156   -0.000085401
     17        1          -0.000147108   -0.000633220    0.000014388
     18        1          -0.000145752   -0.000095898    0.000407439
     19        1           0.000357005   -0.000448263   -0.000155161
 -------------------------------------------------------------------
 Cartesian Forces:  Max     0.007772288 RMS     0.001744613

 GradGradGradGradGradGradGradGradGradGradGradGradGradGradGradGradGradGrad
 Berny optimization.
 Using GEDIIS/GDIIS optimizer.
 FormGI is forming the generalized inverse of G from B-inverse, IUseBI=4.
 Internal  Forces:  Max     0.004931193 RMS     0.000801249
 Search for a local minimum.
 Step number  11 out of a maximum of   97
 All quantities printed in internal units (Hartrees-Bohrs-Radians)
 Mixed Optimization -- En-DIIS/RFO-DIIS
 Update second derivatives using D2CorX and points    8   10    9   11
 DE= -2.59D-04 DEPred=-1.93D-04 R= 1.34D+00
 TightC=F SS=  1.41D+00  RLast= 3.62D-01 DXNew= 8.6300D-01 1.0866D+00
 Trust test= 1.34D+00 RLast= 3.62D-01 DXMaxT set to 8.63D-01
 ITU=  1 -1  1  1  1  1  1  1  1  1  0
 Use linear search instead of GDIIS.
     Eigenvalues ---    0.00103   0.00282   0.00363   0.01231   0.01470
     Eigenvalues ---    0.02262   0.04413   0.04764   0.05205   0.05311
     Eigenvalues ---    0.05395   0.05490   0.05778   0.05858   0.09343
     Eigenvalues ---    0.09773   0.10841   0.12785   0.12909   0.13101
     Eigenvalues ---    0.13594   0.15958   0.16001   0.16009   0.16058
     Eigenvalues ---    0.16298   0.16742   0.20783   0.21305   0.24198
     Eigenvalues ---    0.25212   0.25342   0.28310   0.28451   0.28621
     Eigenvalues ---    0.28761   0.31049   0.31880   0.31975   0.32033
     Eigenvalues ---    0.32108   0.32142   0.32171   0.32202   0.32236
     Eigenvalues ---    0.32662   0.35886   0.37996   0.40006   0.43785
     Eigenvalues ---    0.53111
 RFO step:  Lambda=-5.90190753D-04 EMin= 1.03006477D-03
 Quartic linear search produced a step of  0.44509.
 Iteration  1 RMS(Cart)=  0.06459068 RMS(Int)=  0.00194611
 Iteration  2 RMS(Cart)=  0.00249828 RMS(Int)=  0.00008012
 Iteration  3 RMS(Cart)=  0.00000435 RMS(Int)=  0.00008006
 Iteration  4 RMS(Cart)=  0.00000000 RMS(Int)=  0.00008006
 Variable       Old X    -DE/DX   Delta X   Delta X   Delta X     New X
                                 (Linear)    (Quad)   (Total)
    R1        2.60643  -0.00026  -0.00047   0.00526   0.00478   2.61121
    R2        2.61456  -0.00014  -0.00128   0.00553   0.00424   2.61880
    R3        2.60982  -0.00045  -0.00067   0.00522   0.00455   2.61437
    R4        3.11293  -0.00493   0.00368  -0.05493  -0.05125   3.06168
    R5        2.75853   0.00267  -0.00311   0.01260   0.00949   2.76802
    R6        2.75623   0.00341  -0.00281   0.01458   0.01177   2.76800
    R7        2.86075  -0.00050  -0.00020  -0.00362  -0.00382   2.85693
    R8        2.07434  -0.00041  -0.00036  -0.00162  -0.00198   2.07236
    R9        2.06052  -0.00050   0.00036  -0.00175  -0.00140   2.05913
   R10        2.07512  -0.00047  -0.00001  -0.00141  -0.00142   2.07370
   R11        2.07298  -0.00036  -0.00000  -0.00061  -0.00061   2.07237
   R12        2.07356  -0.00043   0.00070  -0.00014   0.00056   2.07412
   R13        2.85712  -0.00068  -0.00004  -0.00395  -0.00398   2.85313
   R14        2.07417  -0.00052   0.00002  -0.00168  -0.00166   2.07250
   R15        2.06882  -0.00076   0.00099  -0.00092   0.00007   2.06889
   R16        2.07468  -0.00034  -0.00014  -0.00062  -0.00076   2.07392
   R17        2.07217  -0.00043   0.00015  -0.00099  -0.00083   2.07134
   R18        2.06878  -0.00058   0.00025  -0.00129  -0.00104   2.06774
    A1        1.98979  -0.00056  -0.00002  -0.01253  -0.01259   1.97720
    A2        1.96561  -0.00003   0.00160  -0.00540  -0.00386   1.96175
    A3        1.82567   0.00096  -0.00242   0.01195   0.00949   1.83516
    A4        1.98049  -0.00008   0.00128  -0.00534  -0.00412   1.97637
    A5        1.84012   0.00054  -0.00055   0.00933   0.00874   1.84886
    A6        1.84345  -0.00069  -0.00048   0.00682   0.00629   1.84974
    A7        2.05180  -0.00002   0.00729   0.01272   0.01985   2.07165
    A8        2.02660   0.00052  -0.00035   0.00683   0.00615   2.03274
    A9        1.94917  -0.00025   0.00039  -0.00037  -0.00038   1.94879
   A10        1.93341  -0.00013  -0.00467  -0.01001  -0.01471   1.91871
   A11        1.87972  -0.00031  -0.00000  -0.00881  -0.00889   1.87083
   A12        1.85271  -0.00066   0.00622  -0.00309   0.00323   1.85594
   A13        1.96426   0.00033  -0.00085   0.00303   0.00199   1.96626
   A14        1.93035   0.00069   0.00175   0.01505   0.01681   1.94717
   A15        1.89920   0.00001  -0.00205   0.00306   0.00094   1.90014
   A16        1.89002  -0.00038   0.00291   0.00098   0.00390   1.89392
   A17        1.92760   0.00012  -0.00042   0.00251   0.00204   1.92964
   A18        1.96885  -0.00023  -0.00370  -0.01065  -0.01437   1.95448
   A19        1.89303   0.00009   0.00134   0.00127   0.00258   1.89561
   A20        1.87755   0.00038   0.00208   0.00812   0.01023   1.88777
   A21        1.90470   0.00004  -0.00187  -0.00166  -0.00360   1.90110
   A22        1.96024   0.00055  -0.00208  -0.00328  -0.00534   1.95490
   A23        1.87827  -0.00066   0.00123  -0.00994  -0.00870   1.86957
   A24        1.84703  -0.00071   0.00103  -0.00931  -0.00825   1.83877
   A25        1.95392   0.00023   0.00026   0.00596   0.00616   1.96008
   A26        1.91797   0.00036   0.00096   0.01051   0.01142   1.92938
   A27        1.90246   0.00016  -0.00138   0.00514   0.00363   1.90608
   A28        1.87580  -0.00075   0.00119  -0.00580  -0.00462   1.87118
   A29        1.93817  -0.00006  -0.00082  -0.00105  -0.00188   1.93629
   A30        1.95954   0.00005  -0.00070  -0.00176  -0.00247   1.95707
   A31        1.89305   0.00031   0.00077   0.00269   0.00345   1.89650
   A32        1.88755   0.00040   0.00049   0.00604   0.00653   1.89408
   A33        1.90770   0.00005  -0.00078   0.00017  -0.00062   1.90708
    D1       -2.54001   0.00006   0.01158  -0.00402   0.00766  -2.53236
    D2        1.36870  -0.00016   0.00246  -0.02789  -0.02553   1.34318
    D3        1.63943  -0.00001   0.01301   0.00022   0.01333   1.65276
    D4       -0.73503  -0.00022   0.00389  -0.02365  -0.01985  -0.75489
    D5       -0.46220   0.00015   0.01204  -0.00149   0.01065  -0.45155
    D6       -2.83667  -0.00006   0.00293  -0.02537  -0.02253  -2.85920
    D7        2.42480  -0.00038  -0.05025  -0.02332  -0.07367   2.35113
    D8       -1.70341  -0.00026  -0.05430  -0.03176  -0.08605  -1.78946
    D9        0.32846  -0.00073  -0.05358  -0.03402  -0.08765   0.24081
   D10       -1.45187   0.00014  -0.04201   0.00223  -0.03979  -1.49167
   D11        0.70310   0.00026  -0.04607  -0.00621  -0.05218   0.65093
   D12        2.73497  -0.00021  -0.04534  -0.00848  -0.05377   2.68119
   D13       -0.98788  -0.00011  -0.01742  -0.02246  -0.03998  -1.02785
   D14        1.17042   0.00007  -0.01759  -0.02408  -0.04174   1.12868
   D15       -3.08066  -0.00041  -0.01808  -0.02750  -0.04566  -3.12632
   D16        2.87740  -0.00039  -0.02907  -0.05034  -0.07933   2.79807
   D17       -1.24748  -0.00021  -0.02923  -0.05195  -0.08109  -1.32858
   D18        0.78461  -0.00068  -0.02973  -0.05537  -0.08501   0.69961
   D19       -3.08753   0.00008  -0.03220  -0.03018  -0.06237   3.13329
   D20       -1.01704   0.00003  -0.02907  -0.02659  -0.05565  -1.07268
   D21        1.11965   0.00001  -0.03448  -0.03444  -0.06886   1.05079
   D22        1.09017   0.00035  -0.02826  -0.01389  -0.04215   1.04802
   D23       -3.12252   0.00030  -0.02514  -0.01030  -0.03543   3.12523
   D24       -0.98584   0.00028  -0.03054  -0.01814  -0.04864  -1.03447
   D25       -1.03819  -0.00039  -0.02629  -0.03085  -0.05720  -1.09539
   D26        1.03230  -0.00044  -0.02317  -0.02725  -0.05048   0.98182
   D27       -3.11420  -0.00046  -0.02857  -0.03510  -0.06369   3.10530
   D28       -3.02442   0.00007  -0.00033   0.00075   0.00043  -3.02400
   D29       -0.95647  -0.00004   0.00086  -0.00012   0.00075  -0.95573
   D30        1.18522   0.00003  -0.00128  -0.00193  -0.00320   1.18202
   D31        1.14330   0.00037  -0.00062   0.01170   0.01112   1.15441
   D32       -3.07194   0.00026   0.00056   0.01084   0.01144  -3.06050
   D33       -0.93024   0.00032  -0.00157   0.00902   0.00749  -0.92275
   D34       -0.97337  -0.00023   0.00030  -0.00606  -0.00580  -0.97918
   D35        1.09457  -0.00035   0.00148  -0.00693  -0.00548   1.08909
   D36       -3.04692  -0.00028  -0.00065  -0.00874  -0.00943  -3.05634
         Item               Value     Threshold  Converged?
 Maximum Force            0.004931     0.000450     NO 
 RMS     Force            0.000801     0.000300     NO 
 Maximum Displacement     0.210002     0.001800     NO 
 RMS     Displacement     0.065169     0.001200     NO 
 Predicted change in Energy=-3.806561D-04
 GradGradGradGradGradGradGradGradGradGradGradGradGradGradGradGradGradGrad

                          Input orientation:                          
 ---------------------------------------------------------------------
 Center     Atomic      Atomic             Coordinates (Angstroms)
 Number     Number       Type             X           Y           Z
 ---------------------------------------------------------------------
      1          5           0       -1.795018    0.696917   -0.186379
      2          9           0       -1.593662    1.676974   -1.139424
      3          9           0       -2.084863    1.205549    1.069707
      4          9           0       -2.693015   -0.268750   -0.604779
      5          8           0       -0.366656   -0.054255   -0.043262
      6          6           0       -0.352973   -1.495326    0.218824
      7          6           0        0.656204   -2.173110   -0.679940
      8          6           0        0.664454    0.645090    0.726974
      9          6           0        0.986814    1.999113    0.141959
     10          1           0       -0.127297   -1.628970    1.283644
     11          1           0       -1.364407   -1.851637    0.025519
     12          1           0        0.653357   -3.247930   -0.458709
     13          1           0        0.389013   -2.032074   -1.734152
     14          1           0        1.672739   -1.792860   -0.516403
     15          1           0        0.304586    0.713282    1.760726
     16          1           0        1.543304   -0.006930    0.693747
     17          1           0        1.843872    2.398016    0.699427
     18          1           0        1.265049    1.913145   -0.914754
     19          1           0        0.152038    2.699737    0.239688
 ---------------------------------------------------------------------
                    Distance matrix (angstroms):
                    1          2          3          4          5
     1  B    0.000000
     2  F    1.381792   0.000000
     3  F    1.385809   2.311662   0.000000
     4  F    1.383463   2.297882   2.312425   0.000000
     5  O    1.620173   2.388361   2.403756   2.402760   0.000000
     6  C    2.655111   3.667102   3.319363   2.767419   1.464774
     7  C    3.806462   4.482875   4.689355   3.853506   2.437447
     8  C    2.624100   3.106013   2.826716   3.725757   1.464764
     9  C    3.089030   2.899065   3.305399   4.386566   2.466275
    10  H    3.217455   4.353246   3.451425   3.463994   2.073089
    11  H    2.593349   3.723002   3.309950   2.160557   2.056896
    12  H    4.650863   5.455928   5.446777   4.482751   3.378251
    13  H    3.822693   4.247556   4.946098   3.726082   2.709595
    14  H    4.281734   4.805963   5.062190   4.624989   2.721349
    15  H    2.863533   3.597627   2.535607   3.942793   2.072210
    16  H    3.523410   4.004573   3.843832   4.438594   2.047772
    17  H    4.113381   3.964582   4.122383   5.421802   3.384029
    18  H    3.372499   2.877235   3.957359   4.530233   2.700485
    19  H    2.825570   2.448564   2.815183   4.197543   2.816661
                    6          7          8          9         10
     6  C    0.000000
     7  C    1.511823   0.000000
     8  C    2.423789   3.149877   0.000000
     9  C    3.743267   4.265240   1.509814   0.000000
    10  H    1.096646   2.183031   2.471457   3.963291   0.000000
    11  H    1.089644   2.164229   3.292714   4.513322   1.778455
    12  H    2.131519   1.097355   4.069590   5.291829   2.503247
    13  H    2.157025   1.096651   3.646945   4.486382   3.088067
    14  H    2.175453   1.097577   2.916543   3.909347   2.550913
    15  H    2.772688   3.796281   1.096722   2.176971   2.429049
    16  H    2.456979   2.714093   1.094811   2.153685   2.402062
    17  H    4.496134   4.920203   2.112945   1.097470   4.521442
    18  H    3.939628   4.138032   2.159617   1.096106   4.395243
    19  H    4.225403   4.984430   2.172923   1.094201   4.461567
                   11         12         13         14         15
    11  H    0.000000
    12  H    2.501097   0.000000
    13  H    2.490679   1.781836   0.000000
    14  H    3.085675   1.777553   1.785521   0.000000
    15  H    3.517854   4.553980   4.445029   3.652111   0.000000
    16  H    3.507743   3.553061   3.365753   2.161196   1.786497
    17  H    5.367193   5.885177   5.259716   4.367033   2.516761
    18  H    4.687402   5.217167   4.123542   3.749582   3.085507
    19  H    4.802133   6.009478   5.132469   4.802878   2.506558
                   16         17         18         19
    16  H    0.000000
    17  H    2.423662   0.000000
    18  H    2.520196   1.782054   0.000000
    19  H    3.076985   1.778960   1.786129   0.000000
 Stoichiometry    C4H10BF3O
 Framework group  C1[X(C4H10BF3O)]
 Deg. of freedom    51
 Full point group                 C1      NOp   1
 Largest Abelian subgroup         C1      NOp   1
 Largest concise Abelian subgroup C1      NOp   1
                         Standard orientation:                         
 ---------------------------------------------------------------------
 Center     Atomic      Atomic             Coordinates (Angstroms)
 Number     Number       Type             X           Y           Z
 ---------------------------------------------------------------------
      1          5           0       -1.007400   -0.655093   -0.045685
      2          9           0       -1.651702   -0.131119   -1.150074
      3          9           0       -1.638612   -0.354177    1.150764
      4          9           0       -0.724457   -2.001603   -0.189988
      5          8           0        0.425721    0.098891    0.005643
      6          6           0        1.597025   -0.647728    0.470581
      7          6           0        2.768470   -0.395122   -0.451111
      8          6           0        0.422971    1.472268    0.514918
      9          6           0       -0.470249    2.376201   -0.300314
     10          1           0        1.794845   -0.331136    1.501730
     11          1           0        1.309210   -1.698669    0.473667
     12          1           0        3.633521   -0.957385   -0.077298
     13          1           0        2.540180   -0.738822   -1.467180
     14          1           0        3.040907    0.667482   -0.487554
     15          1           0        0.118625    1.425633    1.567533
     16          1           0        1.464101    1.805605    0.455379
     17          1           0       -0.320751    3.398963    0.068534
     18          1           0       -0.197789    2.342729   -1.361489
     19          1           0       -1.527972    2.118315   -0.190802
 ---------------------------------------------------------------------
 Rotational constants (GHZ):           1.7786801           1.3955809           0.9976972
 Standard basis: Aug-CC-pVDZ (5D, 7F)
 There are   315 symmetry adapted cartesian basis functions of A   symmetry.
 There are   297 symmetry adapted basis functions of A   symmetry.
   297 basis functions,   497 primitive gaussians,   315 cartesian basis functions
    37 alpha electrons       37 beta electrons
       nuclear repulsion energy       523.6541280118 Hartrees.
 NAtoms=   19 NActive=   19 NUniq=   19 SFac= 1.00D+00 NAtFMM=   60 NAOKFM=F Big=F
 Integral buffers will be    131072 words long.
 Raffenetti 2 integral format.
 Two-electron integral symmetry is turned on.
 Nuclear repulsion after empirical dispersion term =      523.6420956977 Hartrees.
 Force PCM accuracy= 1.00D-12.
 ------------------------------------------------------------------------------
 Polarizable Continuum Model (PCM)
 =================================
 Model                : C-PCM.
 Atomic radii         : UFF (Universal Force Field).
 Polarization charges : Total charges.
 Charge compensation  : None.
 Solution method      : On-the-fly selection.
 Cavity type          : Scaled VdW (van der Waals Surface) (Alpha=1.100).
 Cavity algorithm     : GePol (No added spheres)
                        Default sphere list used, NSphG=   19.
                        Lebedev-Laikov grids with approx.  5.0 points / Ang**2.
                        Smoothing algorithm: York/Karplus (Gamma=1.0000).
                        Polarization charges: spherical gaussians, with
                                              point-specific exponents (IZeta= 3).
                        Self-potential: point-specific (ISelfS= 7).
                        Self-field    : sphere-specific E.n sum rule (ISelfD= 2).
 1st derivatives      : Analytical E(r).r(x)/FMM algorithm (CHGder, D1EAlg=3).
                        Cavity 1st derivative terms included.
 Solvent              : TetraHydroFuran, Eps=   7.425700 Eps(inf)=   1.974025
 ------------------------------------------------------------------------------
 Spheres list:
 ISph  on   Nord     Re0    Alpha      Xe            Ye            Ze
    1   B      1    2.0415  1.100     -1.007400     -0.655093     -0.045685
    2   F      2    1.6820  1.100     -1.651702     -0.131119     -1.150074
    3   F      3    1.6820  1.100     -1.638612     -0.354177      1.150764
    4   F      4    1.6820  1.100     -0.724457     -2.001603     -0.189988
    5   O      5    1.7500  1.100      0.425721      0.098891      0.005643
    6   C      6    1.9255  1.100      1.597025     -0.647728      0.470581
    7   C      7    1.9255  1.100      2.768470     -0.395122     -0.451111
    8   C      8    1.9255  1.100      0.422971      1.472268      0.514918
    9   C      9    1.9255  1.100     -0.470249      2.376201     -0.300314
   10   H     10    1.4430  1.100      1.794845     -0.331136      1.501730
   11   H     11    1.4430  1.100      1.309210     -1.698669      0.473667
   12   H     12    1.4430  1.100      3.633521     -0.957385     -0.077298
   13   H     13    1.4430  1.100      2.540180     -0.738822     -1.467180
   14   H     14    1.4430  1.100      3.040907      0.667482     -0.487554
   15   H     15    1.4430  1.100      0.118625      1.425633      1.567533
   16   H     16    1.4430  1.100      1.464101      1.805605      0.455379
   17   H     17    1.4430  1.100     -0.320751      3.398963      0.068534
   18   H     18    1.4430  1.100     -0.197789      2.342729     -1.361489
   19   H     19    1.4430  1.100     -1.527972      2.118315     -0.190802
 ------------------------------------------------------------------------------
 One-electron integrals computed using PRISM.
 NBasis=   297 RedAO= T EigKep=  2.62D-05  NBF=   297
 NBsUse=   297 1.00D-06 EigRej= -1.00D+00 NBFU=   297
 Initial guess from the checkpoint file:  "/inspire/hdd/project/materialscienceresearch/lipenghui-253107030018/g16/00-B-DFT-Shift/04-output/BF3OEt2_THF/BF3OEt2_THF.chk"
 B after Tr=     0.000000    0.000000    0.000000
         Rot=    0.999981   -0.001604    0.003064    0.005097 Ang=  -0.71 deg.
 ExpMin= 2.38D-02 ExpMax= 1.47D+04 ExpMxC= 5.03D+02 IAcc=3 IRadAn=         5 AccDes= 0.00D+00
 Harris functional with IExCor= 4639 and IRadAn=       5 diagonalized for initial guess.
 HarFok:  IExCor= 4639 AccDes= 0.00D+00 IRadAn=         5 IDoV= 1 UseB2=F ITyADJ=14
 ICtDFT=  3500011 ScaDFX=  1.000000  1.000000  1.000000  1.000000
 FoFCou: FMM=F IPFlag=           0 FMFlag=      100000 FMFlg1=           0
         NFxFlg=           0 DoJE=T BraDBF=F KetDBF=T FulRan=T
         wScrn=  0.000000 ICntrl=       500 IOpCl=  0 I1Cent=   200000004 NGrid=           0
         NMat0=    1 NMatS0=      1 NMatT0=    0 NMatD0=    1 NMtDS0=    0 NMtDT0=    0
 Petite list used in FoFCou.
 Requested convergence on RMS density matrix=1.00D-08 within 128 cycles.
 Requested convergence on MAX density matrix=1.00D-06.
 Requested convergence on             energy=1.00D-06.
 No special actions if energy rises.
 Inv3:  Mode=1 IEnd=     6912972.
 Iteration    1 A*A^-1 deviation from unit magnitude is 4.11D-15 for   1512.
 Iteration    1 A*A^-1 deviation from orthogonality  is 1.79D-15 for   1512    937.
 Iteration    1 A^-1*A deviation from unit magnitude is 4.11D-15 for   1512.
 Iteration    1 A^-1*A deviation from orthogonality  is 2.18D-15 for   1496    966.
 Error on total polarization charges =  0.00988
 SCF Done:  E(RwB97XD) =  -558.150129321     A.U. after   11 cycles
            NFock= 11  Conv=0.26D-08     -V/T= 2.0060
 D1PCM: C-PCM CHGder 1st derivatives, ID1Alg=3 FixD1E=F DoIter=F DoCFld=F I1PDM=0.
 Calling FoFJK, ICntrl=      2127 FMM=F ISym2X=0 I1Cent= 0 IOpClX= 0 NMat=1 NMatS=1 NMatT=0.
 ***** Axes restored to original set *****
 -------------------------------------------------------------------
 Center     Atomic                   Forces (Hartrees/Bohr)
 Number     Number              X              Y              Z
 -------------------------------------------------------------------
      1        5           0.002091724   -0.001347842   -0.000504914
      2        9          -0.000460353   -0.000046056   -0.000274004
      3        9          -0.000264338    0.000039106    0.000403455
      4        9           0.000777589   -0.000200969    0.000249314
      5        8          -0.004076374    0.001367076   -0.000263501
      6        6           0.000792394   -0.002057221    0.000234677
      7        6          -0.000042471    0.000355060   -0.000487786
      8        6           0.001866095    0.000760993    0.000982124
      9        6           0.000128035    0.000119939    0.000067158
     10        1          -0.000036947    0.000145171   -0.000051390
     11        1          -0.000387811    0.000804846   -0.000365487
     12        1           0.000176465    0.000095710    0.000038728
     13        1          -0.000075116   -0.000038535    0.000249153
     14        1          -0.000214663   -0.000912623   -0.000191991
     15        1          -0.000148158    0.000050024   -0.000268033
     16        1          -0.000724162    0.000778589    0.000008177
     17        1          -0.000017944    0.000118831   -0.000110208
     18        1           0.000105940    0.000011579    0.000177293
     19        1           0.000510094   -0.000043677    0.000107236
 -------------------------------------------------------------------
 Cartesian Forces:  Max     0.004076374 RMS     0.000839051

 GradGradGradGradGradGradGradGradGradGradGradGradGradGradGradGradGradGrad
 Berny optimization.
 Using GEDIIS/GDIIS optimizer.
 FormGI is forming the generalized inverse of G from B-inverse, IUseBI=4.
 Internal  Forces:  Max     0.002601297 RMS     0.000697591
 Search for a local minimum.
 Step number  12 out of a maximum of   97
 All quantities printed in internal units (Hartrees-Bohrs-Radians)
 Mixed Optimization -- En-DIIS/RFO-DIIS
 Swapping is turned off.
 Update second derivatives using D2CorX and points   10   11   12
 DE= -4.43D-04 DEPred=-3.81D-04 R= 1.16D+00
 TightC=F SS=  1.41D+00  RLast= 2.96D-01 DXNew= 1.4514D+00 8.8884D-01
 Trust test= 1.16D+00 RLast= 2.96D-01 DXMaxT set to 8.89D-01
 ITU=  1  1 -1  1  1  1  1  1  1  1  1  0
     Eigenvalues ---    0.00114   0.00282   0.00381   0.01123   0.01471
     Eigenvalues ---    0.02149   0.04491   0.05043   0.05133   0.05310
     Eigenvalues ---    0.05410   0.05551   0.05757   0.05883   0.07826
     Eigenvalues ---    0.09653   0.10518   0.12708   0.12911   0.12965
     Eigenvalues ---    0.13488   0.15999   0.16001   0.16021   0.16057
     Eigenvalues ---    0.16468   0.17107   0.21135   0.21756   0.24803
     Eigenvalues ---    0.25216   0.25282   0.28293   0.28425   0.28560
     Eigenvalues ---    0.28762   0.31027   0.31890   0.31970   0.32045
     Eigenvalues ---    0.32110   0.32143   0.32181   0.32208   0.32233
     Eigenvalues ---    0.32803   0.37002   0.37916   0.39567   0.42263
     Eigenvalues ---    0.52544
 En-DIIS/RFO-DIIS/Sim-DIIS IScMMF=       -3 using points:    12   11
 RFO step:  Lambda=-2.94577402D-04.
 DidBck=F Rises=F RFO-DIIS coefs:    1.80607   -0.80607
 Iteration  1 RMS(Cart)=  0.05974560 RMS(Int)=  0.00141832
 Iteration  2 RMS(Cart)=  0.00190234 RMS(Int)=  0.00008642
 Iteration  3 RMS(Cart)=  0.00000178 RMS(Int)=  0.00008642
 Iteration  4 RMS(Cart)=  0.00000000 RMS(Int)=  0.00008642
 Variable       Old X    -DE/DX   Delta X   Delta X   Delta X     New X
                                 (Linear)    (Quad)   (Total)
    R1        2.61121   0.00009   0.00385   0.00025   0.00411   2.61531
    R2        2.61880   0.00044   0.00342   0.00111   0.00453   2.62333
    R3        2.61437  -0.00044   0.00367  -0.00060   0.00306   2.61743
    R4        3.06168  -0.00260  -0.04131   0.00620  -0.03512   3.02657
    R5        2.76802   0.00148   0.00765  -0.00149   0.00616   2.77418
    R6        2.76800   0.00257   0.00949  -0.00003   0.00946   2.77747
    R7        2.85693   0.00035  -0.00308   0.00176  -0.00131   2.85562
    R8        2.07236  -0.00007  -0.00160  -0.00010  -0.00169   2.07067
    R9        2.05913   0.00016  -0.00112   0.00140   0.00027   2.05940
   R10        2.07370  -0.00009  -0.00114   0.00058  -0.00056   2.07314
   R11        2.07237  -0.00023  -0.00049  -0.00009  -0.00059   2.07178
   R12        2.07412  -0.00054   0.00046  -0.00051  -0.00005   2.07407
   R13        2.85313   0.00025  -0.00321   0.00243  -0.00078   2.85236
   R14        2.07250  -0.00020  -0.00134   0.00033  -0.00101   2.07149
   R15        2.06889  -0.00105   0.00006  -0.00136  -0.00131   2.06759
   R16        2.07392  -0.00003  -0.00061   0.00030  -0.00031   2.07361
   R17        2.07134  -0.00014  -0.00067   0.00038  -0.00029   2.07105
   R18        2.06774  -0.00041  -0.00084   0.00001  -0.00083   2.06691
    A1        1.97720   0.00004  -0.01015   0.00392  -0.00629   1.97091
    A2        1.96175   0.00005  -0.00311   0.00069  -0.00247   1.95927
    A3        1.83516   0.00108   0.00765  -0.00009   0.00751   1.84268
    A4        1.97637   0.00018  -0.00332   0.00063  -0.00273   1.97364
    A5        1.84886   0.00035   0.00704  -0.00046   0.00654   1.85540
    A6        1.84974  -0.00175   0.00507  -0.00562  -0.00059   1.84915
    A7        2.07165  -0.00199   0.01600  -0.00814   0.00757   2.07922
    A8        2.03274   0.00096   0.00495   0.00248   0.00704   2.03978
    A9        1.94879   0.00105  -0.00030   0.00630   0.00554   1.95433
   A10        1.91871   0.00165  -0.01186   0.00481  -0.00706   1.91165
   A11        1.87083  -0.00043  -0.00717   0.00472  -0.00248   1.86835
   A12        1.85594  -0.00127   0.00260  -0.00594  -0.00325   1.85268
   A13        1.96626  -0.00001   0.00161   0.00321   0.00464   1.97090
   A14        1.94717  -0.00034   0.01355  -0.00682   0.00669   1.95386
   A15        1.90014   0.00032   0.00076  -0.00006   0.00061   1.90075
   A16        1.89392  -0.00009   0.00314  -0.00039   0.00276   1.89668
   A17        1.92964  -0.00027   0.00164  -0.00185  -0.00024   1.92939
   A18        1.95448   0.00096  -0.01158   0.00744  -0.00416   1.95032
   A19        1.89561   0.00005   0.00208  -0.00080   0.00127   1.89688
   A20        1.88777  -0.00054   0.00824  -0.00599   0.00227   1.89004
   A21        1.90110  -0.00014  -0.00290   0.00128  -0.00167   1.89943
   A22        1.95490   0.00143  -0.00430   0.00325  -0.00104   1.95386
   A23        1.86957  -0.00059  -0.00701   0.00294  -0.00406   1.86551
   A24        1.83877  -0.00030  -0.00665   0.00356  -0.00307   1.83571
   A25        1.96008  -0.00018   0.00496  -0.00128   0.00362   1.96370
   A26        1.92938  -0.00064   0.00920  -0.00683   0.00232   1.93170
   A27        1.90608   0.00028   0.00293  -0.00114   0.00167   1.90775
   A28        1.87118   0.00014  -0.00372   0.00358  -0.00014   1.87104
   A29        1.93629  -0.00003  -0.00152   0.00018  -0.00134   1.93495
   A30        1.95707   0.00028  -0.00199   0.00198  -0.00002   1.95706
   A31        1.89650  -0.00014   0.00278  -0.00234   0.00044   1.89694
   A32        1.89408  -0.00025   0.00526  -0.00397   0.00130   1.89538
   A33        1.90708  -0.00001  -0.00050   0.00035  -0.00016   1.90692
    D1       -2.53236   0.00069   0.00617   0.01426   0.02053  -2.51183
    D2        1.34318   0.00020  -0.02058   0.01072  -0.00995   1.33323
    D3        1.65276  -0.00005   0.01074   0.01003   0.02086   1.67363
    D4       -0.75489  -0.00054  -0.01600   0.00649  -0.00961  -0.76450
    D5       -0.45155   0.00045   0.00858   0.01236   0.02104  -0.43051
    D6       -2.85920  -0.00004  -0.01816   0.00881  -0.00944  -2.86864
    D7        2.35113  -0.00087  -0.05938  -0.02974  -0.08920   2.26193
    D8       -1.78946  -0.00016  -0.06936  -0.01996  -0.08930  -1.87876
    D9        0.24081  -0.00062  -0.07065  -0.02067  -0.09137   0.14944
   D10       -1.49167  -0.00036  -0.03208  -0.02749  -0.05957  -1.55124
   D11        0.65093   0.00035  -0.04206  -0.01771  -0.05968   0.59125
   D12        2.68119  -0.00011  -0.04335  -0.01842  -0.06175   2.61945
   D13       -1.02785  -0.00072  -0.03222  -0.00641  -0.03869  -1.06654
   D14        1.12868  -0.00044  -0.03365  -0.00391  -0.03761   1.09107
   D15       -3.12632  -0.00054  -0.03680  -0.00216  -0.03900   3.11786
   D16        2.79807   0.00007  -0.06394  -0.00393  -0.06783   2.73024
   D17       -1.32858   0.00035  -0.06537  -0.00143  -0.06675  -1.39533
   D18        0.69961   0.00025  -0.06852   0.00032  -0.06815   0.63146
   D19        3.13329   0.00049  -0.05027   0.02031  -0.02995   3.10334
   D20       -1.07268   0.00034  -0.04486   0.01800  -0.02684  -1.09953
   D21        1.05079   0.00063  -0.05550   0.02346  -0.03201   1.01878
   D22        1.04802  -0.00009  -0.03397   0.00896  -0.02499   1.02303
   D23        3.12523  -0.00025  -0.02856   0.00665  -0.02189   3.10334
   D24       -1.03447   0.00005  -0.03921   0.01210  -0.02705  -1.06153
   D25       -1.09539  -0.00025  -0.04611   0.01179  -0.03437  -1.12976
   D26        0.98182  -0.00040  -0.04069   0.00948  -0.03127   0.95055
   D27        3.10530  -0.00010  -0.05134   0.01494  -0.03643   3.06887
   D28       -3.02400   0.00004   0.00034   0.00076   0.00111  -3.02289
   D29       -0.95573  -0.00005   0.00060   0.00020   0.00080  -0.95493
   D30        1.18202   0.00011  -0.00258   0.00219  -0.00039   1.18163
   D31        1.15441  -0.00008   0.00896  -0.00446   0.00453   1.15895
   D32       -3.06050  -0.00018   0.00922  -0.00502   0.00423  -3.05627
   D33       -0.92275  -0.00002   0.00604  -0.00303   0.00304  -0.91971
   D34       -0.97918   0.00015  -0.00468   0.00283  -0.00188  -0.98105
   D35        1.08909   0.00006  -0.00442   0.00227  -0.00218   1.08691
   D36       -3.05634   0.00022  -0.00760   0.00426  -0.00337  -3.05971
         Item               Value     Threshold  Converged?
 Maximum Force            0.002601     0.000450     NO 
 RMS     Force            0.000698     0.000300     NO 
 Maximum Displacement     0.205208     0.001800     NO 
 RMS     Displacement     0.060028     0.001200     NO 
 Predicted change in Energy=-1.554821D-04
 GradGradGradGradGradGradGradGradGradGradGradGradGradGradGradGradGradGrad

                          Input orientation:                          
 ---------------------------------------------------------------------
 Center     Atomic      Atomic             Coordinates (Angstroms)
 Number     Number       Type             X           Y           Z
 ---------------------------------------------------------------------
      1          5           0       -1.786148    0.672555   -0.196386
      2          9           0       -1.579455    1.651160   -1.152926
      3          9           0       -2.123785    1.193008    1.045485
      4          9           0       -2.662218   -0.308572   -0.630377
      5          8           0       -0.370380   -0.052721   -0.010186
      6          6           0       -0.335671   -1.498895    0.239805
      7          6           0        0.629985   -2.154429   -0.720032
      8          6           0        0.646018    0.665178    0.771983
      9          6           0        1.012032    1.987481    0.142824
     10          1           0       -0.053663   -1.636755    1.289631
     11          1           0       -1.355699   -1.855541    0.098442
     12          1           0        0.674580   -3.227311   -0.495369
     13          1           0        0.290841   -2.026070   -1.754666
     14          1           0        1.641926   -1.740235   -0.624994
     15          1           0        0.245466    0.779420    1.785952
     16          1           0        1.511987   -0.003032    0.798289
     17          1           0        1.854682    2.396617    0.714337
     18          1           0        1.327083    1.850649   -0.897913
     19          1           0        0.185957    2.703473    0.178515
 ---------------------------------------------------------------------
                    Distance matrix (angstroms):
                    1          2          3          4          5
     1  B    0.000000
     2  F    1.383965   0.000000
     3  F    1.388205   2.310672   0.000000
     4  F    1.385084   2.299126   2.313691   0.000000
     5  O    1.601591   2.381370   2.395978   2.388015   0.000000
     6  C    2.647516   3.661904   3.330588   2.754434   1.468033
     7  C    3.755495   4.421711   4.680346   3.775424   2.433473
     8  C    2.617866   3.103250   2.832881   3.722798   1.469773
     9  C    3.110290   2.916828   3.358473   4.401115   2.469190
    10  H    3.246946   4.370870   3.514623   3.500723   2.073403
    11  H    2.581371   3.730005   3.283367   2.152042   2.057380
    12  H    4.620987   5.414105   5.453833   4.435255   3.377183
    13  H    3.744956   4.169186   4.902421   3.596440   2.715608
    14  H    4.213899   4.707182   5.057173   4.536005   2.697233
    15  H    2.840517   3.567530   2.516486   3.934082   2.073123
    16  H    3.510482   4.012555   3.835421   4.422491   2.049245
    17  H    4.130066   3.979406   4.169716   5.434030   3.387490
    18  H    3.401801   2.924515   4.014695   4.544044   2.700418
    19  H    2.855587   2.448832   2.892758   4.223603   2.818107
                    6          7          8          9         10
     6  C    0.000000
     7  C    1.511127   0.000000
     8  C    2.435188   3.190071   0.000000
     9  C    3.739055   4.248047   1.509402   0.000000
    10  H    1.095750   2.184974   2.460977   3.947906   0.000000
    11  H    1.089787   2.168450   3.288548   4.514082   1.778228
    12  H    2.132723   1.097058   4.093710   5.264524   2.499286
    13  H    2.156002   1.096340   3.708493   4.497685   3.088365
    14  H    2.171869   1.097549   2.954554   3.857742   2.559594
    15  H    2.814074   3.877536   1.096187   2.178739   2.484696
    16  H    2.441998   2.777002   1.094120   2.154467   2.315540
    17  H    4.494201   4.926390   2.112362   1.097305   4.498981
    18  H    3.908785   4.069182   2.158181   1.095953   4.342096
    19  H    4.235063   4.960218   2.172213   1.093764   4.486600
                   11         12         13         14         15
    11  H    0.000000
    12  H    2.521190   0.000000
    13  H    2.484791   1.782152   0.000000
    14  H    3.085841   1.778751   1.784178   0.000000
    15  H    3.514888   4.630600   4.517611   3.756517   0.000000
    16  H    3.484996   3.573622   3.478715   2.249555   1.786556
    17  H    5.363461   5.872358   5.301107   4.353460   2.520567
    18  H    4.682509   5.135512   4.103264   3.614977   3.085540
    19  H    4.813287   5.988912   5.110457   4.744683   2.507863
                   16         17         18         19
    16  H    0.000000
    17  H    2.425449   0.000000
    18  H    2.519410   1.782075   0.000000
    19  H    3.076954   1.779300   1.785546   0.000000
 Stoichiometry    C4H10BF3O
 Framework group  C1[X(C4H10BF3O)]
 Deg. of freedom    51
 Full point group                 C1      NOp   1
 Largest Abelian subgroup         C1      NOp   1
 Largest concise Abelian subgroup C1      NOp   1
                         Standard orientation:                         
 ---------------------------------------------------------------------
 Center     Atomic      Atomic             Coordinates (Angstroms)
 Number     Number       Type             X           Y           Z
 ---------------------------------------------------------------------
      1          5           0       -0.983814   -0.667167   -0.048551
      2          9           0       -1.623682   -0.156715   -1.164511
      3          9           0       -1.658051   -0.393740    1.133716
      4          9           0       -0.664233   -2.007005   -0.194014
      5          8           0        0.413037    0.111330    0.040001
      6          6           0        1.605053   -0.609901    0.502652
      7          6           0        2.737409   -0.393275   -0.474256
      8          6           0        0.373885    1.490690    0.546028
      9          6           0       -0.470291    2.387847   -0.326194
     10          1           0        1.833149   -0.241255    1.509002
     11          1           0        1.318265   -1.659267    0.567604
     12          1           0        3.630809   -0.905017   -0.095451
     13          1           0        2.483656   -0.810107   -1.456001
     14          1           0        2.974525    0.671844   -0.592196
     15          1           0        0.005979    1.441147    1.577442
     16          1           0        1.415894    1.824313    0.549287
     17          1           0       -0.347145    3.412415    0.046866
     18          1           0       -0.131741    2.350384   -1.367872
     19          1           0       -1.531259    2.125711   -0.282033
 ---------------------------------------------------------------------
 Rotational constants (GHZ):           1.7565877           1.4109903           1.0046546
 Standard basis: Aug-CC-pVDZ (5D, 7F)
 There are   315 symmetry adapted cartesian basis functions of A   symmetry.
 There are   297 symmetry adapted basis functions of A   symmetry.
   297 basis functions,   497 primitive gaussians,   315 cartesian basis functions
    37 alpha electrons       37 beta electrons
       nuclear repulsion energy       523.8482181800 Hartrees.
 NAtoms=   19 NActive=   19 NUniq=   19 SFac= 1.00D+00 NAtFMM=   60 NAOKFM=F Big=F
 Integral buffers will be    131072 words long.
 Raffenetti 2 integral format.
 Two-electron integral symmetry is turned on.
 Nuclear repulsion after empirical dispersion term =      523.8361731047 Hartrees.
 Force PCM accuracy= 1.00D-12.
 ------------------------------------------------------------------------------
 Polarizable Continuum Model (PCM)
 =================================
 Model                : C-PCM.
 Atomic radii         : UFF (Universal Force Field).
 Polarization charges : Total charges.
 Charge compensation  : None.
 Solution method      : On-the-fly selection.
 Cavity type          : Scaled VdW (van der Waals Surface) (Alpha=1.100).
 Cavity algorithm     : GePol (No added spheres)
                        Default sphere list used, NSphG=   19.
                        Lebedev-Laikov grids with approx.  5.0 points / Ang**2.
                        Smoothing algorithm: York/Karplus (Gamma=1.0000).
                        Polarization charges: spherical gaussians, with
                                              point-specific exponents (IZeta= 3).
                        Self-potential: point-specific (ISelfS= 7).
                        Self-field    : sphere-specific E.n sum rule (ISelfD= 2).
 1st derivatives      : Analytical E(r).r(x)/FMM algorithm (CHGder, D1EAlg=3).
                        Cavity 1st derivative terms included.
 Solvent              : TetraHydroFuran, Eps=   7.425700 Eps(inf)=   1.974025
 ------------------------------------------------------------------------------
 Spheres list:
 ISph  on   Nord     Re0    Alpha      Xe            Ye            Ze
    1   B      1    2.0415  1.100     -0.983814     -0.667167     -0.048551
    2   F      2    1.6820  1.100     -1.623682     -0.156715     -1.164511
    3   F      3    1.6820  1.100     -1.658051     -0.393740      1.133716
    4   F      4    1.6820  1.100     -0.664233     -2.007005     -0.194014
    5   O      5    1.7500  1.100      0.413037      0.111330      0.040001
    6   C      6    1.9255  1.100      1.605053     -0.609901      0.502652
    7   C      7    1.9255  1.100      2.737409     -0.393275     -0.474256
    8   C      8    1.9255  1.100      0.373885      1.490690      0.546028
    9   C      9    1.9255  1.100     -0.470291      2.387847     -0.326194
   10   H     10    1.4430  1.100      1.833149     -0.241255      1.509002
   11   H     11    1.4430  1.100      1.318265     -1.659267      0.567604
   12   H     12    1.4430  1.100      3.630809     -0.905017     -0.095451
   13   H     13    1.4430  1.100      2.483656     -0.810107     -1.456001
   14   H     14    1.4430  1.100      2.974525      0.671844     -0.592196
   15   H     15    1.4430  1.100      0.005979      1.441147      1.577442
   16   H     16    1.4430  1.100      1.415894      1.824313      0.549287
   17   H     17    1.4430  1.100     -0.347145      3.412415      0.046866
   18   H     18    1.4430  1.100     -0.131741      2.350384     -1.367872
   19   H     19    1.4430  1.100     -1.531259      2.125711     -0.282033
 ------------------------------------------------------------------------------
 One-electron integrals computed using PRISM.
 NBasis=   297 RedAO= T EigKep=  2.73D-05  NBF=   297
 NBsUse=   297 1.00D-06 EigRej= -1.00D+00 NBFU=   297
 Initial guess from the checkpoint file:  "/inspire/hdd/project/materialscienceresearch/lipenghui-253107030018/g16/00-B-DFT-Shift/04-output/BF3OEt2_THF/BF3OEt2_THF.chk"
 B after Tr=    -0.000000   -0.000000   -0.000000
         Rot=    0.999972    0.001814    0.003821   -0.006207 Ang=   0.86 deg.
 ExpMin= 2.38D-02 ExpMax= 1.47D+04 ExpMxC= 5.03D+02 IAcc=3 IRadAn=         5 AccDes= 0.00D+00
 Harris functional with IExCor= 4639 and IRadAn=       5 diagonalized for initial guess.
 HarFok:  IExCor= 4639 AccDes= 0.00D+00 IRadAn=         5 IDoV= 1 UseB2=F ITyADJ=14
 ICtDFT=  3500011 ScaDFX=  1.000000  1.000000  1.000000  1.000000
 FoFCou: FMM=F IPFlag=           0 FMFlag=      100000 FMFlg1=           0
         NFxFlg=           0 DoJE=T BraDBF=F KetDBF=T FulRan=T
         wScrn=  0.000000 ICntrl=       500 IOpCl=  0 I1Cent=   200000004 NGrid=           0
         NMat0=    1 NMatS0=      1 NMatT0=    0 NMatD0=    1 NMtDS0=    0 NMtDT0=    0
 Petite list used in FoFCou.
 Requested convergence on RMS density matrix=1.00D-08 within 128 cycles.
 Requested convergence on MAX density matrix=1.00D-06.
 Requested convergence on             energy=1.00D-06.
 No special actions if energy rises.
 Inv3:  Mode=1 IEnd=     6958587.
 Iteration    1 A*A^-1 deviation from unit magnitude is 3.11D-15 for   1505.
 Iteration    1 A*A^-1 deviation from orthogonality  is 4.06D-15 for   1518    802.
 Iteration    1 A^-1*A deviation from unit magnitude is 3.11D-15 for   1485.
 Iteration    1 A^-1*A deviation from orthogonality  is 2.62D-15 for   1501   1145.
 Error on total polarization charges =  0.00990
 SCF Done:  E(RwB97XD) =  -558.150283525     A.U. after   11 cycles
            NFock= 11  Conv=0.27D-08     -V/T= 2.0060
 D1PCM: C-PCM CHGder 1st derivatives, ID1Alg=3 FixD1E=F DoIter=F DoCFld=F I1PDM=0.
 Calling FoFJK, ICntrl=      2127 FMM=F ISym2X=0 I1Cent= 0 IOpClX= 0 NMat=1 NMatS=1 NMatT=0.
 ***** Axes restored to original set *****
 -------------------------------------------------------------------
 Center     Atomic                   Forces (Hartrees/Bohr)
 Number     Number              X              Y              Z
 -------------------------------------------------------------------
      1        5           0.000260309   -0.000318163   -0.000487080
      2        9          -0.000316660   -0.000159852   -0.000078873
      3        9          -0.000136559   -0.000061896    0.000102536
      4        9           0.000183613    0.000146063    0.000058082
      5        8          -0.000410499    0.000694808    0.000993081
      6        6           0.000035490   -0.000561951   -0.000356453
      7        6          -0.000167795    0.000408815   -0.000187547
      8        6           0.000203735   -0.000141768    0.000078560
      9        6          -0.000100452   -0.000241296    0.000014166
     10        1           0.000127382    0.000048424    0.000057783
     11        1           0.000026862    0.000111108   -0.000228119
     12        1           0.000171484   -0.000110291   -0.000005940
     13        1          -0.000115157   -0.000009729    0.000092845
     14        1          -0.000026173   -0.000703943    0.000161653
     15        1           0.000041464    0.000059712   -0.000087678
     16        1          -0.000217919    0.000459078   -0.000291962
     17        1           0.000053555    0.000233691   -0.000061195
     18        1           0.000135679    0.000013254    0.000039596
     19        1           0.000251640    0.000133938    0.000186544
 -------------------------------------------------------------------
 Cartesian Forces:  Max     0.000993081 RMS     0.000274817

 GradGradGradGradGradGradGradGradGradGradGradGradGradGradGradGradGradGrad
 Berny optimization.
 Using GEDIIS/GDIIS optimizer.
 FormGI is forming the generalized inverse of G from B-inverse, IUseBI=4.
 Internal  Forces:  Max     0.001199071 RMS     0.000309555
 Search for a local minimum.
 Step number  13 out of a maximum of   97
 All quantities printed in internal units (Hartrees-Bohrs-Radians)
 Mixed Optimization -- En-DIIS/RFO-DIIS
 Swapping is turned off.
 Update second derivatives using D2CorX and points   10   11   12   13
 DE= -1.54D-04 DEPred=-1.55D-04 R= 9.92D-01
 TightC=F SS=  1.41D+00  RLast= 2.55D-01 DXNew= 1.4949D+00 7.6413D-01
 Trust test= 9.92D-01 RLast= 2.55D-01 DXMaxT set to 8.89D-01
 ITU=  1  1  1 -1  1  1  1  1  1  1  1  1  0
     Eigenvalues ---    0.00168   0.00282   0.00366   0.01101   0.01471
     Eigenvalues ---    0.01973   0.04522   0.04833   0.05147   0.05316
     Eigenvalues ---    0.05420   0.05621   0.05741   0.05886   0.07585
     Eigenvalues ---    0.09641   0.10478   0.12661   0.12896   0.12923
     Eigenvalues ---    0.13400   0.15999   0.16002   0.16036   0.16056
     Eigenvalues ---    0.16490   0.16990   0.21371   0.22151   0.25049
     Eigenvalues ---    0.25236   0.25618   0.28157   0.28361   0.28527
     Eigenvalues ---    0.28765   0.30723   0.31892   0.31960   0.32060
     Eigenvalues ---    0.32112   0.32146   0.32188   0.32208   0.32252
     Eigenvalues ---    0.32767   0.34889   0.37998   0.39321   0.41608
     Eigenvalues ---    0.51694
 En-DIIS/RFO-DIIS/Sim-DIIS IScMMF=       -3 using points:    13   12   11
 RFO step:  Lambda=-7.89926298D-05.
 DidBck=T Rises=F RFO-DIIS coefs:    0.35883    1.22665   -0.58548
 Iteration  1 RMS(Cart)=  0.00682921 RMS(Int)=  0.00008152
 Iteration  2 RMS(Cart)=  0.00003493 RMS(Int)=  0.00007557
 Iteration  3 RMS(Cart)=  0.00000000 RMS(Int)=  0.00007557
 Variable       Old X    -DE/DX   Delta X   Delta X   Delta X     New X
                                 (Linear)    (Quad)   (Total)
    R1        2.61531  -0.00010   0.00017   0.00113   0.00130   2.61661
    R2        2.62333   0.00010  -0.00042   0.00225   0.00183   2.62516
    R3        2.61743  -0.00024   0.00070   0.00049   0.00118   2.61861
    R4        3.02657  -0.00012  -0.00749  -0.00452  -0.01201   3.01456
    R5        2.77418   0.00073   0.00161   0.00188   0.00349   2.77767
    R6        2.77747   0.00044   0.00082   0.00301   0.00384   2.78130
    R7        2.85562   0.00005  -0.00139   0.00075  -0.00064   2.85498
    R8        2.07067   0.00008  -0.00007  -0.00028  -0.00036   2.07031
    R9        2.05940  -0.00003  -0.00099   0.00079  -0.00021   2.05919
   R10        2.07314   0.00012  -0.00047   0.00041  -0.00006   2.07308
   R11        2.07178  -0.00006   0.00002  -0.00020  -0.00018   2.07160
   R12        2.07407  -0.00027   0.00037  -0.00077  -0.00041   2.07366
   R13        2.85236   0.00013  -0.00183   0.00153  -0.00030   2.85206
   R14        2.07149  -0.00009  -0.00032  -0.00009  -0.00042   2.07108
   R15        2.06759  -0.00046   0.00088  -0.00180  -0.00092   2.06667
   R16        2.07361   0.00010  -0.00024   0.00025   0.00001   2.07361
   R17        2.07105   0.00000  -0.00030   0.00015  -0.00015   2.07090
   R18        2.06691  -0.00010  -0.00008  -0.00029  -0.00036   2.06655
    A1        1.97091  -0.00000  -0.00334   0.00150  -0.00189   1.96902
    A2        1.95927  -0.00026  -0.00068  -0.00097  -0.00170   1.95757
    A3        1.84268   0.00055   0.00074   0.00265   0.00335   1.84602
    A4        1.97364  -0.00009  -0.00066  -0.00095  -0.00165   1.97199
    A5        1.85540   0.00011   0.00093   0.00137   0.00225   1.85765
    A6        1.84915  -0.00026   0.00406  -0.00353   0.00048   1.84963
    A7        2.07922  -0.00113   0.00677  -0.00738  -0.00080   2.07843
    A8        2.03978   0.00063  -0.00091   0.00447   0.00324   2.04302
    A9        1.95433   0.00058  -0.00377   0.00638   0.00223   1.95655
   A10        1.91165   0.00120  -0.00409   0.00457   0.00047   1.91212
   A11        1.86835  -0.00029  -0.00361   0.00249  -0.00117   1.86718
   A12        1.85268  -0.00057   0.00397  -0.00721  -0.00314   1.84954
   A13        1.97090  -0.00024  -0.00181   0.00321   0.00123   1.97214
   A14        1.95386  -0.00039   0.00555  -0.00461   0.00092   1.95478
   A15        1.90075   0.00027   0.00016   0.00122   0.00130   1.90205
   A16        1.89668   0.00005   0.00052  -0.00123  -0.00071   1.89596
   A17        1.92939  -0.00019   0.00135  -0.00130   0.00002   1.92941
   A18        1.95032   0.00047  -0.00574   0.00638   0.00062   1.95094
   A19        1.89688   0.00001   0.00070  -0.00094  -0.00025   1.89663
   A20        1.89004  -0.00042   0.00453  -0.00531  -0.00076   1.88929
   A21        1.89943   0.00007  -0.00103   0.00212   0.00103   1.90046
   A22        1.95386   0.00064  -0.00246   0.00311   0.00067   1.95453
   A23        1.86551  -0.00013  -0.00249   0.00108  -0.00140   1.86411
   A24        1.83571  -0.00016  -0.00287   0.00082  -0.00203   1.83368
   A25        1.96370  -0.00018   0.00128  -0.00019   0.00103   1.96472
   A26        1.93170  -0.00037   0.00520  -0.00518  -0.00003   1.93167
   A27        1.90775   0.00021   0.00105   0.00063   0.00157   1.90932
   A28        1.87104   0.00024  -0.00261   0.00195  -0.00066   1.87038
   A29        1.93495  -0.00000  -0.00024   0.00027   0.00002   1.93497
   A30        1.95706   0.00018  -0.00144   0.00216   0.00072   1.95778
   A31        1.89694  -0.00016   0.00174  -0.00214  -0.00040   1.89654
   A32        1.89538  -0.00029   0.00299  -0.00326  -0.00027   1.89511
   A33        1.90692   0.00001  -0.00026   0.00079   0.00053   1.90745
    D1       -2.51183   0.00037  -0.00868   0.00939   0.00081  -2.51102
    D2        1.33323   0.00002  -0.00857   0.00176  -0.00691   1.32632
    D3        1.67363   0.00004  -0.00557   0.00567   0.00019   1.67382
    D4       -0.76450  -0.00031  -0.00546  -0.00197  -0.00753  -0.77203
    D5       -0.43051   0.00022  -0.00725   0.00787   0.00072  -0.42980
    D6       -2.86864  -0.00013  -0.00714   0.00023  -0.00700  -2.87564
    D7        2.26193  -0.00037   0.01406  -0.01849  -0.00451   2.25742
    D8       -1.87876  -0.00012   0.00688  -0.01035  -0.00345  -1.88222
    D9        0.14944  -0.00022   0.00727  -0.01125  -0.00403   0.14541
   D10       -1.55124   0.00003   0.01490  -0.01158   0.00331  -1.54793
   D11        0.59125   0.00027   0.00772  -0.00344   0.00437   0.59561
   D12        2.61945   0.00017   0.00811  -0.00434   0.00379   2.62324
   D13       -1.06654  -0.00022   0.00140  -0.00362  -0.00230  -1.06884
   D14        1.09107  -0.00013  -0.00033  -0.00116  -0.00156   1.08951
   D15        3.11786  -0.00002  -0.00172   0.00043  -0.00136   3.11650
   D16        2.73024   0.00013  -0.00295  -0.00540  -0.00828   2.72196
   D17       -1.39533   0.00022  -0.00468  -0.00293  -0.00754  -1.40287
   D18        0.63146   0.00033  -0.00607  -0.00134  -0.00734   0.62412
   D19        3.10334   0.00020  -0.01731   0.02927   0.01197   3.11531
   D20       -1.09953   0.00013  -0.01537   0.02658   0.01123  -1.08830
   D21        1.01878   0.00041  -0.01979   0.03274   0.01298   1.03177
   D22        1.02303  -0.00010  -0.00865   0.02096   0.01232   1.03535
   D23        3.10334  -0.00017  -0.00671   0.01827   0.01158   3.11493
   D24       -1.06153   0.00011  -0.01113   0.02442   0.01334  -1.04819
   D25       -1.12976   0.00002  -0.01145   0.02045   0.00894  -1.12082
   D26        0.95055  -0.00005  -0.00950   0.01776   0.00820   0.95875
   D27        3.06887   0.00023  -0.01393   0.02392   0.00996   3.07882
   D28       -3.02289   0.00007  -0.00046   0.00344   0.00298  -3.01991
   D29       -0.95493   0.00002  -0.00008   0.00219   0.00211  -0.95282
   D30        1.18163   0.00017  -0.00163   0.00494   0.00332   1.18495
   D31        1.15895  -0.00009   0.00360  -0.00004   0.00359   1.16254
   D32       -3.05627  -0.00014   0.00398  -0.00130   0.00272  -3.05356
   D33       -0.91971   0.00001   0.00244   0.00145   0.00393  -0.91579
   D34       -0.98105   0.00004  -0.00219   0.00308   0.00085  -0.98020
   D35        1.08691  -0.00001  -0.00181   0.00182  -0.00002   1.08689
   D36       -3.05971   0.00013  -0.00336   0.00458   0.00118  -3.05853
         Item               Value     Threshold  Converged?
 Maximum Force            0.001199     0.000450     NO 
 RMS     Force            0.000310     0.000300     NO 
 Maximum Displacement     0.026412     0.001800     NO 
 RMS     Displacement     0.006829     0.001200     NO 
 Predicted change in Energy=-2.016406D-05
 GradGradGradGradGradGradGradGradGradGradGradGradGradGradGradGradGradGrad

                          Input orientation:                          
 ---------------------------------------------------------------------
 Center     Atomic      Atomic             Coordinates (Angstroms)
 Number     Number       Type             X           Y           Z
 ---------------------------------------------------------------------
      1          5           0       -1.784863    0.667155   -0.194357
      2          9           0       -1.582169    1.649948   -1.148448
      3          9           0       -2.131496    1.184988    1.047214
      4          9           0       -2.657443   -0.315657   -0.633539
      5          8           0       -0.373232   -0.051467   -0.005526
      6          6           0       -0.336194   -1.500046    0.241026
      7          6           0        0.629527   -2.152166   -0.720540
      8          6           0        0.645893    0.669245    0.774320
      9          6           0        1.014893    1.987959    0.139775
     10          1           0       -0.054435   -1.638878    1.290593
     11          1           0       -1.356586   -1.854696    0.098120
     12          1           0        0.665661   -3.227348   -0.505720
     13          1           0        0.295735   -2.012093   -1.755293
     14          1           0        1.643882   -1.746698   -0.616521
     15          1           0        0.244701    0.787524    1.787334
     16          1           0        1.509498   -0.001179    0.801689
     17          1           0        1.860253    2.395623    0.708335
     18          1           0        1.327865    1.846364   -0.900868
     19          1           0        0.192050    2.707404    0.174823
 ---------------------------------------------------------------------
                    Distance matrix (angstroms):
                    1          2          3          4          5
     1  B    0.000000
     2  F    1.384650   0.000000
     3  F    1.389174   2.310602   0.000000
     4  F    1.385710   2.298901   2.313759   0.000000
     5  O    1.595236   2.379625   2.393444   2.383655   0.000000
     6  C    2.642908   3.661360   3.329032   2.748789   1.469878
     7  C    3.748962   4.419363   4.678119   3.766232   2.435099
     8  C    2.616662   3.102109   2.838019   3.723456   1.471803
     9  C    3.113648   2.918647   3.371642   4.403488   2.471288
    10  H    3.243031   4.370271   3.513920   3.496976   2.073989
    11  H    2.574625   3.726573   3.277338   2.143874   2.056540
    12  H    4.611851   5.408683   5.450174   4.420102   3.378714
    13  H    3.734137   4.159967   4.895592   3.585734   2.711689
    14  H    4.214404   4.714611   5.061253   4.533163   2.704787
    15  H    2.839141   3.563712   2.520331   3.937012   2.073667
    16  H    3.505937   4.010943   3.837201   4.418390   2.049097
    17  H    4.133924   3.981701   4.185038   5.437025   3.389145
    18  H    3.402758   2.927144   4.024874   4.541858   2.701320
    19  H    2.864802   2.452980   2.911646   4.232251   2.821956
                    6          7          8          9         10
     6  C    0.000000
     7  C    1.510789   0.000000
     8  C    2.440230   3.192998   0.000000
     9  C    3.741907   4.246091   1.509243   0.000000
    10  H    1.095560   2.185388   2.466664   3.952442   0.000000
    11  H    1.089678   2.168717   3.292028   4.515711   1.778810
    12  H    2.131880   1.097028   4.101503   5.266693   2.503700
    13  H    2.155648   1.096244   3.702854   4.484294   3.088581
    14  H    2.171848   1.097333   2.960947   3.862031   2.555972
    15  H    2.821610   3.883207   1.095966   2.179149   2.494727
    16  H    2.442851   2.778178   1.093632   2.153935   2.316673
    17  H    4.496553   4.923287   2.111730   1.097307   4.503582
    18  H    3.907873   4.063057   2.157996   1.095873   4.342829
    19  H    4.240997   4.960693   2.172432   1.093571   4.493981
                   11         12         13         14         15
    11  H    0.000000
    12  H    2.517593   0.000000
    13  H    2.487987   1.781887   0.000000
    14  H    3.086289   1.778065   1.784583   0.000000
    15  H    3.521206   4.642682   4.515603   3.762780   0.000000
    16  H    3.484963   3.581835   3.472053   2.253046   1.786970
    17  H    5.365223   5.875268   5.286316   4.354410   2.521950
    18  H    4.679967   5.131979   4.084486   3.618123   3.085582
    19  H    4.818392   5.992388   5.099975   4.751112   2.507768
                   16         17         18         19
    16  H    0.000000
    17  H    2.424130   0.000000
    18  H    2.518949   1.781756   0.000000
    19  H    3.076533   1.778973   1.785658   0.000000
 Stoichiometry    C4H10BF3O
 Framework group  C1[X(C4H10BF3O)]
 Deg. of freedom    51
 Full point group                 C1      NOp   1
 Largest Abelian subgroup         C1      NOp   1
 Largest concise Abelian subgroup C1      NOp   1
                         Standard orientation:                         
 ---------------------------------------------------------------------
 Center     Atomic      Atomic             Coordinates (Angstroms)
 Number     Number       Type             X           Y           Z
 ---------------------------------------------------------------------
      1          5           0       -0.979770   -0.667064   -0.048925
      2          9           0       -1.624374   -0.155135   -1.162330
      3          9           0       -1.657897   -0.403937    1.134593
      4          9           0       -0.656905   -2.005979   -0.201431
      5          8           0        0.409336    0.111724    0.044080
      6          6           0        1.604184   -0.610757    0.503316
      7          6           0        2.734742   -0.391471   -0.474558
      8          6           0        0.369596    1.493625    0.549030
      9          6           0       -0.468668    2.391672   -0.327692
     10          1           0        1.832236   -0.244480    1.510335
     11          1           0        1.315218   -1.659627    0.564705
     12          1           0        3.625126   -0.914200   -0.103831
     13          1           0        2.475157   -0.795970   -1.459823
     14          1           0        2.980431    0.672700   -0.580937
     15          1           0       -0.002805    1.444196    1.578601
     16          1           0        1.412122    1.823976    0.555365
     17          1           0       -0.342594    3.416404    0.043944
     18          1           0       -0.126571    2.351347   -1.368020
     19          1           0       -1.530700    2.134215   -0.286423
 ---------------------------------------------------------------------
 Rotational constants (GHZ):           1.7534186           1.4130759           1.0049873
 Standard basis: Aug-CC-pVDZ (5D, 7F)
 There are   315 symmetry adapted cartesian basis functions of A   symmetry.
 There are   297 symmetry adapted basis functions of A   symmetry.
   297 basis functions,   497 primitive gaussians,   315 cartesian basis functions
    37 alpha electrons       37 beta electrons
       nuclear repulsion energy       523.8476039972 Hartrees.
 NAtoms=   19 NActive=   19 NUniq=   19 SFac= 1.00D+00 NAtFMM=   60 NAOKFM=F Big=F
 Integral buffers will be    131072 words long.
 Raffenetti 2 integral format.
 Two-electron integral symmetry is turned on.
 Nuclear repulsion after empirical dispersion term =      523.8355606207 Hartrees.
 Force PCM accuracy= 1.00D-12.
 ------------------------------------------------------------------------------
 Polarizable Continuum Model (PCM)
 =================================
 Model                : C-PCM.
 Atomic radii         : UFF (Universal Force Field).
 Polarization charges : Total charges.
 Charge compensation  : None.
 Solution method      : On-the-fly selection.
 Cavity type          : Scaled VdW (van der Waals Surface) (Alpha=1.100).
 Cavity algorithm     : GePol (No added spheres)
                        Default sphere list used, NSphG=   19.
                        Lebedev-Laikov grids with approx.  5.0 points / Ang**2.
                        Smoothing algorithm: York/Karplus (Gamma=1.0000).
                        Polarization charges: spherical gaussians, with
                                              point-specific exponents (IZeta= 3).
                        Self-potential: point-specific (ISelfS= 7).
                        Self-field    : sphere-specific E.n sum rule (ISelfD= 2).
 1st derivatives      : Analytical E(r).r(x)/FMM algorithm (CHGder, D1EAlg=3).
                        Cavity 1st derivative terms included.
 Solvent              : TetraHydroFuran, Eps=   7.425700 Eps(inf)=   1.974025
 ------------------------------------------------------------------------------
 Spheres list:
 ISph  on   Nord     Re0    Alpha      Xe            Ye            Ze
    1   B      1    2.0415  1.100     -0.979770     -0.667064     -0.048925
    2   F      2    1.6820  1.100     -1.624374     -0.155135     -1.162330
    3   F      3    1.6820  1.100     -1.657897     -0.403937      1.134593
    4   F      4    1.6820  1.100     -0.656905     -2.005979     -0.201431
    5   O      5    1.7500  1.100      0.409336      0.111724      0.044080
    6   C      6    1.9255  1.100      1.604184     -0.610757      0.503316
    7   C      7    1.9255  1.100      2.734742     -0.391471     -0.474558
    8   C      8    1.9255  1.100      0.369596      1.493625      0.549030
    9   C      9    1.9255  1.100     -0.468668      2.391672     -0.327692
   10   H     10    1.4430  1.100      1.832236     -0.244480      1.510335
   11   H     11    1.4430  1.100      1.315218     -1.659627      0.564705
   12   H     12    1.4430  1.100      3.625126     -0.914200     -0.103831
   13   H     13    1.4430  1.100      2.475157     -0.795970     -1.459823
   14   H     14    1.4430  1.100      2.980431      0.672700     -0.580937
   15   H     15    1.4430  1.100     -0.002805      1.444196      1.578601
   16   H     16    1.4430  1.100      1.412122      1.823976      0.555365
   17   H     17    1.4430  1.100     -0.342594      3.416404      0.043944
   18   H     18    1.4430  1.100     -0.126571      2.351347     -1.368020
   19   H     19    1.4430  1.100     -1.530700      2.134215     -0.286423
 ------------------------------------------------------------------------------
 One-electron integrals computed using PRISM.
 NBasis=   297 RedAO= T EigKep=  2.74D-05  NBF=   297
 NBsUse=   297 1.00D-06 EigRej= -1.00D+00 NBFU=   297
 Initial guess from the checkpoint file:  "/inspire/hdd/project/materialscienceresearch/lipenghui-253107030018/g16/00-B-DFT-Shift/04-output/BF3OEt2_THF/BF3OEt2_THF.chk"
 B after Tr=     0.000000   -0.000000    0.000000
         Rot=    0.999999   -0.000938    0.000178   -0.000440 Ang=  -0.12 deg.
 ExpMin= 2.38D-02 ExpMax= 1.47D+04 ExpMxC= 5.03D+02 IAcc=3 IRadAn=         5 AccDes= 0.00D+00
 Harris functional with IExCor= 4639 and IRadAn=       5 diagonalized for initial guess.
 HarFok:  IExCor= 4639 AccDes= 0.00D+00 IRadAn=         5 IDoV= 1 UseB2=F ITyADJ=14
 ICtDFT=  3500011 ScaDFX=  1.000000  1.000000  1.000000  1.000000
 FoFCou: FMM=F IPFlag=           0 FMFlag=      100000 FMFlg1=           0
         NFxFlg=           0 DoJE=T BraDBF=F KetDBF=T FulRan=T
         wScrn=  0.000000 ICntrl=       500 IOpCl=  0 I1Cent=   200000004 NGrid=           0
         NMat0=    1 NMatS0=      1 NMatT0=    0 NMatD0=    1 NMtDS0=    0 NMtDT0=    0
 Petite list used in FoFCou.
 Requested convergence on RMS density matrix=1.00D-08 within 128 cycles.
 Requested convergence on MAX density matrix=1.00D-06.
 Requested convergence on             energy=1.00D-06.
 No special actions if energy rises.
 Inv3:  Mode=1 IEnd=     7013523.
 Iteration    1 A*A^-1 deviation from unit magnitude is 4.88D-15 for   1520.
 Iteration    1 A*A^-1 deviation from orthogonality  is 5.38D-15 for   1526    801.
 Iteration    1 A^-1*A deviation from unit magnitude is 4.66D-15 for   1520.
 Iteration    1 A^-1*A deviation from orthogonality  is 3.22D-15 for   1507   1147.
 Error on total polarization charges =  0.00989
 SCF Done:  E(RwB97XD) =  -558.150299356     A.U. after    9 cycles
            NFock=  9  Conv=0.54D-08     -V/T= 2.0060
 D1PCM: C-PCM CHGder 1st derivatives, ID1Alg=3 FixD1E=F DoIter=F DoCFld=F I1PDM=0.
 Calling FoFJK, ICntrl=      2127 FMM=F ISym2X=0 I1Cent= 0 IOpClX= 0 NMat=1 NMatS=1 NMatT=0.
 ***** Axes restored to original set *****
 -------------------------------------------------------------------
 Center     Atomic                   Forces (Hartrees/Bohr)
 Number     Number              X              Y              Z
 -------------------------------------------------------------------
      1        5          -0.000553885    0.000181435   -0.000423914
      2        9          -0.000185382   -0.000185656   -0.000001774
      3        9          -0.000006869   -0.000094893    0.000000413
      4        9          -0.000019108    0.000230405   -0.000017527
      5        8           0.000918298    0.000194991    0.001156122
      6        6          -0.000083164    0.000279255   -0.000373435
      7        6          -0.000176898    0.000366623   -0.000100240
      8        6          -0.000566673   -0.000607180   -0.000340661
      9        6          -0.000079835   -0.000302410    0.000006857
     10        1           0.000168303   -0.000010118    0.000126169
     11        1           0.000139088   -0.000120448   -0.000158329
     12        1           0.000158211   -0.000147595    0.000027127
     13        1          -0.000132709   -0.000007570    0.000047623
     14        1           0.000064154   -0.000567402    0.000093330
     15        1           0.000068496    0.000071980    0.000009658
     16        1           0.000001014    0.000300985   -0.000166529
     17        1           0.000066560    0.000238960   -0.000036068
     18        1           0.000120807    0.000011915   -0.000008339
     19        1           0.000099591    0.000166725    0.000159516
 -------------------------------------------------------------------
 Cartesian Forces:  Max     0.001156122 RMS     0.000294613

 GradGradGradGradGradGradGradGradGradGradGradGradGradGradGradGradGradGrad
 Berny optimization.
 Using GEDIIS/GDIIS optimizer.
 FormGI is forming the generalized inverse of G from B-inverse, IUseBI=4.
 Internal  Forces:  Max     0.000910494 RMS     0.000213282
 Search for a local minimum.
 Step number  14 out of a maximum of   97
 All quantities printed in internal units (Hartrees-Bohrs-Radians)
 Mixed Optimization -- En-DIIS/RFO-DIIS
 Swapping is turned off.
 Update second derivatives using D2CorX and points   10   11   12   13   14
 DE= -1.58D-05 DEPred=-2.02D-05 R= 7.85D-01
 TightC=F SS=  1.41D+00  RLast= 4.36D-02 DXNew= 1.4949D+00 1.3068D-01
 Trust test= 7.85D-01 RLast= 4.36D-02 DXMaxT set to 8.89D-01
 ITU=  1  1  1  1 -1  1  1  1  1  1  1  1  1  0
     Eigenvalues ---    0.00174   0.00283   0.00315   0.01239   0.01468
     Eigenvalues ---    0.02061   0.04510   0.05064   0.05144   0.05314
     Eigenvalues ---    0.05418   0.05559   0.05749   0.05894   0.08901
     Eigenvalues ---    0.09650   0.10628   0.12701   0.12894   0.12915
     Eigenvalues ---    0.13408   0.15994   0.16002   0.16016   0.16052
     Eigenvalues ---    0.16465   0.16670   0.21328   0.22141   0.24808
     Eigenvalues ---    0.25201   0.25768   0.28327   0.28379   0.28700
     Eigenvalues ---    0.28804   0.30896   0.31869   0.31954   0.32061
     Eigenvalues ---    0.32112   0.32152   0.32179   0.32208   0.32393
     Eigenvalues ---    0.32856   0.34192   0.38171   0.39255   0.41614
     Eigenvalues ---    0.52461
 En-DIIS/RFO-DIIS/Sim-DIIS IScMMF=       -3 using points:    14   13   12   11
 RFO step:  Lambda=-3.90610248D-05.
 DidBck=F Rises=F RFO-DIIS coefs:    2.04982   -0.93813   -0.52779    0.41610
 Iteration  1 RMS(Cart)=  0.02203703 RMS(Int)=  0.00032837
 Iteration  2 RMS(Cart)=  0.00034694 RMS(Int)=  0.00006796
 Iteration  3 RMS(Cart)=  0.00000009 RMS(Int)=  0.00006796
 Variable       Old X    -DE/DX   Delta X   Delta X   Delta X     New X
                                 (Linear)    (Quad)   (Total)
    R1        2.61661  -0.00016  -0.00017  -0.00130  -0.00147   2.61514
    R2        2.62516  -0.00004   0.00066  -0.00162  -0.00096   2.62420
    R3        2.61861  -0.00014  -0.00031  -0.00088  -0.00119   2.61743
    R4        3.01456   0.00079   0.00480   0.00825   0.01305   3.02760
    R5        2.77767   0.00016   0.00040  -0.00108  -0.00068   2.77699
    R6        2.78130  -0.00046   0.00019  -0.00315  -0.00296   2.77834
    R7        2.85498   0.00005   0.00077  -0.00061   0.00016   2.85514
    R8        2.07031   0.00017   0.00026   0.00053   0.00079   2.07110
    R9        2.05919  -0.00007   0.00039  -0.00069  -0.00029   2.05890
   R10        2.07308   0.00016   0.00047   0.00018   0.00065   2.07373
   R11        2.07160  -0.00001  -0.00000   0.00004   0.00004   2.07164
   R12        2.07366  -0.00014  -0.00067   0.00014  -0.00053   2.07313
   R13        2.85206   0.00010   0.00126  -0.00060   0.00066   2.85271
   R14        2.07108  -0.00001   0.00014  -0.00003   0.00011   2.07119
   R15        2.06667  -0.00019  -0.00114   0.00071  -0.00043   2.06623
   R16        2.07361   0.00012   0.00029   0.00013   0.00042   2.07403
   R17        2.07090   0.00004   0.00016  -0.00001   0.00014   2.07104
   R18        2.06655   0.00004  -0.00004   0.00029   0.00025   2.06680
    A1        1.96902   0.00004   0.00255   0.00018   0.00277   1.97179
    A2        1.95757  -0.00028  -0.00046   0.00009  -0.00032   1.95725
    A3        1.84602   0.00023   0.00040  -0.00150  -0.00105   1.84497
    A4        1.97199  -0.00011  -0.00032   0.00075   0.00046   1.97245
    A5        1.85765  -0.00009  -0.00054  -0.00195  -0.00246   1.85519
    A6        1.84963   0.00027  -0.00217   0.00228   0.00014   1.84977
    A7        2.07843  -0.00042  -0.00825   0.00425  -0.00381   2.07462
    A8        2.04302   0.00026   0.00163   0.00015   0.00209   2.04511
    A9        1.95655   0.00020   0.00311  -0.00236   0.00112   1.95767
   A10        1.91212   0.00091   0.00583  -0.00006   0.00577   1.91789
   A11        1.86718  -0.00024   0.00220  -0.00169   0.00052   1.86770
   A12        1.84954  -0.00024  -0.00500   0.00354  -0.00152   1.84802
   A13        1.97214  -0.00020   0.00098  -0.00200  -0.00090   1.97124
   A14        1.95478  -0.00044  -0.00528   0.00029  -0.00497   1.94982
   A15        1.90205   0.00022   0.00104   0.00019   0.00130   1.90335
   A16        1.89596   0.00002  -0.00206  -0.00033  -0.00240   1.89357
   A17        1.92941  -0.00020  -0.00085   0.00014  -0.00070   1.92872
   A18        1.95094   0.00046   0.00617  -0.00077   0.00540   1.95634
   A19        1.89663   0.00002  -0.00120   0.00017  -0.00102   1.89561
   A20        1.88929  -0.00037  -0.00480   0.00002  -0.00479   1.88450
   A21        1.90046   0.00005   0.00239   0.00078   0.00320   1.90366
   A22        1.95453   0.00028   0.00281  -0.00110   0.00170   1.95623
   A23        1.86411  -0.00000   0.00169   0.00003   0.00171   1.86582
   A24        1.83368  -0.00000   0.00096  -0.00097  -0.00002   1.83366
   A25        1.96472  -0.00014  -0.00108  -0.00026  -0.00129   1.96343
   A26        1.93167  -0.00024  -0.00453   0.00161  -0.00288   1.92879
   A27        1.90932   0.00012   0.00032   0.00061   0.00103   1.91035
   A28        1.87038   0.00025   0.00121  -0.00027   0.00094   1.87132
   A29        1.93497   0.00001   0.00065   0.00024   0.00090   1.93587
   A30        1.95778   0.00010   0.00178  -0.00052   0.00126   1.95904
   A31        1.89654  -0.00014  -0.00181   0.00020  -0.00160   1.89494
   A32        1.89511  -0.00024  -0.00286  -0.00009  -0.00295   1.89216
   A33        1.90745   0.00002   0.00079   0.00043   0.00122   1.90867
    D1       -2.51102   0.00015  -0.00004  -0.00040  -0.00053  -2.51155
    D2        1.32632  -0.00000   0.00226  -0.00248  -0.00013   1.32619
    D3        1.67382   0.00003  -0.00301   0.00112  -0.00197   1.67185
    D4       -0.77203  -0.00012  -0.00071  -0.00095  -0.00158  -0.77360
    D5       -0.42980   0.00007  -0.00133   0.00008  -0.00134  -0.43114
    D6       -2.87564  -0.00008   0.00097  -0.00200  -0.00094  -2.87659
    D7        2.25742  -0.00024   0.01595  -0.00153   0.01449   2.27191
    D8       -1.88222  -0.00010   0.02221  -0.00504   0.01716  -1.86506
    D9        0.14541  -0.00007   0.02204  -0.00392   0.01816   0.16357
   D10       -1.54793  -0.00006   0.01338   0.00122   0.01460  -1.53334
   D11        0.59561   0.00009   0.01963  -0.00229   0.01727   0.61288
   D12        2.62324   0.00011   0.01946  -0.00117   0.01827   2.64151
   D13       -1.06884  -0.00004   0.00990   0.00643   0.01639  -1.05245
   D14        1.08951  -0.00003   0.01153   0.00544   0.01703   1.10655
   D15        3.11650   0.00011   0.01321   0.00569   0.01896   3.13546
   D16        2.72196   0.00007   0.01674   0.00202   0.01870   2.74067
   D17       -1.40287   0.00007   0.01837   0.00103   0.01935  -1.38352
   D18        0.62412   0.00021   0.02005   0.00129   0.02128   0.64540
   D19        3.11531   0.00009   0.03517  -0.00194   0.03322  -3.13466
   D20       -1.08830   0.00001   0.03194  -0.00184   0.03009  -1.05821
   D21        1.03177   0.00025   0.03871  -0.00127   0.03741   1.06918
   D22        1.03535  -0.00010   0.02768   0.00153   0.02918   1.06453
   D23        3.11493  -0.00017   0.02446   0.00162   0.02605   3.14098
   D24       -1.04819   0.00006   0.03122   0.00219   0.03337  -1.01482
   D25       -1.12082   0.00010   0.02935   0.00259   0.03198  -1.08884
   D26        0.95875   0.00003   0.02612   0.00268   0.02885   0.98760
   D27        3.07882   0.00026   0.03289   0.00325   0.03617   3.11499
   D28       -3.01991   0.00002   0.00308   0.00237   0.00545  -3.01446
   D29       -0.95282   0.00000   0.00199   0.00259   0.00458  -0.94823
   D30        1.18495   0.00010   0.00477   0.00295   0.00772   1.19267
   D31        1.16254  -0.00008  -0.00035   0.00330   0.00292   1.16546
   D32       -3.05356  -0.00010  -0.00143   0.00352   0.00206  -3.05150
   D33       -0.91579  -0.00000   0.00134   0.00388   0.00520  -0.91059
   D34       -0.98020   0.00004   0.00310   0.00150   0.00463  -0.97558
   D35        1.08689   0.00002   0.00201   0.00172   0.00376   1.09065
   D36       -3.05853   0.00012   0.00479   0.00209   0.00690  -3.05163
         Item               Value     Threshold  Converged?
 Maximum Force            0.000910     0.000450     NO 
 RMS     Force            0.000213     0.000300     YES
 Maximum Displacement     0.083261     0.001800     NO 
 RMS     Displacement     0.022016     0.001200     NO 
 Predicted change in Energy=-1.548690D-05
 GradGradGradGradGradGradGradGradGradGradGradGradGradGradGradGradGradGrad

                          Input orientation:                          
 ---------------------------------------------------------------------
 Center     Atomic      Atomic             Coordinates (Angstroms)
 Number     Number       Type             X           Y           Z
 ---------------------------------------------------------------------
      1          5           0       -1.788692    0.670837   -0.194258
      2          9           0       -1.588787    1.651914   -1.149575
      3          9           0       -2.127863    1.186612    1.049661
      4          9           0       -2.662649   -0.311512   -0.629737
      5          8           0       -0.370159   -0.050758   -0.010101
      6          6           0       -0.337704   -1.498842    0.237857
      7          6           0        0.635294   -2.160841   -0.709652
      8          6           0        0.653235    0.667551    0.763390
      9          6           0        1.006543    1.996505    0.140560
     10          1           0       -0.069695   -1.637814    1.291434
     11          1           0       -1.356603   -1.851214    0.080569
     12          1           0        0.636147   -3.239881   -0.509919
     13          1           0        0.329702   -1.997816   -1.749763
     14          1           0        1.659180   -1.790758   -0.574657
     15          1           0        0.266590    0.772109    1.783610
     16          1           0        1.522381    0.004168    0.769531
     17          1           0        1.860325    2.400523    0.699483
     18          1           0        1.302971    1.871171   -0.907069
     19          1           0        0.183323    2.714025    0.201051
 ---------------------------------------------------------------------
                    Distance matrix (angstroms):
                    1          2          3          4          5
     1  B    0.000000
     2  F    1.383872   0.000000
     3  F    1.388667   2.311654   0.000000
     4  F    1.385083   2.297489   2.313169   0.000000
     5  O    1.602139   2.383810   2.396603   2.389028   0.000000
     6  C    2.645676   3.662983   3.327967   2.750972   1.469518
     7  C    3.762942   4.435895   4.683552   3.781908   2.439827
     8  C    2.622996   3.107260   2.843568   3.727527   1.470235
     9  C    3.111725   2.918720   3.362572   4.402644   2.471699
    10  H    3.239151   4.369036   3.503126   3.489038   2.074371
    11  H    2.573514   3.720090   3.280605   2.140321   2.054978
    12  H    4.612288   5.411945   5.446640   4.412681   3.381268
    13  H    3.745517   4.166696   4.900712   3.612789   2.703195
    14  H    4.253466   4.767789   5.083782   4.568305   2.732131
    15  H    2.854190   3.580510   2.538484   3.947015   2.073634
    16  H    3.512341   4.009663   3.847197   4.424034   2.047572
    17  H    4.135929   3.984445   4.183521   5.438682   3.389300
    18  H    3.392238   2.910180   4.008495   4.535103   2.701431
    19  H    2.867006   2.468327   2.897362   4.235993   2.827535
                    6          7          8          9         10
     6  C    0.000000
     7  C    1.510874   0.000000
     8  C    2.439550   3.189040   0.000000
     9  C    3.746188   4.259602   1.509590   0.000000
    10  H    1.095977   2.185157   2.473088   3.961196   0.000000
    11  H    1.089523   2.165172   3.293914   4.515861   1.779850
    12  H    2.130439   1.097371   4.109700   5.289618   2.511912
    13  H    2.155235   1.096263   3.677607   4.470574   3.088364
    14  H    2.175532   1.097054   2.974152   3.909071   2.548469
    15  H    2.812782   3.867104   1.096027   2.178598   2.482549
    16  H    2.449823   2.768063   1.093403   2.151999   2.345888
    17  H    4.499942   4.928733   2.112899   1.097529   4.514814
    18  H    3.919140   4.091685   2.159002   1.095949   4.362407
    19  H    4.245123   4.979756   2.173729   1.093703   4.493490
                   11         12         13         14         15
    11  H    0.000000
    12  H    2.499624   0.000000
    13  H    2.493036   1.781529   0.000000
    14  H    3.086733   1.775034   1.786409   0.000000
    15  H    3.523766   4.636045   4.490121   3.750869   0.000000
    16  H    3.493660   3.598091   3.431801   2.246623   1.787484
    17  H    5.367397   5.897069   5.261843   4.385286   2.523303
    18  H    4.680268   5.169646   4.077554   3.694199   3.085737
    19  H    4.819470   6.013279   5.101817   4.803430   2.506485
                   16         17         18         19
    16  H    0.000000
    17  H    2.421080   0.000000
    18  H    2.518893   1.780973   0.000000
    19  H    3.075641   1.777374   1.786601   0.000000
 Stoichiometry    C4H10BF3O
 Framework group  C1[X(C4H10BF3O)]
 Deg. of freedom    51
 Full point group                 C1      NOp   1
 Largest Abelian subgroup         C1      NOp   1
 Largest concise Abelian subgroup C1      NOp   1
                         Standard orientation:                         
 ---------------------------------------------------------------------
 Center     Atomic      Atomic             Coordinates (Angstroms)
 Number     Number       Type             X           Y           Z
 ---------------------------------------------------------------------
      1          5           0       -0.983411   -0.668811   -0.047857
      2          9           0       -1.630688   -0.159036   -1.159731
      3          9           0       -1.653546   -0.402659    1.138936
      4          9           0       -0.661238   -2.007358   -0.199353
      5          8           0        0.411921    0.113770    0.038548
      6          6           0        1.605078   -0.611733    0.496266
      7          6           0        2.745215   -0.386848   -0.469267
      8          6           0        0.376892    1.495663    0.539286
      9          6           0       -0.481587    2.389902   -0.322231
     10          1           0        1.826908   -0.257233    1.509324
     11          1           0        1.316575   -1.661371    0.541944
     12          1           0        3.620284   -0.943228   -0.110218
     13          1           0        2.481585   -0.755599   -1.467423
     14          1           0        3.023040    0.672074   -0.540152
     15          1           0        0.025795    1.449964    1.576550
     16          1           0        1.417524    1.830770    0.521478
     17          1           0       -0.347277    3.416945    0.040692
     18          1           0       -0.163985    2.345684   -1.370219
     19          1           0       -1.543095    2.135463   -0.254062
 ---------------------------------------------------------------------
 Rotational constants (GHZ):           1.7549882           1.4083543           1.0016341
 Standard basis: Aug-CC-pVDZ (5D, 7F)
 There are   315 symmetry adapted cartesian basis functions of A   symmetry.
 There are   297 symmetry adapted basis functions of A   symmetry.
   297 basis functions,   497 primitive gaussians,   315 cartesian basis functions
    37 alpha electrons       37 beta electrons
       nuclear repulsion energy       523.5095740759 Hartrees.
 NAtoms=   19 NActive=   19 NUniq=   19 SFac= 1.00D+00 NAtFMM=   60 NAOKFM=F Big=F
 Integral buffers will be    131072 words long.
 Raffenetti 2 integral format.
 Two-electron integral symmetry is turned on.
 Nuclear repulsion after empirical dispersion term =      523.4975346836 Hartrees.
 Force PCM accuracy= 1.00D-12.
 ------------------------------------------------------------------------------
 Polarizable Continuum Model (PCM)
 =================================
 Model                : C-PCM.
 Atomic radii         : UFF (Universal Force Field).
 Polarization charges : Total charges.
 Charge compensation  : None.
 Solution method      : On-the-fly selection.
 Cavity type          : Scaled VdW (van der Waals Surface) (Alpha=1.100).
 Cavity algorithm     : GePol (No added spheres)
                        Default sphere list used, NSphG=   19.
                        Lebedev-Laikov grids with approx.  5.0 points / Ang**2.
                        Smoothing algorithm: York/Karplus (Gamma=1.0000).
                        Polarization charges: spherical gaussians, with
                                              point-specific exponents (IZeta= 3).
                        Self-potential: point-specific (ISelfS= 7).
                        Self-field    : sphere-specific E.n sum rule (ISelfD= 2).
 1st derivatives      : Analytical E(r).r(x)/FMM algorithm (CHGder, D1EAlg=3).
                        Cavity 1st derivative terms included.
 Solvent              : TetraHydroFuran, Eps=   7.425700 Eps(inf)=   1.974025
 ------------------------------------------------------------------------------
 Spheres list:
 ISph  on   Nord     Re0    Alpha      Xe            Ye            Ze
    1   B      1    2.0415  1.100     -0.983411     -0.668811     -0.047857
    2   F      2    1.6820  1.100     -1.630688     -0.159036     -1.159731
    3   F      3    1.6820  1.100     -1.653546     -0.402659      1.138936
    4   F      4    1.6820  1.100     -0.661238     -2.007358     -0.199353
    5   O      5    1.7500  1.100      0.411921      0.113770      0.038548
    6   C      6    1.9255  1.100      1.605078     -0.611733      0.496266
    7   C      7    1.9255  1.100      2.745215     -0.386848     -0.469267
    8   C      8    1.9255  1.100      0.376892      1.495663      0.539286
    9   C      9    1.9255  1.100     -0.481587      2.389902     -0.322231
   10   H     10    1.4430  1.100      1.826908     -0.257233      1.509324
   11   H     11    1.4430  1.100      1.316575     -1.661371      0.541944
   12   H     12    1.4430  1.100      3.620284     -0.943228     -0.110218
   13   H     13    1.4430  1.100      2.481585     -0.755599     -1.467423
   14   H     14    1.4430  1.100      3.023040      0.672074     -0.540152
   15   H     15    1.4430  1.100      0.025795      1.449964      1.576550
   16   H     16    1.4430  1.100      1.417524      1.830770      0.521478
   17   H     17    1.4430  1.100     -0.347277      3.416945      0.040692
   18   H     18    1.4430  1.100     -0.163985      2.345684     -1.370219
   19   H     19    1.4430  1.100     -1.543095      2.135463     -0.254062
 ------------------------------------------------------------------------------
 One-electron integrals computed using PRISM.
 NBasis=   297 RedAO= T EigKep=  2.70D-05  NBF=   297
 NBsUse=   297 1.00D-06 EigRej= -1.00D+00 NBFU=   297
 Initial guess from the checkpoint file:  "/inspire/hdd/project/materialscienceresearch/lipenghui-253107030018/g16/00-B-DFT-Shift/04-output/BF3OEt2_THF/BF3OEt2_THF.chk"
 B after Tr=    -0.000000    0.000000   -0.000000
         Rot=    0.999999   -0.000026   -0.001031   -0.000403 Ang=  -0.13 deg.
 ExpMin= 2.38D-02 ExpMax= 1.47D+04 ExpMxC= 5.03D+02 IAcc=3 IRadAn=         5 AccDes= 0.00D+00
 Harris functional with IExCor= 4639 and IRadAn=       5 diagonalized for initial guess.
 HarFok:  IExCor= 4639 AccDes= 0.00D+00 IRadAn=         5 IDoV= 1 UseB2=F ITyADJ=14
 ICtDFT=  3500011 ScaDFX=  1.000000  1.000000  1.000000  1.000000
 FoFCou: FMM=F IPFlag=           0 FMFlag=      100000 FMFlg1=           0
         NFxFlg=           0 DoJE=T BraDBF=F KetDBF=T FulRan=T
         wScrn=  0.000000 ICntrl=       500 IOpCl=  0 I1Cent=   200000004 NGrid=           0
         NMat0=    1 NMatS0=      1 NMatT0=    0 NMatD0=    1 NMtDS0=    0 NMtDT0=    0
 Petite list used in FoFCou.
 Requested convergence on RMS density matrix=1.00D-08 within 128 cycles.
 Requested convergence on MAX density matrix=1.00D-06.
 Requested convergence on             energy=1.00D-06.
 No special actions if energy rises.
 Inv3:  Mode=1 IEnd=     6976875.
 Iteration    1 A*A^-1 deviation from unit magnitude is 6.00D-15 for   1510.
 Iteration    1 A*A^-1 deviation from orthogonality  is 4.09D-15 for   1510   1260.
 Iteration    1 A^-1*A deviation from unit magnitude is 6.00D-15 for   1510.
 Iteration    1 A^-1*A deviation from orthogonality  is 2.17D-15 for   1512   1058.
 Error on total polarization charges =  0.00989
 SCF Done:  E(RwB97XD) =  -558.150321638     A.U. after   10 cycles
            NFock= 10  Conv=0.30D-08     -V/T= 2.0060
 D1PCM: C-PCM CHGder 1st derivatives, ID1Alg=3 FixD1E=F DoIter=F DoCFld=F I1PDM=0.
 Calling FoFJK, ICntrl=      2127 FMM=F ISym2X=0 I1Cent= 0 IOpClX= 0 NMat=1 NMatS=1 NMatT=0.
 ***** Axes restored to original set *****
 -------------------------------------------------------------------
 Center     Atomic                   Forces (Hartrees/Bohr)
 Number     Number              X              Y              Z
 -------------------------------------------------------------------
      1        5           0.000240139   -0.000075361   -0.000153915
      2        9           0.000026014   -0.000085921    0.000110623
      3        9           0.000147177   -0.000050698   -0.000077642
      4        9           0.000106622    0.000053153    0.000036118
      5        8          -0.000353963    0.000300951    0.000283718
      6        6           0.000087453    0.000153333   -0.000028031
      7        6           0.000005239    0.000096674   -0.000037544
      8        6          -0.000214079   -0.000332010   -0.000273497
      9        6          -0.000007064   -0.000020974    0.000019688
     10        1           0.000035166    0.000008885   -0.000013397
     11        1          -0.000001978   -0.000019888    0.000024885
     12        1          -0.000024034   -0.000011094    0.000027071
     13        1          -0.000030731   -0.000024896    0.000022260
     14        1           0.000020217   -0.000064974   -0.000075689
     15        1           0.000002640    0.000008448    0.000032268
     16        1           0.000041782    0.000069959    0.000073929
     17        1          -0.000007500    0.000001618    0.000016472
     18        1          -0.000013478   -0.000007136    0.000043303
     19        1          -0.000059621   -0.000000067   -0.000030620
 -------------------------------------------------------------------
 Cartesian Forces:  Max     0.000353963 RMS     0.000115503

 GradGradGradGradGradGradGradGradGradGradGradGradGradGradGradGradGradGrad
 Berny optimization.
 Using GEDIIS/GDIIS optimizer.
 FormGI is forming the generalized inverse of G from B-inverse, IUseBI=4.
 Internal  Forces:  Max     0.000522231 RMS     0.000097676
 Search for a local minimum.
 Step number  15 out of a maximum of   97
 All quantities printed in internal units (Hartrees-Bohrs-Radians)
 Mixed Optimization -- En-DIIS/RFO-DIIS
 Swapping is turned off.
 Update second derivatives using D2CorX and points   10   11   12   13   14
                                                     15
 DE= -2.23D-05 DEPred=-1.55D-05 R= 1.44D+00
 TightC=F SS=  1.41D+00  RLast= 1.17D-01 DXNew= 1.4949D+00 3.5012D-01
 Trust test= 1.44D+00 RLast= 1.17D-01 DXMaxT set to 8.89D-01
 ITU=  1  1  1  1  1 -1  1  1  1  1  1  1  1  1  0
     Eigenvalues ---    0.00229   0.00279   0.00295   0.01168   0.01428
     Eigenvalues ---    0.01910   0.04549   0.05036   0.05146   0.05199
     Eigenvalues ---    0.05367   0.05453   0.05776   0.05886   0.08318
     Eigenvalues ---    0.09671   0.10511   0.12656   0.12907   0.12917
     Eigenvalues ---    0.13442   0.15799   0.16001   0.16026   0.16050
     Eigenvalues ---    0.16320   0.16490   0.20924   0.22395   0.23811
     Eigenvalues ---    0.25197   0.25541   0.28317   0.28375   0.28650
     Eigenvalues ---    0.28767   0.30758   0.31880   0.31975   0.32047
     Eigenvalues ---    0.32114   0.32143   0.32164   0.32210   0.32329
     Eigenvalues ---    0.32832   0.34205   0.38177   0.39302   0.42557
     Eigenvalues ---    0.55037
 En-DIIS/RFO-DIIS/Sim-DIIS IScMMF=       -3 using points:    15   14   13   12   11
 RFO step:  Lambda=-1.30401304D-05.
 DidBck=F Rises=F RFO-DIIS coefs:    0.83433    0.23379    0.18157   -0.44430    0.19461
 Iteration  1 RMS(Cart)=  0.00622595 RMS(Int)=  0.00002902
 Iteration  2 RMS(Cart)=  0.00002076 RMS(Int)=  0.00002429
 Iteration  3 RMS(Cart)=  0.00000000 RMS(Int)=  0.00002429
 Variable       Old X    -DE/DX   Delta X   Delta X   Delta X     New X
                                 (Linear)    (Quad)   (Total)
    R1        2.61514  -0.00013   0.00043  -0.00040   0.00003   2.61517
    R2        2.62420  -0.00013   0.00059  -0.00054   0.00004   2.62424
    R3        2.61743  -0.00012   0.00016  -0.00021  -0.00005   2.61738
    R4        3.02760  -0.00052  -0.00177  -0.00004  -0.00182   3.02579
    R5        2.77699  -0.00014   0.00004  -0.00019  -0.00015   2.77684
    R6        2.77834  -0.00038   0.00082  -0.00121  -0.00039   2.77795
    R7        2.85514   0.00002   0.00035  -0.00048  -0.00013   2.85501
    R8        2.07110  -0.00000  -0.00019   0.00011  -0.00008   2.07101
    R9        2.05890   0.00000   0.00037  -0.00029   0.00008   2.05899
   R10        2.07373   0.00002   0.00002   0.00007   0.00009   2.07382
   R11        2.07164  -0.00002  -0.00005   0.00002  -0.00003   2.07161
   R12        2.07313  -0.00001  -0.00006   0.00010   0.00004   2.07317
   R13        2.85271  -0.00006   0.00045  -0.00051  -0.00006   2.85265
   R14        2.07119   0.00003   0.00002  -0.00001   0.00002   2.07121
   R15        2.06623  -0.00001  -0.00033   0.00036   0.00003   2.06626
   R16        2.07403   0.00000   0.00000   0.00006   0.00006   2.07409
   R17        2.07104  -0.00004   0.00006  -0.00010  -0.00004   2.07100
   R18        2.06680   0.00004  -0.00007   0.00013   0.00006   2.06686
    A1        1.97179   0.00006   0.00029  -0.00044  -0.00014   1.97166
    A2        1.95725   0.00007   0.00007  -0.00011  -0.00002   1.95723
    A3        1.84497  -0.00005   0.00043  -0.00006   0.00039   1.84536
    A4        1.97245   0.00012  -0.00007   0.00020   0.00015   1.97260
    A5        1.85519  -0.00021   0.00049  -0.00070  -0.00020   1.85499
    A6        1.84977  -0.00003  -0.00136   0.00117  -0.00017   1.84960
    A7        2.07462   0.00019  -0.00140   0.00236   0.00100   2.07562
    A8        2.04511  -0.00013   0.00044   0.00039   0.00092   2.04603
    A9        1.95767  -0.00005   0.00142  -0.00120   0.00034   1.95801
   A10        1.91789   0.00011   0.00018  -0.00048  -0.00031   1.91759
   A11        1.86770  -0.00006   0.00094  -0.00111  -0.00016   1.86754
   A12        1.84802   0.00000  -0.00140   0.00182   0.00039   1.84841
   A13        1.97124   0.00003   0.00100  -0.00091   0.00014   1.97138
   A14        1.94982  -0.00009  -0.00072   0.00069  -0.00001   1.94980
   A15        1.90335   0.00002  -0.00016   0.00010  -0.00003   1.90332
   A16        1.89357  -0.00008   0.00028  -0.00026   0.00002   1.89358
   A17        1.92872  -0.00004  -0.00034   0.00020  -0.00013   1.92858
   A18        1.95634   0.00017   0.00090  -0.00078   0.00013   1.95647
   A19        1.89561   0.00002  -0.00004  -0.00000  -0.00003   1.89557
   A20        1.88450  -0.00003  -0.00068   0.00055  -0.00014   1.88436
   A21        1.90366  -0.00004  -0.00018   0.00032   0.00015   1.90381
   A22        1.95623  -0.00015   0.00054  -0.00063  -0.00009   1.95613
   A23        1.86582   0.00002   0.00030  -0.00034  -0.00004   1.86578
   A24        1.83366   0.00015   0.00071  -0.00027   0.00043   1.83408
   A25        1.96343   0.00001  -0.00001  -0.00024  -0.00023   1.96320
   A26        1.92879   0.00002  -0.00117   0.00114  -0.00001   1.92878
   A27        1.91035  -0.00003  -0.00035   0.00031  -0.00001   1.91034
   A28        1.87132   0.00000   0.00066  -0.00035   0.00031   1.87163
   A29        1.93587  -0.00002  -0.00012  -0.00004  -0.00016   1.93571
   A30        1.95904  -0.00002   0.00032  -0.00034  -0.00002   1.95902
   A31        1.89494   0.00001  -0.00032   0.00032  -0.00001   1.89493
   A32        1.89216   0.00002  -0.00048   0.00037  -0.00011   1.89205
   A33        1.90867   0.00000  -0.00009   0.00008  -0.00000   1.90866
    D1       -2.51155  -0.00004   0.00378  -0.00031   0.00343  -2.50811
    D2        1.32619  -0.00002   0.00204  -0.00210  -0.00003   1.32616
    D3        1.67185   0.00002   0.00296   0.00057   0.00349   1.67534
    D4       -0.77360   0.00004   0.00121  -0.00121   0.00003  -0.77357
    D5       -0.43114   0.00001   0.00345   0.00010   0.00351  -0.42763
    D6       -2.87659   0.00002   0.00171  -0.00169   0.00005  -2.87654
    D7        2.27191  -0.00010  -0.01064  -0.00071  -0.01132   2.26059
    D8       -1.86506  -0.00003  -0.00863  -0.00281  -0.01144  -1.87649
    D9        0.16357  -0.00004  -0.00904  -0.00234  -0.01136   0.15221
   D10       -1.53334  -0.00015  -0.00932   0.00151  -0.00782  -1.54116
   D11        0.61288  -0.00008  -0.00731  -0.00060  -0.00794   0.60494
   D12        2.64151  -0.00009  -0.00772  -0.00013  -0.00786   2.63364
   D13       -1.05245   0.00009  -0.00475   0.00459  -0.00013  -1.05258
   D14        1.10655   0.00002  -0.00419   0.00365  -0.00051   1.10604
   D15        3.13546   0.00006  -0.00409   0.00372  -0.00034   3.13513
   D16        2.74067   0.00001  -0.00516   0.00159  -0.00360   2.73707
   D17       -1.38352  -0.00006  -0.00460   0.00066  -0.00398  -1.38750
   D18        0.64540  -0.00002  -0.00450   0.00072  -0.00381   0.64159
   D19       -3.13466   0.00002  -0.00003  -0.00183  -0.00186  -3.13651
   D20       -1.05821  -0.00004  -0.00009  -0.00187  -0.00197  -1.06018
   D21        1.06918   0.00000   0.00009  -0.00186  -0.00178   1.06741
   D22        1.06453  -0.00000  -0.00203   0.00051  -0.00153   1.06300
   D23        3.14098  -0.00005  -0.00210   0.00046  -0.00164   3.13934
   D24       -1.01482  -0.00001  -0.00191   0.00047  -0.00145  -1.01627
   D25       -1.08884   0.00002  -0.00214   0.00054  -0.00158  -1.09043
   D26        0.98760  -0.00003  -0.00220   0.00049  -0.00169   0.98591
   D27        3.11499   0.00001  -0.00202   0.00050  -0.00150   3.11349
   D28       -3.01446  -0.00007  -0.00051  -0.00162  -0.00212  -3.01659
   D29       -0.94823  -0.00006  -0.00056  -0.00147  -0.00203  -0.95027
   D30        1.19267  -0.00008  -0.00053  -0.00164  -0.00217   1.19050
   D31        1.16546   0.00000  -0.00127  -0.00055  -0.00183   1.16363
   D32       -3.05150   0.00001  -0.00133  -0.00041  -0.00174  -3.05324
   D33       -0.91059  -0.00001  -0.00129  -0.00058  -0.00188  -0.91247
   D34       -0.97558   0.00003  -0.00005  -0.00162  -0.00165  -0.97723
   D35        1.09065   0.00004  -0.00010  -0.00147  -0.00156   1.08909
   D36       -3.05163   0.00001  -0.00007  -0.00164  -0.00170  -3.05333
         Item               Value     Threshold  Converged?
 Maximum Force            0.000522     0.000450     NO 
 RMS     Force            0.000098     0.000300     YES
 Maximum Displacement     0.023519     0.001800     NO 
 RMS     Displacement     0.006227     0.001200     NO 
 Predicted change in Energy=-4.754065D-06
 GradGradGradGradGradGradGradGradGradGradGradGradGradGradGradGradGradGrad

                          Input orientation:                          
 ---------------------------------------------------------------------
 Center     Atomic      Atomic             Coordinates (Angstroms)
 Number     Number       Type             X           Y           Z
 ---------------------------------------------------------------------
      1          5           0       -1.786883    0.669101   -0.196913
      2          9           0       -1.585258    1.647997   -1.154124
      3          9           0       -2.129708    1.187844    1.044795
      4          9           0       -2.658843   -0.315021   -0.632307
      5          8           0       -0.369338   -0.050780   -0.006887
      6          6           0       -0.335120   -1.498830    0.240570
      7          6           0        0.631435   -2.160169   -0.713858
      8          6           0        0.652124    0.668980    0.767417
      9          6           0        1.007302    1.996306    0.142259
     10          1           0       -0.059767   -1.637797    1.292207
     11          1           0       -1.354986   -1.851623    0.090342
     12          1           0        0.635377   -3.239100   -0.513299
     13          1           0        0.317422   -1.998421   -1.751641
     14          1           0        1.655882   -1.788669   -0.587103
     15          1           0        0.262680    0.776384    1.786285
     16          1           0        1.521240    0.005587    0.777798
     17          1           0        1.858384    2.402810    0.703551
     18          1           0        1.308292    1.867937   -0.903676
     19          1           0        0.183306    2.713445    0.196998
 ---------------------------------------------------------------------
                    Distance matrix (angstroms):
                    1          2          3          4          5
     1  B    0.000000
     2  F    1.383887   0.000000
     3  F    1.388690   2.311581   0.000000
     4  F    1.385056   2.297459   2.313278   0.000000
     5  O    1.601178   2.383371   2.395647   2.388055   0.000000
     6  C    2.645550   3.662040   3.329496   2.750092   1.469441
     7  C    3.757694   4.428283   4.682516   3.773215   2.439442
     8  C    2.622725   3.107519   2.843369   3.726927   1.470029
     9  C    3.111909   2.919469   3.362888   4.402591   2.471426
    10  H    3.243792   4.371281   3.511427   3.494093   2.074151
    11  H    2.573539   3.721432   3.278648   2.140890   2.055235
    12  H    4.608848   5.406070   5.447127   4.406392   3.381019
    13  H    3.736436   4.156150   4.894976   3.597902   2.703537
    14  H    4.248001   4.757854   5.084625   4.559663   2.731011
    15  H    2.853995   3.580585   2.538233   3.946650   2.073430
    16  H    3.511978   4.010008   3.846874   4.423153   2.047729
    17  H    4.135765   3.984893   4.182998   5.438425   3.389332
    18  H    3.393645   2.912684   4.009852   4.536200   2.701879
    19  H    2.866383   2.467494   2.897629   4.235229   2.826291
                    6          7          8          9         10
     6  C    0.000000
     7  C    1.510804   0.000000
     8  C    2.439594   3.193538   0.000000
     9  C    3.745362   4.260340   1.509559   0.000000
    10  H    1.095933   2.185160   2.470509   3.958247   0.000000
    11  H    1.089568   2.165134   3.292470   4.515491   1.779830
    12  H    2.130428   1.097420   4.112615   5.289382   2.511423
    13  H    2.155066   1.096249   3.684116   4.474443   3.088257
    14  H    2.175577   1.097074   2.980317   3.908793   2.549121
    15  H    2.814817   3.874279   1.096035   2.178415   2.485228
    16  H    2.449073   2.776201   1.093417   2.151977   2.337715
    17  H    4.499846   4.933076   2.113128   1.097559   4.511356
    18  H    3.917298   4.088986   2.158844   1.095927   4.357024
    19  H    4.244281   4.978211   2.173708   1.093734   4.493537
                   11         12         13         14         15
    11  H    0.000000
    12  H    2.500204   0.000000
    13  H    2.492268   1.781536   0.000000
    14  H    3.086781   1.775000   1.786510   0.000000
    15  H    3.521290   4.642316   4.496605   3.762110   0.000000
    16  H    3.492063   3.602732   3.444313   2.258415   1.787497
    17  H    5.366747   5.899799   5.270045   4.390364   2.522667
    18  H    4.681479   5.165950   4.080391   3.686707   3.085560
    19  H    4.818460   6.011795   5.100673   4.801283   2.506858
                   16         17         18         19
    16  H    0.000000
    17  H    2.421953   0.000000
    18  H    2.518145   1.780975   0.000000
    19  H    3.075693   1.777351   1.786606   0.000000
 Stoichiometry    C4H10BF3O
 Framework group  C1[X(C4H10BF3O)]
 Deg. of freedom    51
 Full point group                 C1      NOp   1
 Largest Abelian subgroup         C1      NOp   1
 Largest concise Abelian subgroup C1      NOp   1
                         Standard orientation:                         
 ---------------------------------------------------------------------
 Center     Atomic      Atomic             Coordinates (Angstroms)
 Number     Number       Type             X           Y           Z
 ---------------------------------------------------------------------
      1          5           0       -0.979152   -0.672819   -0.047898
      2          9           0       -1.625902   -0.168166   -1.162430
      3          9           0       -1.654400   -0.408549    1.136442
      4          9           0       -0.649175   -2.009753   -0.196573
      5          8           0        0.410892    0.116777    0.042035
      6          6           0        1.608024   -0.601711    0.500189
      7          6           0        2.743076   -0.380682   -0.472094
      8          6           0        0.368252    1.498990    0.540690
      9          6           0       -0.491486    2.388145   -0.324771
     10          1           0        1.833021   -0.238639    1.509458
     11          1           0        1.323149   -1.651934    0.555298
     12          1           0        3.622065   -0.930122   -0.111782
     13          1           0        2.476755   -0.759631   -1.465690
     14          1           0        3.016231    0.678705   -0.553673
     15          1           0        0.013769    1.453148    1.576805
     16          1           0        1.407359    1.838991    0.526006
     17          1           0       -0.364789    3.416153    0.038250
     18          1           0       -0.169004    2.345308   -1.371301
     19          1           0       -1.551843    2.127659   -0.261191
 ---------------------------------------------------------------------
 Rotational constants (GHZ):           1.7532542           1.4101369           1.0025619
 Standard basis: Aug-CC-pVDZ (5D, 7F)
 There are   315 symmetry adapted cartesian basis functions of A   symmetry.
 There are   297 symmetry adapted basis functions of A   symmetry.
   297 basis functions,   497 primitive gaussians,   315 cartesian basis functions
    37 alpha electrons       37 beta electrons
       nuclear repulsion energy       523.5704865055 Hartrees.
 NAtoms=   19 NActive=   19 NUniq=   19 SFac= 1.00D+00 NAtFMM=   60 NAOKFM=F Big=F
 Integral buffers will be    131072 words long.
 Raffenetti 2 integral format.
 Two-electron integral symmetry is turned on.
 Nuclear repulsion after empirical dispersion term =      523.5584445209 Hartrees.
 Force PCM accuracy= 1.00D-12.
 ------------------------------------------------------------------------------
 Polarizable Continuum Model (PCM)
 =================================
 Model                : C-PCM.
 Atomic radii         : UFF (Universal Force Field).
 Polarization charges : Total charges.
 Charge compensation  : None.
 Solution method      : On-the-fly selection.
 Cavity type          : Scaled VdW (van der Waals Surface) (Alpha=1.100).
 Cavity algorithm     : GePol (No added spheres)
                        Default sphere list used, NSphG=   19.
                        Lebedev-Laikov grids with approx.  5.0 points / Ang**2.
                        Smoothing algorithm: York/Karplus (Gamma=1.0000).
                        Polarization charges: spherical gaussians, with
                                              point-specific exponents (IZeta= 3).
                        Self-potential: point-specific (ISelfS= 7).
                        Self-field    : sphere-specific E.n sum rule (ISelfD= 2).
 1st derivatives      : Analytical E(r).r(x)/FMM algorithm (CHGder, D1EAlg=3).
                        Cavity 1st derivative terms included.
 Solvent              : TetraHydroFuran, Eps=   7.425700 Eps(inf)=   1.974025
 ------------------------------------------------------------------------------
 Spheres list:
 ISph  on   Nord     Re0    Alpha      Xe            Ye            Ze
    1   B      1    2.0415  1.100     -0.979152     -0.672819     -0.047898
    2   F      2    1.6820  1.100     -1.625902     -0.168166     -1.162430
    3   F      3    1.6820  1.100     -1.654400     -0.408549      1.136442
    4   F      4    1.6820  1.100     -0.649175     -2.009753     -0.196573
    5   O      5    1.7500  1.100      0.410892      0.116777      0.042035
    6   C      6    1.9255  1.100      1.608024     -0.601711      0.500189
    7   C      7    1.9255  1.100      2.743076     -0.380682     -0.472094
    8   C      8    1.9255  1.100      0.368252      1.498990      0.540690
    9   C      9    1.9255  1.100     -0.491486      2.388145     -0.324771
   10   H     10    1.4430  1.100      1.833021     -0.238639      1.509458
   11   H     11    1.4430  1.100      1.323149     -1.651934      0.555298
   12   H     12    1.4430  1.100      3.622065     -0.930122     -0.111782
   13   H     13    1.4430  1.100      2.476755     -0.759631     -1.465690
   14   H     14    1.4430  1.100      3.016231      0.678705     -0.553673
   15   H     15    1.4430  1.100      0.013769      1.453148      1.576805
   16   H     16    1.4430  1.100      1.407359      1.838991      0.526006
   17   H     17    1.4430  1.100     -0.364789      3.416153      0.038250
   18   H     18    1.4430  1.100     -0.169004      2.345308     -1.371301
   19   H     19    1.4430  1.100     -1.551843      2.127659     -0.261191
 ------------------------------------------------------------------------------
 One-electron integrals computed using PRISM.
 NBasis=   297 RedAO= T EigKep=  2.71D-05  NBF=   297
 NBsUse=   297 1.00D-06 EigRej= -1.00D+00 NBFU=   297
 Initial guess from the checkpoint file:  "/inspire/hdd/project/materialscienceresearch/lipenghui-253107030018/g16/00-B-DFT-Shift/04-output/BF3OEt2_THF/BF3OEt2_THF.chk"
 B after Tr=     0.000000    0.000000    0.000000
         Rot=    0.999997    0.000702    0.000342   -0.002137 Ang=   0.26 deg.
 ExpMin= 2.38D-02 ExpMax= 1.47D+04 ExpMxC= 5.03D+02 IAcc=3 IRadAn=         5 AccDes= 0.00D+00
 Harris functional with IExCor= 4639 and IRadAn=       5 diagonalized for initial guess.
 HarFok:  IExCor= 4639 AccDes= 0.00D+00 IRadAn=         5 IDoV= 1 UseB2=F ITyADJ=14
 ICtDFT=  3500011 ScaDFX=  1.000000  1.000000  1.000000  1.000000
 FoFCou: FMM=F IPFlag=           0 FMFlag=      100000 FMFlg1=           0
         NFxFlg=           0 DoJE=T BraDBF=F KetDBF=T FulRan=T
         wScrn=  0.000000 ICntrl=       500 IOpCl=  0 I1Cent=   200000004 NGrid=           0
         NMat0=    1 NMatS0=      1 NMatT0=    0 NMatD0=    1 NMtDS0=    0 NMtDT0=    0
 Petite list used in FoFCou.
 Requested convergence on RMS density matrix=1.00D-08 within 128 cycles.
 Requested convergence on MAX density matrix=1.00D-06.
 Requested convergence on             energy=1.00D-06.
 No special actions if energy rises.
 Inv3:  Mode=1 IEnd=     7013523.
 Iteration    1 A*A^-1 deviation from unit magnitude is 4.00D-15 for   1522.
 Iteration    1 A*A^-1 deviation from orthogonality  is 2.30D-15 for   1514   1262.
 Iteration    1 A^-1*A deviation from unit magnitude is 4.22D-15 for   1522.
 Iteration    1 A^-1*A deviation from orthogonality  is 1.50D-15 for   1506   1145.
 Error on total polarization charges =  0.00989
 SCF Done:  E(RwB97XD) =  -558.150326484     A.U. after    9 cycles
            NFock=  9  Conv=0.49D-08     -V/T= 2.0060
 D1PCM: C-PCM CHGder 1st derivatives, ID1Alg=3 FixD1E=F DoIter=F DoCFld=F I1PDM=0.
 Calling FoFJK, ICntrl=      2127 FMM=F ISym2X=0 I1Cent= 0 IOpClX= 0 NMat=1 NMatS=1 NMatT=0.
 ***** Axes restored to original set *****
 -------------------------------------------------------------------
 Center     Atomic                   Forces (Hartrees/Bohr)
 Number     Number              X              Y              Z
 -------------------------------------------------------------------
      1        5           0.000192123   -0.000047929   -0.000128352
      2        9          -0.000005081   -0.000058285    0.000069738
      3        9           0.000087932   -0.000016169   -0.000054393
      4        9           0.000033585    0.000037551    0.000015683
      5        8          -0.000159986    0.000193808    0.000255871
      6        6           0.000023527    0.000097355   -0.000041881
      7        6           0.000022326    0.000008619   -0.000021638
      8        6          -0.000183390   -0.000203683   -0.000190680
      9        6          -0.000008538    0.000023004    0.000009644
     10        1           0.000026571    0.000004183   -0.000021343
     11        1           0.000016548   -0.000014102    0.000049980
     12        1          -0.000033314    0.000005448    0.000009808
     13        1          -0.000009926   -0.000014720    0.000009519
     14        1          -0.000001132    0.000008886   -0.000036752
     15        1           0.000015172   -0.000011583    0.000034754
     16        1           0.000033681    0.000023804    0.000017686
     17        1          -0.000020740   -0.000029988    0.000013631
     18        1          -0.000018382    0.000003456    0.000017844
     19        1          -0.000010975   -0.000009654   -0.000009120
 -------------------------------------------------------------------
 Cartesian Forces:  Max     0.000255871 RMS     0.000077756

 GradGradGradGradGradGradGradGradGradGradGradGradGradGradGradGradGradGrad
 Berny optimization.
 Using GEDIIS/GDIIS optimizer.
 FormGI is forming the generalized inverse of G from B-inverse, IUseBI=4.
 Internal  Forces:  Max     0.000300021 RMS     0.000059973
 Search for a local minimum.
 Step number  16 out of a maximum of   97
 All quantities printed in internal units (Hartrees-Bohrs-Radians)
 Mixed Optimization -- En-DIIS/RFO-DIIS
 Swapping is turned off.
 Update second derivatives using D2CorX and points   10   11   12   13   14
                                                     15   16
 DE= -4.85D-06 DEPred=-4.75D-06 R= 1.02D+00
 TightC=F SS=  1.41D+00  RLast= 2.68D-02 DXNew= 1.4949D+00 8.0339D-02
 Trust test= 1.02D+00 RLast= 2.68D-02 DXMaxT set to 8.89D-01
 ITU=  1  1  1  1  1  1 -1  1  1  1  1  1  1  1  1  0
     Eigenvalues ---    0.00215   0.00269   0.00310   0.00990   0.01428
     Eigenvalues ---    0.01896   0.04574   0.05060   0.05163   0.05218
     Eigenvalues ---    0.05416   0.05602   0.05780   0.05892   0.07818
     Eigenvalues ---    0.09667   0.10141   0.12702   0.12918   0.12975
     Eigenvalues ---    0.13421   0.15954   0.16006   0.16030   0.16069
     Eigenvalues ---    0.16486   0.17011   0.20894   0.22301   0.23864
     Eigenvalues ---    0.25112   0.25385   0.28303   0.28386   0.28691
     Eigenvalues ---    0.28776   0.30652   0.31883   0.31941   0.32036
     Eigenvalues ---    0.32113   0.32153   0.32194   0.32211   0.32338
     Eigenvalues ---    0.32563   0.33974   0.38781   0.39331   0.41699
     Eigenvalues ---    0.53151
 En-DIIS/RFO-DIIS/Sim-DIIS IScMMF=       -3 using points:    16   15   14   13   12   11
 RFO step:  Lambda=-8.67090984D-06.
 DidBck=F Rises=F RFO-DIIS coefs:    1.36208   -0.42638    0.05574    0.19654   -0.33864
                  RFO-DIIS coefs:    0.15066
 Iteration  1 RMS(Cart)=  0.00535515 RMS(Int)=  0.00002207
 Iteration  2 RMS(Cart)=  0.00001582 RMS(Int)=  0.00001871
 Iteration  3 RMS(Cart)=  0.00000000 RMS(Int)=  0.00001871
 Variable       Old X    -DE/DX   Delta X   Delta X   Delta X     New X
                                 (Linear)    (Quad)   (Total)
    R1        2.61517  -0.00009   0.00014  -0.00019  -0.00005   2.61512
    R2        2.62424  -0.00008   0.00027  -0.00028  -0.00000   2.62424
    R3        2.61738  -0.00005  -0.00006   0.00002  -0.00004   2.61734
    R4        3.02579  -0.00030  -0.00027  -0.00108  -0.00135   3.02444
    R5        2.77684  -0.00010  -0.00031   0.00002  -0.00029   2.77655
    R6        2.77795  -0.00029   0.00002  -0.00083  -0.00080   2.77715
    R7        2.85501   0.00000   0.00028  -0.00037  -0.00009   2.85492
    R8        2.07101  -0.00001  -0.00010   0.00003  -0.00007   2.07094
    R9        2.05899  -0.00002   0.00031  -0.00028   0.00003   2.05902
   R10        2.07382  -0.00000   0.00010  -0.00001   0.00009   2.07391
   R11        2.07161  -0.00001  -0.00003   0.00001  -0.00002   2.07159
   R12        2.07317  -0.00000  -0.00004   0.00007   0.00003   2.07319
   R13        2.85265  -0.00004   0.00039  -0.00043  -0.00003   2.85262
   R14        2.07121   0.00003   0.00006   0.00000   0.00007   2.07127
   R15        2.06626   0.00001  -0.00021   0.00025   0.00004   2.06630
   R16        2.07409  -0.00002   0.00005  -0.00004   0.00001   2.07409
   R17        2.07100  -0.00002   0.00005  -0.00007  -0.00003   2.07097
   R18        2.06686   0.00000   0.00001   0.00001   0.00002   2.06688
    A1        1.97166   0.00002   0.00050  -0.00059  -0.00008   1.97158
    A2        1.95723   0.00001   0.00014  -0.00024  -0.00008   1.95715
    A3        1.84536  -0.00001   0.00016   0.00016   0.00034   1.84569
    A4        1.97260   0.00006   0.00014   0.00003   0.00019   1.97279
    A5        1.85499  -0.00012  -0.00002  -0.00031  -0.00032   1.85467
    A6        1.84960   0.00003  -0.00114   0.00108  -0.00004   1.84955
    A7        2.07562   0.00015  -0.00095   0.00197   0.00105   2.07667
    A8        2.04603  -0.00003   0.00057   0.00047   0.00112   2.04715
    A9        1.95801  -0.00010   0.00113  -0.00096   0.00027   1.95828
   A10        1.91759   0.00002   0.00040  -0.00046  -0.00006   1.91753
   A11        1.86754  -0.00003   0.00079  -0.00099  -0.00019   1.86734
   A12        1.84841   0.00002  -0.00083   0.00140   0.00055   1.84896
   A13        1.97138   0.00001   0.00067  -0.00078  -0.00007   1.97131
   A14        1.94980  -0.00003  -0.00097   0.00089  -0.00007   1.94973
   A15        1.90332  -0.00000  -0.00013  -0.00001  -0.00012   1.90319
   A16        1.89358  -0.00005   0.00010  -0.00016  -0.00006   1.89352
   A17        1.92858  -0.00000  -0.00036   0.00028  -0.00007   1.92851
   A18        1.95647   0.00004   0.00108  -0.00103   0.00005   1.95653
   A19        1.89557   0.00001  -0.00010   0.00003  -0.00007   1.89551
   A20        1.88436   0.00002  -0.00085   0.00079  -0.00007   1.88430
   A21        1.90381  -0.00001   0.00007   0.00013   0.00020   1.90402
   A22        1.95613  -0.00004   0.00046  -0.00037   0.00008   1.95622
   A23        1.86578   0.00001   0.00043  -0.00024   0.00019   1.86597
   A24        1.83408   0.00005   0.00084  -0.00054   0.00030   1.83438
   A25        1.96320  -0.00001  -0.00026  -0.00010  -0.00034   1.96286
   A26        1.92878   0.00001  -0.00110   0.00094  -0.00015   1.92863
   A27        1.91034  -0.00001  -0.00032   0.00025  -0.00003   1.91031
   A28        1.87163  -0.00004   0.00073  -0.00064   0.00009   1.87172
   A29        1.93571   0.00001  -0.00008   0.00008  -0.00000   1.93571
   A30        1.95902  -0.00001   0.00027  -0.00022   0.00005   1.95907
   A31        1.89493   0.00002  -0.00033   0.00037   0.00004   1.89497
   A32        1.89205   0.00002  -0.00059   0.00037  -0.00022   1.89183
   A33        1.90866  -0.00000  -0.00002   0.00006   0.00004   1.90870
    D1       -2.50811  -0.00002   0.00398   0.00013   0.00408  -2.50403
    D2        1.32616   0.00000   0.00203  -0.00169   0.00038   1.32654
    D3        1.67534   0.00002   0.00330   0.00089   0.00417   1.67951
    D4       -0.77357   0.00005   0.00136  -0.00093   0.00046  -0.77311
    D5       -0.42763   0.00000   0.00370   0.00046   0.00413  -0.42349
    D6       -2.87654   0.00003   0.00176  -0.00136   0.00043  -2.87611
    D7        2.26059  -0.00005  -0.01066   0.00005  -0.01059   2.25000
    D8       -1.87649  -0.00004  -0.00904  -0.00179  -0.01083  -1.88732
    D9        0.15221  -0.00005  -0.00922  -0.00159  -0.01080   0.14141
   D10       -1.54116  -0.00006  -0.00900   0.00225  -0.00676  -1.54792
   D11        0.60494  -0.00004  -0.00738   0.00040  -0.00700   0.59794
   D12        2.63364  -0.00005  -0.00756   0.00060  -0.00697   2.62668
   D13       -1.05258   0.00009  -0.00233   0.00496   0.00266  -1.04992
   D14        1.10604   0.00005  -0.00205   0.00444   0.00242   1.10846
   D15        3.13513   0.00007  -0.00178   0.00437   0.00261   3.13774
   D16        2.73707   0.00001  -0.00324   0.00219  -0.00108   2.73599
   D17       -1.38750  -0.00002  -0.00295   0.00166  -0.00132  -1.38882
   D18        0.64159  -0.00001  -0.00269   0.00159  -0.00113   0.64046
   D19       -3.13651  -0.00001   0.00085  -0.00212  -0.00126  -3.13778
   D20       -1.06018  -0.00003   0.00059  -0.00201  -0.00142  -1.06160
   D21        1.06741  -0.00002   0.00120  -0.00236  -0.00117   1.06623
   D22        1.06300   0.00000  -0.00089  -0.00004  -0.00093   1.06207
   D23        3.13934  -0.00002  -0.00115   0.00006  -0.00109   3.13824
   D24       -1.01627  -0.00001  -0.00054  -0.00029  -0.00084  -1.01711
   D25       -1.09043   0.00002  -0.00055  -0.00013  -0.00066  -1.09109
   D26        0.98591  -0.00000  -0.00081  -0.00002  -0.00082   0.98509
   D27        3.11349   0.00000  -0.00021  -0.00037  -0.00057   3.11292
   D28       -3.01659  -0.00003  -0.00100   0.00044  -0.00056  -3.01715
   D29       -0.95027  -0.00002  -0.00101   0.00054  -0.00046  -0.95073
   D30        1.19050  -0.00002  -0.00090   0.00052  -0.00038   1.19012
   D31        1.16363  -0.00000  -0.00171   0.00108  -0.00063   1.16300
   D32       -3.05324   0.00000  -0.00171   0.00119  -0.00053  -3.05377
   D33       -0.91247  -0.00000  -0.00161   0.00116  -0.00045  -0.91292
   D34       -0.97723   0.00001  -0.00038   0.00014  -0.00023  -0.97747
   D35        1.08909   0.00002  -0.00039   0.00025  -0.00014   1.08895
   D36       -3.05333   0.00002  -0.00028   0.00022  -0.00005  -3.05338
         Item               Value     Threshold  Converged?
 Maximum Force            0.000300     0.000450     YES
 RMS     Force            0.000060     0.000300     YES
 Maximum Displacement     0.020324     0.001800     NO 
 RMS     Displacement     0.005357     0.001200     NO 
 Predicted change in Energy=-3.103958D-06
 GradGradGradGradGradGradGradGradGradGradGradGradGradGradGradGradGradGrad

                          Input orientation:                          
 ---------------------------------------------------------------------
 Center     Atomic      Atomic             Coordinates (Angstroms)
 Number     Number       Type             X           Y           Z
 ---------------------------------------------------------------------
      1          5           0       -1.784686    0.667879   -0.200339
      2          9           0       -1.580996    1.643668   -1.160244
      3          9           0       -2.130466    1.190710    1.038831
      4          9           0       -2.655360   -0.317813   -0.634695
      5          8           0       -0.368245   -0.050929   -0.004152
      6          6           0       -0.332799   -1.498821    0.243149
      7          6           0        0.627805   -2.160295   -0.717100
      8          6           0        0.651662    0.669848    0.770448
      9          6           0        1.006821    1.996878    0.144694
     10          1           0       -0.050844   -1.637575    1.293024
     11          1           0       -1.353509   -1.851959    0.099472
     12          1           0        0.633739   -3.239095   -0.515634
     13          1           0        0.306667   -1.999700   -1.752869
     14          1           0        1.652874   -1.788123   -0.597423
     15          1           0        0.261108    0.778182    1.788830
     16          1           0        1.521317    0.007153    0.782537
     17          1           0        1.856685    2.404619    0.706943
     18          1           0        1.309500    1.867823   -0.900655
     19          1           0        0.182267    2.713532    0.197598
 ---------------------------------------------------------------------
                    Distance matrix (angstroms):
                    1          2          3          4          5
     1  B    0.000000
     2  F    1.383862   0.000000
     3  F    1.388690   2.311498   0.000000
     4  F    1.385036   2.297361   2.313405   0.000000
     5  O    1.600463   2.383060   2.394766   2.387406   0.000000
     6  C    2.645609   3.660977   3.331410   2.749487   1.469288
     7  C    3.753095   4.421008   4.681942   3.765727   2.439228
     8  C    2.622637   3.108160   2.843160   3.726432   1.469603
     9  C    3.110916   2.919660   3.360351   4.401910   2.471128
    10  H    3.248301   4.373379   3.519749   3.498767   2.073850
    11  H    2.573983   3.722640   3.277788   2.141827   2.055528
    12  H    4.605718   5.400181   5.447968   4.400708   3.380827
    13  H    3.728282   4.145915   4.889982   3.585061   2.703928
    14  H    4.243400   4.748881   5.085709   4.552371   2.730336
    15  H    2.855562   3.583218   2.540138   3.947209   2.073233
    16  H    3.511732   4.009604   3.847338   4.422531   2.047608
    17  H    4.135095   3.985358   4.181040   5.437846   3.389053
    18  H    3.391798   2.910772   4.006676   4.535179   2.701880
    19  H    2.865651   2.469300   2.894028   4.234843   2.825953
                    6          7          8          9         10
     6  C    0.000000
     7  C    1.510756   0.000000
     8  C    2.439331   3.197355   0.000000
     9  C    3.744889   4.262444   1.509542   0.000000
    10  H    1.095897   2.185040   2.467954   3.955574   0.000000
    11  H    1.089586   2.165056   3.290962   4.515169   1.779737
    12  H    2.130375   1.097467   4.115114   5.290618   2.510930
    13  H    2.154967   1.096237   3.689531   4.479241   3.088108
    14  H    2.175581   1.097087   2.985820   3.910800   2.549335
    15  H    2.815421   3.879278   1.096070   2.178186   2.485762
    16  H    2.448805   2.783004   1.093440   2.151872   2.331827
    17  H    4.499532   4.937255   2.113183   1.097563   4.507936
    18  H    3.916596   4.089515   2.158815   1.095913   4.353226
    19  H    4.243971   4.978892   2.173737   1.093746   4.492931
                   11         12         13         14         15
    11  H    0.000000
    12  H    2.500331   0.000000
    13  H    2.491823   1.781523   0.000000
    14  H    3.086758   1.775006   1.786643   0.000000
    15  H    3.518317   4.646280   4.501370   3.770561   0.000000
    16  H    3.491060   3.607101   3.454145   2.268174   1.787522
    17  H    5.365894   5.902695   5.277429   4.395679   2.522230
    18  H    4.682804   5.165802   4.085300   3.684535   3.085413
    19  H    4.817878   6.012179   5.102387   4.802046   2.506754
                   16         17         18         19
    16  H    0.000000
    17  H    2.421988   0.000000
    18  H    2.517955   1.780992   0.000000
    19  H    3.075661   1.777226   1.786628   0.000000
 Stoichiometry    C4H10BF3O
 Framework group  C1[X(C4H10BF3O)]
 Deg. of freedom    51
 Full point group                 C1      NOp   1
 Largest Abelian subgroup         C1      NOp   1
 Largest concise Abelian subgroup C1      NOp   1
                         Standard orientation:                         
 ---------------------------------------------------------------------
 Center     Atomic      Atomic             Coordinates (Angstroms)
 Number     Number       Type             X           Y           Z
 ---------------------------------------------------------------------
      1          5           0       -0.974346   -0.677535   -0.047784
      2          9           0       -1.620579   -0.179399   -1.165512
      3          9           0       -1.654917   -0.414383    1.133755
      4          9           0       -0.635917   -2.012783   -0.192367
      5          8           0        0.410074    0.120100    0.045158
      6          6           0        1.611655   -0.590298    0.503790
      7          6           0        2.741865   -0.372179   -0.474695
      8          6           0        0.359264    1.502662    0.540815
      9          6           0       -0.505248    2.385136   -0.326695
     10          1           0        1.839259   -0.218535    1.509265
     11          1           0        1.331527   -1.641282    0.568276
     12          1           0        3.624807   -0.914514   -0.113142
     13          1           0        2.473494   -0.760867   -1.463955
     14          1           0        3.009839    0.687736   -0.566194
     15          1           0        0.004427    1.457125    1.576859
     16          1           0        1.396325    1.848920    0.525978
     17          1           0       -0.385099    3.414531    0.034629
     18          1           0       -0.181859    2.342436   -1.372937
     19          1           0       -1.564094    2.118482   -0.263294
 ---------------------------------------------------------------------
 Rotational constants (GHZ):           1.7520007           1.4117154           1.0033957
 Standard basis: Aug-CC-pVDZ (5D, 7F)
 There are   315 symmetry adapted cartesian basis functions of A   symmetry.
 There are   297 symmetry adapted basis functions of A   symmetry.
   297 basis functions,   497 primitive gaussians,   315 cartesian basis functions
    37 alpha electrons       37 beta electrons
       nuclear repulsion energy       523.6334913584 Hartrees.
 NAtoms=   19 NActive=   19 NUniq=   19 SFac= 1.00D+00 NAtFMM=   60 NAOKFM=F Big=F
 Integral buffers will be    131072 words long.
 Raffenetti 2 integral format.
 Two-electron integral symmetry is turned on.
 Nuclear repulsion after empirical dispersion term =      523.6214452472 Hartrees.
 Force PCM accuracy= 1.00D-12.
 ------------------------------------------------------------------------------
 Polarizable Continuum Model (PCM)
 =================================
 Model                : C-PCM.
 Atomic radii         : UFF (Universal Force Field).
 Polarization charges : Total charges.
 Charge compensation  : None.
 Solution method      : On-the-fly selection.
 Cavity type          : Scaled VdW (van der Waals Surface) (Alpha=1.100).
 Cavity algorithm     : GePol (No added spheres)
                        Default sphere list used, NSphG=   19.
                        Lebedev-Laikov grids with approx.  5.0 points / Ang**2.
                        Smoothing algorithm: York/Karplus (Gamma=1.0000).
                        Polarization charges: spherical gaussians, with
                                              point-specific exponents (IZeta= 3).
                        Self-potential: point-specific (ISelfS= 7).
                        Self-field    : sphere-specific E.n sum rule (ISelfD= 2).
 1st derivatives      : Analytical E(r).r(x)/FMM algorithm (CHGder, D1EAlg=3).
                        Cavity 1st derivative terms included.
 Solvent              : TetraHydroFuran, Eps=   7.425700 Eps(inf)=   1.974025
 ------------------------------------------------------------------------------
 Spheres list:
 ISph  on   Nord     Re0    Alpha      Xe            Ye            Ze
    1   B      1    2.0415  1.100     -0.974346     -0.677535     -0.047784
    2   F      2    1.6820  1.100     -1.620579     -0.179399     -1.165512
    3   F      3    1.6820  1.100     -1.654917     -0.414383      1.133755
    4   F      4    1.6820  1.100     -0.635917     -2.012783     -0.192367
    5   O      5    1.7500  1.100      0.410074      0.120100      0.045158
    6   C      6    1.9255  1.100      1.611655     -0.590298      0.503790
    7   C      7    1.9255  1.100      2.741865     -0.372179     -0.474695
    8   C      8    1.9255  1.100      0.359264      1.502662      0.540815
    9   C      9    1.9255  1.100     -0.505248      2.385136     -0.326695
   10   H     10    1.4430  1.100      1.839259     -0.218535      1.509265
   11   H     11    1.4430  1.100      1.331527     -1.641282      0.568276
   12   H     12    1.4430  1.100      3.624807     -0.914514     -0.113142
   13   H     13    1.4430  1.100      2.473494     -0.760867     -1.463955
   14   H     14    1.4430  1.100      3.009839      0.687736     -0.566194
   15   H     15    1.4430  1.100      0.004427      1.457125      1.576859
   16   H     16    1.4430  1.100      1.396325      1.848920      0.525978
   17   H     17    1.4430  1.100     -0.385099      3.414531      0.034629
   18   H     18    1.4430  1.100     -0.181859      2.342436     -1.372937
   19   H     19    1.4430  1.100     -1.564094      2.118482     -0.263294
 ------------------------------------------------------------------------------
 One-electron integrals computed using PRISM.
 NBasis=   297 RedAO= T EigKep=  2.72D-05  NBF=   297
 NBsUse=   297 1.00D-06 EigRej= -1.00D+00 NBFU=   297
 Initial guess from the checkpoint file:  "/inspire/hdd/project/materialscienceresearch/lipenghui-253107030018/g16/00-B-DFT-Shift/04-output/BF3OEt2_THF/BF3OEt2_THF.chk"
 B after Tr=    -0.000000   -0.000000   -0.000000
         Rot=    0.999996    0.000880    0.000261   -0.002589 Ang=   0.31 deg.
 ExpMin= 2.38D-02 ExpMax= 1.47D+04 ExpMxC= 5.03D+02 IAcc=3 IRadAn=         5 AccDes= 0.00D+00
 Harris functional with IExCor= 4639 and IRadAn=       5 diagonalized for initial guess.
 HarFok:  IExCor= 4639 AccDes= 0.00D+00 IRadAn=         5 IDoV= 1 UseB2=F ITyADJ=14
 ICtDFT=  3500011 ScaDFX=  1.000000  1.000000  1.000000  1.000000
 FoFCou: FMM=F IPFlag=           0 FMFlag=      100000 FMFlg1=           0
         NFxFlg=           0 DoJE=T BraDBF=F KetDBF=T FulRan=T
         wScrn=  0.000000 ICntrl=       500 IOpCl=  0 I1Cent=   200000004 NGrid=           0
         NMat0=    1 NMatS0=      1 NMatT0=    0 NMatD0=    1 NMtDS0=    0 NMtDT0=    0
 Petite list used in FoFCou.
 Requested convergence on RMS density matrix=1.00D-08 within 128 cycles.
 Requested convergence on MAX density matrix=1.00D-06.
 Requested convergence on             energy=1.00D-06.
 No special actions if energy rises.
 Inv3:  Mode=1 IEnd=     7022700.
 Iteration    1 A*A^-1 deviation from unit magnitude is 6.22D-15 for   1524.
 Iteration    1 A*A^-1 deviation from orthogonality  is 2.10D-15 for   1514   1264.
 Iteration    1 A^-1*A deviation from unit magnitude is 6.22D-15 for   1524.
 Iteration    1 A^-1*A deviation from orthogonality  is 1.70D-15 for   1330    369.
 Error on total polarization charges =  0.00990
 SCF Done:  E(RwB97XD) =  -558.150329372     A.U. after    8 cycles
            NFock=  8  Conv=0.79D-08     -V/T= 2.0060
 D1PCM: C-PCM CHGder 1st derivatives, ID1Alg=3 FixD1E=F DoIter=F DoCFld=F I1PDM=0.
 Calling FoFJK, ICntrl=      2127 FMM=F ISym2X=0 I1Cent= 0 IOpClX= 0 NMat=1 NMatS=1 NMatT=0.
 ***** Axes restored to original set *****
 -------------------------------------------------------------------
 Center     Atomic                   Forces (Hartrees/Bohr)
 Number     Number              X              Y              Z
 -------------------------------------------------------------------
      1        5           0.000150951   -0.000024525   -0.000095695
      2        9          -0.000018635   -0.000026412    0.000026983
      3        9           0.000029415    0.000011428   -0.000026318
      4        9          -0.000007850    0.000017667    0.000011555
      5        8          -0.000081927    0.000072489    0.000162079
      6        6          -0.000012765    0.000004214   -0.000028508
      7        6           0.000030474   -0.000056238   -0.000010603
      8        6          -0.000086424   -0.000055952   -0.000083302
      9        6           0.000006043    0.000063145    0.000005690
     10        1           0.000015589    0.000000900   -0.000023398
     11        1           0.000010282    0.000007643    0.000062422
     12        1          -0.000035569    0.000023689   -0.000003930
     13        1           0.000009721   -0.000003318   -0.000001653
     14        1          -0.000016371    0.000063975   -0.000013666
     15        1           0.000018717   -0.000034016    0.000025217
     16        1           0.000025798   -0.000011699   -0.000020949
     17        1          -0.000019451   -0.000044202    0.000011493
     18        1          -0.000017828    0.000008014    0.000009826
     19        1          -0.000000168   -0.000016803   -0.000007244
 -------------------------------------------------------------------
 Cartesian Forces:  Max     0.000162079 RMS     0.000045798

 GradGradGradGradGradGradGradGradGradGradGradGradGradGradGradGradGradGrad
 Berny optimization.
 Using GEDIIS/GDIIS optimizer.
 FormGI is forming the generalized inverse of G from B-inverse, IUseBI=4.
 Internal  Forces:  Max     0.000136064 RMS     0.000036261
 Search for a local minimum.
 Step number  17 out of a maximum of   97
 All quantities printed in internal units (Hartrees-Bohrs-Radians)
 Mixed Optimization -- En-DIIS/RFO-DIIS
 Swapping is turned off.
 Update second derivatives using D2CorX and points   10   11   12   13   14
                                                     15   16   17
 DE= -2.89D-06 DEPred=-3.10D-06 R= 9.30D-01
 TightC=F SS=  1.41D+00  RLast= 2.41D-02 DXNew= 1.4949D+00 7.2347D-02
 Trust test= 9.30D-01 RLast= 2.41D-02 DXMaxT set to 8.89D-01
 ITU=  1  1  1  1  1  1  1 -1  1  1  1  1  1  1  1  1  0
     Eigenvalues ---    0.00199   0.00256   0.00296   0.00724   0.01432
     Eigenvalues ---    0.01922   0.04546   0.05060   0.05132   0.05260
     Eigenvalues ---    0.05419   0.05715   0.05879   0.05923   0.08295
     Eigenvalues ---    0.09666   0.10226   0.12780   0.12917   0.13026
     Eigenvalues ---    0.13453   0.15985   0.16012   0.16029   0.16074
     Eigenvalues ---    0.16497   0.17767   0.21072   0.22382   0.24443
     Eigenvalues ---    0.25322   0.25465   0.28329   0.28382   0.28670
     Eigenvalues ---    0.28779   0.30833   0.31877   0.31908   0.32042
     Eigenvalues ---    0.32119   0.32153   0.32196   0.32207   0.32355
     Eigenvalues ---    0.33037   0.34124   0.37996   0.39304   0.41881
     Eigenvalues ---    0.55158
 En-DIIS/RFO-DIIS/Sim-DIIS IScMMF=       -3 using points:    17   16   15   14   13   12   11
 RFO step:  Lambda=-6.18467318D-06.
 DidBck=F Rises=F RFO-DIIS coefs:    2.55943   -2.00000    0.30522    0.27008   -0.20120
                  RFO-DIIS coefs:    0.03586    0.03061
 Iteration  1 RMS(Cart)=  0.01089258 RMS(Int)=  0.00004368
 Iteration  2 RMS(Cart)=  0.00005807 RMS(Int)=  0.00000646
 Iteration  3 RMS(Cart)=  0.00000000 RMS(Int)=  0.00000646
 Variable       Old X    -DE/DX   Delta X   Delta X   Delta X     New X
                                 (Linear)    (Quad)   (Total)
    R1        2.61512  -0.00004  -0.00013   0.00003  -0.00010   2.61502
    R2        2.62424  -0.00003  -0.00008   0.00012   0.00004   2.62428
    R3        2.61734  -0.00001  -0.00006   0.00002  -0.00004   2.61730
    R4        3.02444  -0.00014  -0.00079  -0.00071  -0.00150   3.02294
    R5        2.77655  -0.00004  -0.00052  -0.00011  -0.00064   2.77592
    R6        2.77715  -0.00013  -0.00115  -0.00057  -0.00173   2.77542
    R7        2.85492  -0.00000   0.00001  -0.00005  -0.00004   2.85488
    R8        2.07094  -0.00002  -0.00005  -0.00007  -0.00012   2.07082
    R9        2.05902  -0.00002   0.00005  -0.00007  -0.00002   2.05900
   R10        2.07391  -0.00002   0.00008  -0.00006   0.00003   2.07394
   R11        2.07159  -0.00001   0.00001  -0.00005  -0.00004   2.07155
   R12        2.07319   0.00001   0.00003  -0.00000   0.00003   2.07322
   R13        2.85262  -0.00000   0.00002   0.00012   0.00014   2.85276
   R14        2.07127   0.00001   0.00014   0.00001   0.00015   2.07142
   R15        2.06630   0.00003   0.00008   0.00005   0.00013   2.06643
   R16        2.07409  -0.00003  -0.00002  -0.00005  -0.00007   2.07402
   R17        2.07097  -0.00002  -0.00002  -0.00007  -0.00009   2.07089
   R18        2.06688  -0.00001   0.00001   0.00001   0.00003   2.06691
    A1        1.97158  -0.00001   0.00011  -0.00020  -0.00008   1.97149
    A2        1.95715  -0.00001  -0.00002  -0.00024  -0.00025   1.95689
    A3        1.84569   0.00001   0.00016   0.00035   0.00051   1.84621
    A4        1.97279   0.00001   0.00025  -0.00002   0.00023   1.97302
    A5        1.85467  -0.00002  -0.00048   0.00006  -0.00042   1.85425
    A6        1.84955   0.00004  -0.00010   0.00013   0.00003   1.84958
    A7        2.07667   0.00011   0.00049   0.00179   0.00230   2.07897
    A8        2.04715   0.00001   0.00083   0.00157   0.00243   2.04958
    A9        1.95828  -0.00011   0.00006   0.00041   0.00050   1.95878
   A10        1.91753  -0.00006   0.00025  -0.00039  -0.00015   1.91738
   A11        1.86734   0.00001  -0.00002  -0.00035  -0.00037   1.86698
   A12        1.84896   0.00003   0.00059   0.00048   0.00106   1.85002
   A13        1.97131   0.00001  -0.00025  -0.00018  -0.00042   1.97089
   A14        1.94973   0.00004  -0.00027   0.00063   0.00037   1.95010
   A15        1.90319  -0.00002  -0.00025  -0.00019  -0.00043   1.90276
   A16        1.89352  -0.00002  -0.00018   0.00017  -0.00001   1.89351
   A17        1.92851   0.00003   0.00000   0.00008   0.00008   1.92860
   A18        1.95653  -0.00005   0.00009  -0.00061  -0.00052   1.95601
   A19        1.89551   0.00000  -0.00015   0.00013  -0.00001   1.89550
   A20        1.88430   0.00005   0.00004   0.00030   0.00033   1.88463
   A21        1.90402  -0.00000   0.00018  -0.00004   0.00014   1.90416
   A22        1.95622   0.00003   0.00026   0.00049   0.00075   1.95697
   A23        1.86597  -0.00001   0.00044  -0.00005   0.00039   1.86636
   A24        1.83438  -0.00002   0.00047  -0.00027   0.00019   1.83457
   A25        1.96286  -0.00001  -0.00055  -0.00015  -0.00070   1.96216
   A26        1.92863   0.00001  -0.00035  -0.00008  -0.00042   1.92821
   A27        1.91031  -0.00000  -0.00020   0.00005  -0.00014   1.91017
   A28        1.87172  -0.00006  -0.00006  -0.00020  -0.00026   1.87146
   A29        1.93571   0.00002   0.00009   0.00011   0.00020   1.93591
   A30        1.95907  -0.00000   0.00009   0.00003   0.00012   1.95918
   A31        1.89497   0.00002   0.00009   0.00007   0.00016   1.89513
   A32        1.89183   0.00003  -0.00021  -0.00006  -0.00027   1.89156
   A33        1.90870  -0.00001  -0.00001   0.00004   0.00004   1.90874
    D1       -2.50403  -0.00000   0.00344   0.00697   0.01040  -2.49363
    D2        1.32654   0.00002   0.00113   0.00120   0.00233   1.32887
    D3        1.67951   0.00002   0.00346   0.00699   0.01045   1.68995
    D4       -0.77311   0.00004   0.00115   0.00122   0.00238  -0.77073
    D5       -0.42349   0.00001   0.00346   0.00692   0.01037  -0.41312
    D6       -2.87611   0.00003   0.00115   0.00115   0.00230  -2.87380
    D7        2.25000  -0.00002  -0.00591  -0.01414  -0.02004   2.22996
    D8       -1.88732  -0.00004  -0.00607  -0.01481  -0.02087  -1.90820
    D9        0.14141  -0.00005  -0.00607  -0.01496  -0.02103   0.12038
   D10       -1.54792   0.00000  -0.00345  -0.00825  -0.01170  -1.55961
   D11        0.59794  -0.00002  -0.00361  -0.00892  -0.01253   0.58541
   D12        2.62668  -0.00002  -0.00361  -0.00907  -0.01269   2.61399
   D13       -1.04992   0.00008   0.00547   0.00597   0.01144  -1.03847
   D14        1.10846   0.00007   0.00526   0.00605   0.01131   1.11977
   D15        3.13774   0.00006   0.00546   0.00596   0.01142  -3.13403
   D16        2.73599   0.00002   0.00320   0.00009   0.00328   2.73928
   D17       -1.38882   0.00001   0.00298   0.00017   0.00316  -1.38566
   D18        0.64046  -0.00000   0.00318   0.00008   0.00326   0.64372
   D19       -3.13778  -0.00002  -0.00014  -0.00219  -0.00233  -3.14011
   D20       -1.06160  -0.00002  -0.00042  -0.00188  -0.00230  -1.06390
   D21        1.06623  -0.00004  -0.00012  -0.00230  -0.00242   1.06382
   D22        1.06207   0.00001  -0.00012  -0.00137  -0.00149   1.06058
   D23        3.13824   0.00001  -0.00040  -0.00105  -0.00146   3.13678
   D24       -1.01711  -0.00001  -0.00011  -0.00147  -0.00158  -1.01869
   D25       -1.09109   0.00001   0.00057  -0.00146  -0.00088  -1.09197
   D26        0.98509   0.00001   0.00029  -0.00115  -0.00086   0.98423
   D27        3.11292  -0.00001   0.00059  -0.00157  -0.00097   3.11195
   D28       -3.01715  -0.00000  -0.00037  -0.00063  -0.00099  -3.01814
   D29       -0.95073  -0.00000  -0.00024  -0.00060  -0.00084  -0.95157
   D30        1.19012  -0.00000  -0.00012  -0.00045  -0.00056   1.18956
   D31        1.16300  -0.00000  -0.00073  -0.00081  -0.00154   1.16146
   D32       -3.05377  -0.00000  -0.00060  -0.00078  -0.00139  -3.05516
   D33       -0.91292  -0.00000  -0.00048  -0.00063  -0.00111  -0.91403
   D34       -0.97747   0.00000   0.00015  -0.00071  -0.00055  -0.97802
   D35        1.08895   0.00001   0.00028  -0.00068  -0.00041   1.08855
   D36       -3.05338   0.00000   0.00040  -0.00053  -0.00012  -3.05351
         Item               Value     Threshold  Converged?
 Maximum Force            0.000136     0.000450     YES
 RMS     Force            0.000036     0.000300     YES
 Maximum Displacement     0.037125     0.001800     NO 
 RMS     Displacement     0.010900     0.001200     NO 
 Predicted change in Energy=-2.894813D-06
 GradGradGradGradGradGradGradGradGradGradGradGradGradGradGradGradGradGrad

                          Input orientation:                          
 ---------------------------------------------------------------------
 Center     Atomic      Atomic             Coordinates (Angstroms)
 Number     Number       Type             X           Y           Z
 ---------------------------------------------------------------------
      1          5           0       -1.779410    0.666492   -0.208690
      2          9           0       -1.570859    1.633253   -1.176575
      3          9           0       -2.129592    1.201053    1.024248
      4          9           0       -2.649369   -0.322070   -0.637860
      5          8           0       -0.365474   -0.051838    0.000433
      6          6           0       -0.328821   -1.499267    0.248272
      7          6           0        0.620556   -2.162181   -0.722064
      8          6           0        0.652451    0.670388    0.774555
      9          6           0        1.003642    1.999729    0.151288
     10          1           0       -0.034682   -1.637214    1.294837
     11          1           0       -1.351244   -1.852346    0.117278
     12          1           0        0.629504   -3.240575   -0.518470
     13          1           0        0.287021   -2.003907   -1.754242
     14          1           0        1.646603   -1.788795   -0.615094
     15          1           0        0.262959    0.776280    1.793684
     16          1           0        1.524282    0.010416    0.784794
     17          1           0        1.852166    2.408768    0.714542
     18          1           0        1.306698    1.873792   -0.894284
     19          1           0        0.177107    2.714002    0.205762
 ---------------------------------------------------------------------
                    Distance matrix (angstroms):
                    1          2          3          4          5
     1  B    0.000000
     2  F    1.383807   0.000000
     3  F    1.388711   2.311407   0.000000
     4  F    1.385017   2.297104   2.313585   0.000000
     5  O    1.599670   2.382820   2.393751   2.386760   0.000000
     6  C    2.646419   3.658624   3.337161   2.748812   1.468951
     7  C    3.744968   4.406155   4.682336   3.753067   2.438813
     8  C    2.623115   3.110808   2.843187   3.725843   1.468688
     9  C    3.106844   2.919859   3.349193   4.399772   2.471065
    10  H    3.257565   4.377633   3.538026   3.507352   2.073239
    11  H    2.575680   3.724472   3.278974   2.144087   2.056022
    12  H    4.600435   5.387847   5.451665   4.391234   3.380427
    13  H    3.713476   4.124846   4.881782   3.563324   2.704665
    14  H    4.234520   4.730511   5.087856   4.539513   2.728433
    15  H    2.862311   3.594403   2.548875   3.949739   2.072789
    16  H    3.511670   4.007552   3.850422   4.421975   2.047017
    17  H    4.132339   3.986834   4.172396   5.436018   3.388578
    18  H    3.384033   2.901359   3.992672   4.531891   2.702726
    19  H    2.862172   2.476744   2.877464   4.233014   2.826026
                    6          7          8          9         10
     6  C    0.000000
     7  C    1.510736   0.000000
     8  C    2.438702   3.203800   0.000000
     9  C    3.745375   4.269777   1.509618   0.000000
    10  H    1.095832   2.184679   2.463304   3.951351   0.000000
    11  H    1.089575   2.165292   3.288008   4.514989   1.779400
    12  H    2.130360   1.097481   4.119231   5.296163   2.509979
    13  H    2.154991   1.096215   3.698677   4.491513   3.087854
    14  H    2.175207   1.097102   2.994502   3.918373   2.549026
    15  H    2.813648   3.884767   1.096148   2.177821   2.482416
    16  H    2.449692   2.794194   1.093507   2.151689   2.324908
    17  H    4.499650   4.947148   2.113028   1.097525   4.501878
    18  H    3.918913   4.097503   2.158992   1.095866   4.349565
    19  H    4.243749   4.983439   2.173899   1.093761   4.490436
                   11         12         13         14         15
    11  H    0.000000
    12  H    2.500943   0.000000
    13  H    2.491881   1.781509   0.000000
    14  H    3.086664   1.775244   1.786728   0.000000
    15  H    3.510793   4.649250   4.507527   3.781043   0.000000
    16  H    3.490575   3.614978   3.469153   2.282939   1.787552
    17  H    5.364295   5.910185   5.293040   4.407915   2.520941
    18  H    4.687432   5.172676   4.100710   3.688905   3.085303
    19  H    4.816142   6.015493   5.110026   4.807120   2.506718
                   16         17         18         19
    16  H    0.000000
    17  H    2.421680   0.000000
    18  H    2.517700   1.781026   0.000000
    19  H    3.075636   1.777033   1.786625   0.000000
 Stoichiometry    C4H10BF3O
 Framework group  C1[X(C4H10BF3O)]
 Deg. of freedom    51
 Full point group                 C1      NOp   1
 Largest Abelian subgroup         C1      NOp   1
 Largest concise Abelian subgroup C1      NOp   1
                         Standard orientation:                         
 ---------------------------------------------------------------------
 Center     Atomic      Atomic             Coordinates (Angstroms)
 Number     Number       Type             X           Y           Z
 ---------------------------------------------------------------------
      1          5           0       -0.963442   -0.688436   -0.047265
      2          9           0       -1.607760   -0.206962   -1.173302
      3          9           0       -1.656251   -0.425580    1.127231
      4          9           0       -0.606673   -2.020129   -0.179855
      5          8           0        0.409082    0.127349    0.050796
      6          6           0        1.620519   -0.564549    0.510703
      7          6           0        2.741087   -0.350354   -0.479637
      8          6           0        0.340440    1.510997    0.538497
      9          6           0       -0.540978    2.376620   -0.329112
     10          1           0        1.852238   -0.174766    1.508311
     11          1           0        1.351723   -1.617130    0.594345
     12          1           0        3.632625   -0.876813   -0.115679
     13          1           0        2.469975   -0.758389   -1.460296
     14          1           0        2.996092    0.710934   -0.590419
     15          1           0       -0.008774    1.466685    1.576585
     16          1           0        1.372225    1.872520    0.516642
     17          1           0       -0.434302    3.409209    0.027175
     18          1           0       -0.221951    2.333917   -1.376643
     19          1           0       -1.595558    2.094986   -0.259440
 ---------------------------------------------------------------------
 Rotational constants (GHZ):           1.7501566           1.4143677           1.0047605
 Standard basis: Aug-CC-pVDZ (5D, 7F)
 There are   315 symmetry adapted cartesian basis functions of A   symmetry.
 There are   297 symmetry adapted basis functions of A   symmetry.
   297 basis functions,   497 primitive gaussians,   315 cartesian basis functions
    37 alpha electrons       37 beta electrons
       nuclear repulsion energy       523.7321643753 Hartrees.
 NAtoms=   19 NActive=   19 NUniq=   19 SFac= 1.00D+00 NAtFMM=   60 NAOKFM=F Big=F
 Integral buffers will be    131072 words long.
 Raffenetti 2 integral format.
 Two-electron integral symmetry is turned on.
 Nuclear repulsion after empirical dispersion term =      523.7201076691 Hartrees.
 Force PCM accuracy= 1.00D-12.
 ------------------------------------------------------------------------------
 Polarizable Continuum Model (PCM)
 =================================
 Model                : C-PCM.
 Atomic radii         : UFF (Universal Force Field).
 Polarization charges : Total charges.
 Charge compensation  : None.
 Solution method      : On-the-fly selection.
 Cavity type          : Scaled VdW (van der Waals Surface) (Alpha=1.100).
 Cavity algorithm     : GePol (No added spheres)
                        Default sphere list used, NSphG=   19.
                        Lebedev-Laikov grids with approx.  5.0 points / Ang**2.
                        Smoothing algorithm: York/Karplus (Gamma=1.0000).
                        Polarization charges: spherical gaussians, with
                                              point-specific exponents (IZeta= 3).
                        Self-potential: point-specific (ISelfS= 7).
                        Self-field    : sphere-specific E.n sum rule (ISelfD= 2).
 1st derivatives      : Analytical E(r).r(x)/FMM algorithm (CHGder, D1EAlg=3).
                        Cavity 1st derivative terms included.
 Solvent              : TetraHydroFuran, Eps=   7.425700 Eps(inf)=   1.974025
 ------------------------------------------------------------------------------
 Spheres list:
 ISph  on   Nord     Re0    Alpha      Xe            Ye            Ze
    1   B      1    2.0415  1.100     -0.963442     -0.688436     -0.047265
    2   F      2    1.6820  1.100     -1.607760     -0.206962     -1.173302
    3   F      3    1.6820  1.100     -1.656251     -0.425580      1.127231
    4   F      4    1.6820  1.100     -0.606673     -2.020129     -0.179855
    5   O      5    1.7500  1.100      0.409082      0.127349      0.050796
    6   C      6    1.9255  1.100      1.620519     -0.564549      0.510703
    7   C      7    1.9255  1.100      2.741087     -0.350354     -0.479637
    8   C      8    1.9255  1.100      0.340440      1.510997      0.538497
    9   C      9    1.9255  1.100     -0.540978      2.376620     -0.329112
   10   H     10    1.4430  1.100      1.852238     -0.174766      1.508311
   11   H     11    1.4430  1.100      1.351723     -1.617130      0.594345
   12   H     12    1.4430  1.100      3.632625     -0.876813     -0.115679
   13   H     13    1.4430  1.100      2.469975     -0.758389     -1.460296
   14   H     14    1.4430  1.100      2.996092      0.710934     -0.590419
   15   H     15    1.4430  1.100     -0.008774      1.466685      1.576585
   16   H     16    1.4430  1.100      1.372225      1.872520      0.516642
   17   H     17    1.4430  1.100     -0.434302      3.409209      0.027175
   18   H     18    1.4430  1.100     -0.221951      2.333917     -1.376643
   19   H     19    1.4430  1.100     -1.595558      2.094986     -0.259440
 ------------------------------------------------------------------------------
 One-electron integrals computed using PRISM.
 NBasis=   297 RedAO= T EigKep=  2.73D-05  NBF=   297
 NBsUse=   297 1.00D-06 EigRej= -1.00D+00 NBFU=   297
 Initial guess from the checkpoint file:  "/inspire/hdd/project/materialscienceresearch/lipenghui-253107030018/g16/00-B-DFT-Shift/04-output/BF3OEt2_THF/BF3OEt2_THF.chk"
 B after Tr=    -0.000000   -0.000000    0.000000
         Rot=    0.999978    0.002200    0.000454   -0.006161 Ang=   0.75 deg.
 ExpMin= 2.38D-02 ExpMax= 1.47D+04 ExpMxC= 5.03D+02 IAcc=3 IRadAn=         5 AccDes= 0.00D+00
 Harris functional with IExCor= 4639 and IRadAn=       5 diagonalized for initial guess.
 HarFok:  IExCor= 4639 AccDes= 0.00D+00 IRadAn=         5 IDoV= 1 UseB2=F ITyADJ=14
 ICtDFT=  3500011 ScaDFX=  1.000000  1.000000  1.000000  1.000000
 FoFCou: FMM=F IPFlag=           0 FMFlag=      100000 FMFlg1=           0
         NFxFlg=           0 DoJE=T BraDBF=F KetDBF=T FulRan=T
         wScrn=  0.000000 ICntrl=       500 IOpCl=  0 I1Cent=   200000004 NGrid=           0
         NMat0=    1 NMatS0=      1 NMatT0=    0 NMatD0=    1 NMtDS0=    0 NMtDT0=    0
 Petite list used in FoFCou.
 Requested convergence on RMS density matrix=1.00D-08 within 128 cycles.
 Requested convergence on MAX density matrix=1.00D-06.
 Requested convergence on             energy=1.00D-06.
 No special actions if energy rises.
 Inv3:  Mode=1 IEnd=     7059468.
 Iteration    1 A*A^-1 deviation from unit magnitude is 3.66D-15 for   1527.
 Iteration    1 A*A^-1 deviation from orthogonality  is 2.32D-15 for   1091    640.
 Iteration    1 A^-1*A deviation from unit magnitude is 3.66D-15 for   1527.
 Iteration    1 A^-1*A deviation from orthogonality  is 2.42D-15 for   1510   1153.
 Error on total polarization charges =  0.00990
 SCF Done:  E(RwB97XD) =  -558.150333477     A.U. after    9 cycles
            NFock=  9  Conv=0.75D-08     -V/T= 2.0060
 D1PCM: C-PCM CHGder 1st derivatives, ID1Alg=3 FixD1E=F DoIter=F DoCFld=F I1PDM=0.
 Calling FoFJK, ICntrl=      2127 FMM=F ISym2X=0 I1Cent= 0 IOpClX= 0 NMat=1 NMatS=1 NMatT=0.
 ***** Axes restored to original set *****
 -------------------------------------------------------------------
 Center     Atomic                   Forces (Hartrees/Bohr)
 Number     Number              X              Y              Z
 -------------------------------------------------------------------
      1        5           0.000075432    0.000008139   -0.000024366
      2        9           0.000009063    0.000032159   -0.000022685
      3        9          -0.000021671    0.000022554   -0.000002443
      4        9          -0.000029021   -0.000030112    0.000023893
      5        8          -0.000100817   -0.000053541   -0.000057223
      6        6          -0.000023240   -0.000145369   -0.000001413
      7        6           0.000005645   -0.000083862    0.000015974
      8        6           0.000141405    0.000184348    0.000124882
      9        6          -0.000022173    0.000040900    0.000000347
     10        1           0.000004903    0.000003608   -0.000014235
     11        1          -0.000031249    0.000034006    0.000044058
     12        1          -0.000014934    0.000023422   -0.000019086
     13        1           0.000019716    0.000011331   -0.000018248
     14        1          -0.000015831    0.000098601    0.000014222
     15        1           0.000014986   -0.000047044    0.000006524
     16        1           0.000019122   -0.000048090   -0.000060173
     17        1          -0.000003294   -0.000038682    0.000011418
     18        1          -0.000005187    0.000005407   -0.000002097
     19        1          -0.000022854   -0.000017773   -0.000019350
 -------------------------------------------------------------------
 Cartesian Forces:  Max     0.000184348 RMS     0.000052397

 GradGradGradGradGradGradGradGradGradGradGradGradGradGradGradGradGradGrad
 Berny optimization.
 Using GEDIIS/GDIIS optimizer.
 FormGI is forming the generalized inverse of G from B-inverse, IUseBI=4.
 Internal  Forces:  Max     0.000155283 RMS     0.000038514
 Search for a local minimum.
 Step number  18 out of a maximum of   97
 All quantities printed in internal units (Hartrees-Bohrs-Radians)
 Mixed Optimization -- En-DIIS/RFO-DIIS
 Swapping is turned off.
 Update second derivatives using D2CorX and points   10   11   12   13   14
                                                     15   16   17   18
 DE= -4.11D-06 DEPred=-2.89D-06 R= 1.42D+00
 TightC=F SS=  1.41D+00  RLast= 5.05D-02 DXNew= 1.4949D+00 1.5155D-01
 Trust test= 1.42D+00 RLast= 5.05D-02 DXMaxT set to 8.89D-01
 ITU=  1  1  1  1  1  1  1  1 -1  1  1  1  1  1  1  1  1  0
     Eigenvalues ---    0.00134   0.00251   0.00308   0.00547   0.01438
     Eigenvalues ---    0.01910   0.04539   0.05051   0.05131   0.05307
     Eigenvalues ---    0.05418   0.05706   0.05888   0.06041   0.08327
     Eigenvalues ---    0.09664   0.10441   0.12826   0.12921   0.13035
     Eigenvalues ---    0.13523   0.15987   0.16014   0.16042   0.16073
     Eigenvalues ---    0.16509   0.17732   0.21232   0.22413   0.24893
     Eigenvalues ---    0.25387   0.26449   0.28329   0.28397   0.28714
     Eigenvalues ---    0.28861   0.30940   0.31904   0.31931   0.32058
     Eigenvalues ---    0.32119   0.32153   0.32193   0.32206   0.32374
     Eigenvalues ---    0.33609   0.34921   0.38190   0.39319   0.43068
     Eigenvalues ---    0.58557
 En-DIIS/RFO-DIIS/Sim-DIIS IScMMF=       -3 using points:    18   17   16   15   14   13   12   11
 RFO step:  Lambda=-3.28368487D-06.
 DIIS inversion failure, remove point   8.
 DIIS inversion failure, remove point   7.
 DIIS inversion failure, remove point   6.
 DIIS inversion failure, remove point   5.
 DIIS inversion failure, remove point   4.
 RFO-DIIS uses    3 points instead of    8
 DidBck=F Rises=F RFO-DIIS coefs:    1.66590   -0.42241   -0.24350    0.00000    0.00000
                  RFO-DIIS coefs:    0.00000    0.00000    0.00000
 Iteration  1 RMS(Cart)=  0.00863874 RMS(Int)=  0.00002410
 Iteration  2 RMS(Cart)=  0.00003178 RMS(Int)=  0.00000396
 Iteration  3 RMS(Cart)=  0.00000000 RMS(Int)=  0.00000396
 Variable       Old X    -DE/DX   Delta X   Delta X   Delta X     New X
                                 (Linear)    (Quad)   (Total)
    R1        2.61502   0.00004  -0.00008   0.00008   0.00000   2.61502
    R2        2.62428   0.00001   0.00003  -0.00003  -0.00001   2.62428
    R3        2.61730   0.00003  -0.00003   0.00001  -0.00003   2.61728
    R4        3.02294  -0.00001  -0.00133   0.00012  -0.00121   3.02173
    R5        2.77592   0.00006  -0.00049   0.00013  -0.00036   2.77555
    R6        2.77542   0.00016  -0.00135   0.00037  -0.00098   2.77444
    R7        2.85488  -0.00002  -0.00005   0.00000  -0.00004   2.85483
    R8        2.07082  -0.00001  -0.00010   0.00004  -0.00006   2.07076
    R9        2.05900   0.00001  -0.00001   0.00006   0.00006   2.05906
   R10        2.07394  -0.00003   0.00004  -0.00003   0.00001   2.07395
   R11        2.07155   0.00001  -0.00003   0.00003  -0.00000   2.07154
   R12        2.07322   0.00002   0.00002   0.00001   0.00004   2.07326
   R13        2.85276  -0.00002   0.00009  -0.00008   0.00001   2.85277
   R14        2.07142  -0.00000   0.00011   0.00000   0.00012   2.07154
   R15        2.06643   0.00004   0.00010   0.00005   0.00015   2.06658
   R16        2.07402  -0.00001  -0.00005   0.00002  -0.00002   2.07400
   R17        2.07089  -0.00000  -0.00006  -0.00001  -0.00008   2.07081
   R18        2.06691   0.00001   0.00002   0.00005   0.00007   2.06698
    A1        1.97149  -0.00002  -0.00008   0.00009   0.00001   1.97150
    A2        1.95689   0.00002  -0.00019   0.00013  -0.00006   1.95683
    A3        1.84621  -0.00001   0.00042  -0.00008   0.00035   1.84655
    A4        1.97302  -0.00003   0.00020  -0.00012   0.00008   1.97310
    A5        1.85425   0.00006  -0.00036   0.00009  -0.00027   1.85398
    A6        1.84958  -0.00001   0.00001  -0.00012  -0.00011   1.84947
    A7        2.07897   0.00003   0.00179  -0.00012   0.00165   2.08062
    A8        2.04958   0.00000   0.00189  -0.00003   0.00185   2.05142
    A9        1.95878  -0.00002   0.00040   0.00011   0.00048   1.95926
   A10        1.91738  -0.00014  -0.00011  -0.00011  -0.00023   1.91715
   A11        1.86698   0.00004  -0.00029  -0.00000  -0.00029   1.86668
   A12        1.85002   0.00002   0.00084  -0.00030   0.00053   1.85055
   A13        1.97089   0.00001  -0.00030  -0.00001  -0.00031   1.97058
   A14        1.95010   0.00010   0.00023   0.00029   0.00052   1.95063
   A15        1.90276  -0.00003  -0.00032   0.00011  -0.00021   1.90255
   A16        1.89351   0.00003  -0.00002   0.00015   0.00013   1.89364
   A17        1.92860   0.00004   0.00004   0.00004   0.00008   1.92868
   A18        1.95601  -0.00013  -0.00033  -0.00023  -0.00057   1.95544
   A19        1.89550  -0.00001  -0.00002   0.00004   0.00001   1.89551
   A20        1.88463   0.00006   0.00021   0.00011   0.00032   1.88495
   A21        1.90416   0.00001   0.00015  -0.00010   0.00005   1.90421
   A22        1.95697  -0.00002   0.00052  -0.00006   0.00046   1.95743
   A23        1.86636   0.00000   0.00031  -0.00009   0.00021   1.86658
   A24        1.83457  -0.00003   0.00020  -0.00006   0.00014   1.83472
   A25        1.96216   0.00001  -0.00055   0.00001  -0.00054   1.96162
   A26        1.92821   0.00004  -0.00032   0.00010  -0.00022   1.92799
   A27        1.91017  -0.00000  -0.00010   0.00010  -0.00000   1.91016
   A28        1.87146  -0.00005  -0.00015  -0.00014  -0.00029   1.87117
   A29        1.93591   0.00001   0.00013   0.00002   0.00015   1.93606
   A30        1.95918  -0.00002   0.00009  -0.00006   0.00003   1.95921
   A31        1.89513   0.00002   0.00012   0.00001   0.00012   1.89525
   A32        1.89156   0.00004  -0.00023   0.00023  -0.00000   1.89156
   A33        1.90874  -0.00000   0.00003  -0.00004  -0.00001   1.90873
    D1       -2.49363   0.00002   0.00792   0.00067   0.00860  -2.48503
    D2        1.32887   0.00001   0.00164   0.00069   0.00233   1.33119
    D3        1.68995   0.00002   0.00797   0.00057   0.00854   1.69850
    D4       -0.77073   0.00001   0.00170   0.00058   0.00227  -0.76846
    D5       -0.41312   0.00003   0.00791   0.00072   0.00864  -0.40448
    D6       -2.87380   0.00001   0.00164   0.00074   0.00237  -2.87143
    D7        2.22996   0.00003  -0.01592   0.00208  -0.01384   2.21612
    D8       -1.90820  -0.00002  -0.01654   0.00200  -0.01454  -1.92274
    D9        0.12038  -0.00002  -0.01663   0.00197  -0.01466   0.10572
   D10       -1.55961   0.00005  -0.00943   0.00203  -0.00741  -1.56702
   D11        0.58541   0.00000  -0.01005   0.00194  -0.00810   0.57731
   D12        2.61399  -0.00000  -0.01014   0.00192  -0.00823   2.60576
   D13       -1.03847   0.00006   0.00827   0.00363   0.01190  -1.02658
   D14        1.11977   0.00006   0.00812   0.00354   0.01167   1.13144
   D15       -3.13403   0.00005   0.00824   0.00358   0.01182  -3.12221
   D16        2.73928   0.00003   0.00193   0.00372   0.00565   2.74493
   D17       -1.38566   0.00003   0.00178   0.00363   0.00541  -1.38025
   D18        0.64372   0.00001   0.00190   0.00368   0.00557   0.64929
   D19       -3.14011  -0.00002  -0.00186   0.00029  -0.00157   3.14151
   D20       -1.06390   0.00001  -0.00188   0.00045  -0.00143  -1.06533
   D21        1.06382  -0.00004  -0.00190   0.00020  -0.00170   1.06212
   D22        1.06058   0.00002  -0.00122   0.00038  -0.00084   1.05974
   D23        3.13678   0.00004  -0.00124   0.00054  -0.00070   3.13609
   D24       -1.01869  -0.00000  -0.00126   0.00029  -0.00097  -1.01966
   D25       -1.09197  -0.00002  -0.00075   0.00002  -0.00073  -1.09271
   D26        0.98423   0.00001  -0.00077   0.00018  -0.00059   0.98364
   D27        3.11195  -0.00004  -0.00079  -0.00007  -0.00086   3.11109
   D28       -3.01814   0.00001  -0.00080  -0.00266  -0.00346  -3.02160
   D29       -0.95157   0.00000  -0.00068  -0.00273  -0.00340  -0.95498
   D30        1.18956  -0.00000  -0.00047  -0.00282  -0.00329   1.18627
   D31        1.16146   0.00001  -0.00118  -0.00251  -0.00368   1.15777
   D32       -3.05516   0.00001  -0.00105  -0.00257  -0.00363  -3.05879
   D33       -0.91403   0.00000  -0.00085  -0.00266  -0.00351  -0.91754
   D34       -0.97802  -0.00002  -0.00043  -0.00271  -0.00314  -0.98116
   D35        1.08855  -0.00002  -0.00030  -0.00278  -0.00308   1.08547
   D36       -3.05351  -0.00003  -0.00010  -0.00287  -0.00296  -3.05647
         Item               Value     Threshold  Converged?
 Maximum Force            0.000155     0.000450     YES
 RMS     Force            0.000039     0.000300     YES
 Maximum Displacement     0.025883     0.001800     NO 
 RMS     Displacement     0.008643     0.001200     NO 
 Predicted change in Energy=-1.624459D-06
 GradGradGradGradGradGradGradGradGradGradGradGradGradGradGradGradGradGrad

                          Input orientation:                          
 ---------------------------------------------------------------------
 Center     Atomic      Atomic             Coordinates (Angstroms)
 Number     Number       Type             X           Y           Z
 ---------------------------------------------------------------------
      1          5           0       -1.774567    0.666057   -0.215210
      2          9           0       -1.562126    1.624934   -1.190070
      3          9           0       -2.126896    1.210724    1.012679
      4          9           0       -2.644981   -0.324443   -0.638909
      5          8           0       -0.363042   -0.052777    0.003356
      6          6           0       -0.326479   -1.499884    0.251946
      7          6           0        0.614963   -2.164432   -0.724945
      8          6           0        0.654357    0.670159    0.776520
      9          6           0        0.999881    2.002668    0.156848
     10          1           0       -0.024167   -1.637156    1.296237
     11          1           0       -1.350298   -1.852126    0.129638
     12          1           0        0.625477   -3.242537   -0.519869
     13          1           0        0.273325   -2.007617   -1.754690
     14          1           0        1.641701   -1.790564   -0.626419
     15          1           0        0.267494    0.771991    1.797129
     16          1           0        1.528482    0.013045    0.782413
     17          1           0        1.846340    2.413752    0.721698
     18          1           0        1.303875    1.880973   -0.888911
     19          1           0        0.170201    2.713214    0.212976
 ---------------------------------------------------------------------
                    Distance matrix (angstroms):
                    1          2          3          4          5
     1  B    0.000000
     2  F    1.383809   0.000000
     3  F    1.388708   2.311414   0.000000
     4  F    1.385002   2.297046   2.313632   0.000000
     5  O    1.599030   2.382600   2.392980   2.386117   0.000000
     6  C    2.646978   3.656599   3.341798   2.747860   1.468758
     7  C    3.739165   4.394924   4.682821   3.744356   2.438443
     8  C    2.623589   3.113177   2.843124   3.725360   1.468169
     9  C    3.102019   2.919033   3.337118   4.397010   2.471027
    10  H    3.263918   4.380442   3.551380   3.512360   2.072832
    11  H    2.576852   3.725110   3.280841   2.144920   2.056278
    12  H    4.596753   5.378387   5.454888   4.384671   3.380163
    13  H    3.703025   4.108906   4.876178   3.548880   2.705012
    14  H    4.227880   4.716762   5.088881   4.530487   2.726814
    15  H    2.868927   3.605327   2.557529   3.952083   2.072544
    16  H    3.511668   4.005089   3.853473   4.421748   2.046735
    17  H    4.128341   3.986820   4.161556   5.433316   3.388384
    18  H    3.377380   2.893132   3.979380   4.529881   2.704467
    19  H    2.855927   2.480695   2.858961   4.228277   2.824712
                    6          7          8          9         10
     6  C    0.000000
     7  C    1.510713   0.000000
     8  C    2.438504   3.207936   0.000000
     9  C    3.746485   4.276733   1.509623   0.000000
    10  H    1.095801   2.184418   2.460528   3.949076   0.000000
    11  H    1.089605   2.165664   3.286186   4.514811   1.779267
    12  H    2.130436   1.097486   4.121971   5.301915   2.509487
    13  H    2.155028   1.096214   3.704416   4.501583   3.087701
    14  H    2.174800   1.097121   2.999708   3.926074   2.548580
    15  H    2.811016   3.886408   1.096209   2.177494   2.477892
    16  H    2.451781   2.801437   1.093585   2.151593   2.323337
    17  H    4.500928   4.956695   2.112805   1.097514   4.498749
    18  H    3.922984   4.106919   2.159075   1.095825   4.349230
    19  H    4.242453   4.986877   2.173952   1.093798   4.487422
                   11         12         13         14         15
    11  H    0.000000
    12  H    2.501758   0.000000
    13  H    2.492192   1.781522   0.000000
    14  H    3.086661   1.775468   1.786774   0.000000
    15  H    3.504821   4.648985   4.510175   3.785330   0.000000
    16  H    3.491755   3.620796   3.477842   2.291425   1.787663
    17  H    5.363464   5.918242   5.306164   4.419906   2.518865
    18  H    4.692345   5.181387   4.114941   3.696379   3.085245
    19  H    4.812608   6.017916   5.115525   4.811852   2.507460
                   16         17         18         19
    16  H    0.000000
    17  H    2.422419   0.000000
    18  H    2.516531   1.781062   0.000000
    19  H    3.075728   1.777053   1.786615   0.000000
 Stoichiometry    C4H10BF3O
 Framework group  C1[X(C4H10BF3O)]
 Deg. of freedom    51
 Full point group                 C1      NOp   1
 Largest Abelian subgroup         C1      NOp   1
 Largest concise Abelian subgroup C1      NOp   1
                         Standard orientation:                         
 ---------------------------------------------------------------------
 Center     Atomic      Atomic             Coordinates (Angstroms)
 Number     Number       Type             X           Y           Z
 ---------------------------------------------------------------------
      1          5           0       -0.953911   -0.697755   -0.046744
      2          9           0       -1.596836   -0.230739   -1.179648
      3          9           0       -1.656501   -0.435012    1.121949
      4          9           0       -0.581642   -2.026207   -0.168660
      5          8           0        0.408431    0.133307    0.054513
      6          6           0        1.628032   -0.542958    0.515481
      7          6           0        2.741409   -0.329538   -0.483067
      8          6           0        0.324738    1.517947    0.535437
      9          6           0       -0.573894    2.367832   -0.330079
     10          1           0        1.861543   -0.139746    1.507284
     11          1           0        1.369178   -1.596885    0.612794
     12          1           0        3.640005   -0.842808   -0.117617
     13          1           0        2.469431   -0.751681   -1.457494
     14          1           0        2.984821    0.732992   -0.607388
     15          1           0       -0.017012    1.474639    1.576113
     16          1           0        1.351484    1.893153    0.504758
     17          1           0       -0.480760    3.402787    0.023094
     18          1           0       -0.259653    2.327068   -1.379090
     19          1           0       -1.623831    2.070724   -0.254235
 ---------------------------------------------------------------------
 Rotational constants (GHZ):           1.7494208           1.4163269           1.0058208
 Standard basis: Aug-CC-pVDZ (5D, 7F)
 There are   315 symmetry adapted cartesian basis functions of A   symmetry.
 There are   297 symmetry adapted basis functions of A   symmetry.
   297 basis functions,   497 primitive gaussians,   315 cartesian basis functions
    37 alpha electrons       37 beta electrons
       nuclear repulsion energy       523.8256070940 Hartrees.
 NAtoms=   19 NActive=   19 NUniq=   19 SFac= 1.00D+00 NAtFMM=   60 NAOKFM=F Big=F
 Integral buffers will be    131072 words long.
 Raffenetti 2 integral format.
 Two-electron integral symmetry is turned on.
 Nuclear repulsion after empirical dispersion term =      523.8135419495 Hartrees.
 Force PCM accuracy= 1.00D-12.
 ------------------------------------------------------------------------------
 Polarizable Continuum Model (PCM)
 =================================
 Model                : C-PCM.
 Atomic radii         : UFF (Universal Force Field).
 Polarization charges : Total charges.
 Charge compensation  : None.
 Solution method      : On-the-fly selection.
 Cavity type          : Scaled VdW (van der Waals Surface) (Alpha=1.100).
 Cavity algorithm     : GePol (No added spheres)
                        Default sphere list used, NSphG=   19.
                        Lebedev-Laikov grids with approx.  5.0 points / Ang**2.
                        Smoothing algorithm: York/Karplus (Gamma=1.0000).
                        Polarization charges: spherical gaussians, with
                                              point-specific exponents (IZeta= 3).
                        Self-potential: point-specific (ISelfS= 7).
                        Self-field    : sphere-specific E.n sum rule (ISelfD= 2).
 1st derivatives      : Analytical E(r).r(x)/FMM algorithm (CHGder, D1EAlg=3).
                        Cavity 1st derivative terms included.
 Solvent              : TetraHydroFuran, Eps=   7.425700 Eps(inf)=   1.974025
 ------------------------------------------------------------------------------
 Spheres list:
 ISph  on   Nord     Re0    Alpha      Xe            Ye            Ze
    1   B      1    2.0415  1.100     -0.953911     -0.697755     -0.046744
    2   F      2    1.6820  1.100     -1.596836     -0.230739     -1.179648
    3   F      3    1.6820  1.100     -1.656501     -0.435012      1.121949
    4   F      4    1.6820  1.100     -0.581642     -2.026207     -0.168660
    5   O      5    1.7500  1.100      0.408431      0.133307      0.054513
    6   C      6    1.9255  1.100      1.628032     -0.542958      0.515481
    7   C      7    1.9255  1.100      2.741409     -0.329538     -0.483067
    8   C      8    1.9255  1.100      0.324738      1.517947      0.535437
    9   C      9    1.9255  1.100     -0.573894      2.367832     -0.330079
   10   H     10    1.4430  1.100      1.861543     -0.139746      1.507284
   11   H     11    1.4430  1.100      1.369178     -1.596885      0.612794
   12   H     12    1.4430  1.100      3.640005     -0.842808     -0.117617
   13   H     13    1.4430  1.100      2.469431     -0.751681     -1.457494
   14   H     14    1.4430  1.100      2.984821      0.732992     -0.607388
   15   H     15    1.4430  1.100     -0.017012      1.474639      1.576113
   16   H     16    1.4430  1.100      1.351484      1.893153      0.504758
   17   H     17    1.4430  1.100     -0.480760      3.402787      0.023094
   18   H     18    1.4430  1.100     -0.259653      2.327068     -1.379090
   19   H     19    1.4430  1.100     -1.623831      2.070724     -0.254235
 ------------------------------------------------------------------------------
 One-electron integrals computed using PRISM.
 NBasis=   297 RedAO= T EigKep=  2.73D-05  NBF=   297
 NBsUse=   297 1.00D-06 EigRej= -1.00D+00 NBFU=   297
 Initial guess from the checkpoint file:  "/inspire/hdd/project/materialscienceresearch/lipenghui-253107030018/g16/00-B-DFT-Shift/04-output/BF3OEt2_THF/BF3OEt2_THF.chk"
 B after Tr=    -0.000000    0.000000   -0.000000
         Rot=    0.999983    0.001806    0.000291   -0.005491 Ang=   0.66 deg.
 ExpMin= 2.38D-02 ExpMax= 1.47D+04 ExpMxC= 5.03D+02 IAcc=3 IRadAn=         5 AccDes= 0.00D+00
 Harris functional with IExCor= 4639 and IRadAn=       5 diagonalized for initial guess.
 HarFok:  IExCor= 4639 AccDes= 0.00D+00 IRadAn=         5 IDoV= 1 UseB2=F ITyADJ=14
 ICtDFT=  3500011 ScaDFX=  1.000000  1.000000  1.000000  1.000000
 FoFCou: FMM=F IPFlag=           0 FMFlag=      100000 FMFlg1=           0
         NFxFlg=           0 DoJE=T BraDBF=F KetDBF=T FulRan=T
         wScrn=  0.000000 ICntrl=       500 IOpCl=  0 I1Cent=   200000004 NGrid=           0
         NMat0=    1 NMatS0=      1 NMatT0=    0 NMatD0=    1 NMtDS0=    0 NMtDT0=    0
 Petite list used in FoFCou.
 Requested convergence on RMS density matrix=1.00D-08 within 128 cycles.
 Requested convergence on MAX density matrix=1.00D-06.
 Requested convergence on             energy=1.00D-06.
 No special actions if energy rises.
 Inv3:  Mode=1 IEnd=     7022700.
 Iteration    1 A*A^-1 deviation from unit magnitude is 4.66D-15 for   1513.
 Iteration    1 A*A^-1 deviation from orthogonality  is 3.21D-15 for   1525    809.
 Iteration    1 A^-1*A deviation from unit magnitude is 4.55D-15 for   1525.
 Iteration    1 A^-1*A deviation from orthogonality  is 2.34D-15 for   1519    791.
 Error on total polarization charges =  0.00991
 SCF Done:  E(RwB97XD) =  -558.150335185     A.U. after    9 cycles
            NFock=  9  Conv=0.71D-08     -V/T= 2.0060
 D1PCM: C-PCM CHGder 1st derivatives, ID1Alg=3 FixD1E=F DoIter=F DoCFld=F I1PDM=0.
 Calling FoFJK, ICntrl=      2127 FMM=F ISym2X=0 I1Cent= 0 IOpClX= 0 NMat=1 NMatS=1 NMatT=0.
 ***** Axes restored to original set *****
 -------------------------------------------------------------------
 Center     Atomic                   Forces (Hartrees/Bohr)
 Number     Number              X              Y              Z
 -------------------------------------------------------------------
      1        5           0.000030137    0.000022166    0.000020790
      2        9           0.000034206    0.000060721   -0.000036247
      3        9          -0.000064674    0.000044177    0.000020969
      4        9          -0.000071750   -0.000040898    0.000007752
      5        8          -0.000070360   -0.000134674   -0.000182335
      6        6          -0.000028871   -0.000205939    0.000021945
      7        6          -0.000006791   -0.000096535    0.000026015
      8        6           0.000230777    0.000293234    0.000247648
      9        6          -0.000029388    0.000032517   -0.000013105
     10        1          -0.000002318    0.000008245   -0.000010932
     11        1          -0.000016199    0.000042723    0.000033935
     12        1           0.000002101    0.000024661   -0.000025770
     13        1           0.000023890    0.000017131   -0.000022177
     14        1          -0.000013936    0.000093094    0.000021641
     15        1           0.000008663   -0.000050767   -0.000010986
     16        1          -0.000003615   -0.000061589   -0.000071145
     17        1          -0.000001322   -0.000032870    0.000001432
     18        1           0.000000184    0.000009185   -0.000016347
     19        1          -0.000020734   -0.000024580   -0.000013083
 -------------------------------------------------------------------
 Cartesian Forces:  Max     0.000293234 RMS     0.000079901

 GradGradGradGradGradGradGradGradGradGradGradGradGradGradGradGradGradGrad
 Berny optimization.
 Using GEDIIS/GDIIS optimizer.
 FormGI is forming the generalized inverse of G from B-inverse, IUseBI=4.
 Internal  Forces:  Max     0.000274637 RMS     0.000053625
 Search for a local minimum.
 Step number  19 out of a maximum of   97
 All quantities printed in internal units (Hartrees-Bohrs-Radians)
 Mixed Optimization -- En-DIIS/RFO-DIIS
 Swapping is turned off.
 Update second derivatives using D2CorX and points   10   11   12   13   14
                                                     15   16   17   18   19
 DE= -1.71D-06 DEPred=-1.62D-06 R= 1.05D+00
 TightC=F SS=  1.41D+00  RLast= 4.10D-02 DXNew= 1.4949D+00 1.2287D-01
 Trust test= 1.05D+00 RLast= 4.10D-02 DXMaxT set to 8.89D-01
 ITU=  1  1  1  1  1  1  1  1  1 -1  1  1  1  1  1  1  1  1  0
     Eigenvalues ---    0.00109   0.00254   0.00298   0.00446   0.01423
     Eigenvalues ---    0.01925   0.04534   0.05053   0.05129   0.05318
     Eigenvalues ---    0.05419   0.05660   0.05891   0.05971   0.08312
     Eigenvalues ---    0.09664   0.10553   0.12818   0.12920   0.13016
     Eigenvalues ---    0.13569   0.15959   0.16005   0.16046   0.16077
     Eigenvalues ---    0.16550   0.16895   0.21150   0.22420   0.24542
     Eigenvalues ---    0.25369   0.26078   0.28361   0.28397   0.28749
     Eigenvalues ---    0.28910   0.30889   0.31888   0.31965   0.32069
     Eigenvalues ---    0.32119   0.32155   0.32186   0.32221   0.32382
     Eigenvalues ---    0.33928   0.34258   0.39305   0.39607   0.45413
     Eigenvalues ---    0.60089
 En-DIIS/RFO-DIIS/Sim-DIIS IScMMF=       -3 using points:    19   18   17   16   15   14   13   12   11
 RFO step:  Lambda=-1.97871773D-06.
 DIIS inversion failure, remove point   9.
 DIIS inversion failure, remove point   8.
 DIIS inversion failure, remove point   7.
 DIIS inversion failure, remove point   6.
 DIIS inversion failure, remove point   5.
 RFO-DIIS uses    4 points instead of    9
 DidBck=F Rises=F RFO-DIIS coefs:    2.36241   -1.42285   -0.95922    1.01966    0.00000
                  RFO-DIIS coefs:    0.00000    0.00000    0.00000    0.00000
 Iteration  1 RMS(Cart)=  0.00741945 RMS(Int)=  0.00001896
 Iteration  2 RMS(Cart)=  0.00002620 RMS(Int)=  0.00000247
 Iteration  3 RMS(Cart)=  0.00000000 RMS(Int)=  0.00000247
 Variable       Old X    -DE/DX   Delta X   Delta X   Delta X     New X
                                 (Linear)    (Quad)   (Total)
    R1        2.61502   0.00007   0.00006   0.00012   0.00018   2.61520
    R2        2.62428   0.00005  -0.00001   0.00012   0.00011   2.62439
    R3        2.61728   0.00007   0.00000   0.00013   0.00013   2.61741
    R4        3.02173   0.00010  -0.00018   0.00000  -0.00018   3.02155
    R5        2.77555   0.00012  -0.00016   0.00026   0.00009   2.77564
    R6        2.77444   0.00027  -0.00041   0.00060   0.00019   2.77462
    R7        2.85483  -0.00001   0.00003   0.00003   0.00007   2.85490
    R8        2.07076  -0.00001  -0.00000  -0.00001  -0.00001   2.07075
    R9        2.05906  -0.00000   0.00004  -0.00004   0.00000   2.05906
   R10        2.07395  -0.00003  -0.00008  -0.00002  -0.00010   2.07385
   R11        2.07154   0.00001   0.00002   0.00002   0.00004   2.07159
   R12        2.07326   0.00002   0.00002   0.00002   0.00005   2.07331
   R13        2.85277  -0.00001   0.00004  -0.00007  -0.00003   2.85275
   R14        2.07154  -0.00002   0.00008  -0.00006   0.00003   2.07156
   R15        2.06658   0.00003   0.00015  -0.00001   0.00014   2.06672
   R16        2.07400  -0.00001  -0.00003  -0.00001  -0.00004   2.07396
   R17        2.07081   0.00001  -0.00007   0.00006  -0.00001   2.07080
   R18        2.06698  -0.00000   0.00007  -0.00003   0.00004   2.06702
    A1        1.97150  -0.00004   0.00010  -0.00017  -0.00007   1.97144
    A2        1.95683   0.00001   0.00001   0.00012   0.00013   1.95697
    A3        1.84655  -0.00006   0.00010  -0.00037  -0.00028   1.84628
    A4        1.97310  -0.00006  -0.00010  -0.00010  -0.00020   1.97290
    A5        1.85398   0.00012  -0.00001   0.00034   0.00033   1.85431
    A6        1.84947   0.00004  -0.00011   0.00021   0.00010   1.84957
    A7        2.08062   0.00005   0.00105   0.00043   0.00149   2.08212
    A8        2.05142  -0.00005   0.00123  -0.00041   0.00083   2.05226
    A9        1.95926   0.00001   0.00035   0.00000   0.00037   1.95963
   A10        1.91715  -0.00014  -0.00024  -0.00022  -0.00046   1.91669
   A11        1.86668   0.00004  -0.00018  -0.00010  -0.00028   1.86640
   A12        1.85055   0.00002   0.00010  -0.00017  -0.00006   1.85049
   A13        1.97058   0.00001  -0.00032   0.00013  -0.00020   1.97038
   A14        1.95063   0.00010   0.00076   0.00022   0.00098   1.95160
   A15        1.90255  -0.00003  -0.00013   0.00011  -0.00002   1.90253
   A16        1.89364   0.00005   0.00023   0.00034   0.00057   1.89421
   A17        1.92868   0.00004   0.00018  -0.00002   0.00016   1.92884
   A18        1.95544  -0.00013  -0.00079  -0.00016  -0.00095   1.95449
   A19        1.89551  -0.00001   0.00009   0.00005   0.00013   1.89565
   A20        1.88495   0.00005   0.00048  -0.00004   0.00044   1.88539
   A21        1.90421   0.00001  -0.00015  -0.00016  -0.00031   1.90390
   A22        1.95743  -0.00006   0.00050  -0.00046   0.00004   1.95748
   A23        1.86658   0.00001   0.00007   0.00000   0.00007   1.86665
   A24        1.83472  -0.00004  -0.00012  -0.00035  -0.00047   1.83425
   A25        1.96162   0.00003  -0.00034   0.00030  -0.00004   1.96158
   A26        1.92799   0.00005  -0.00013   0.00032   0.00019   1.92818
   A27        1.91016  -0.00001   0.00004   0.00015   0.00018   1.91035
   A28        1.87117  -0.00003  -0.00047   0.00009  -0.00038   1.87079
   A29        1.93606   0.00002   0.00020   0.00010   0.00030   1.93636
   A30        1.95921  -0.00003  -0.00002  -0.00028  -0.00030   1.95891
   A31        1.89525   0.00001   0.00012  -0.00000   0.00011   1.89536
   A32        1.89156   0.00004   0.00023   0.00015   0.00038   1.89194
   A33        1.90873  -0.00000  -0.00006  -0.00004  -0.00010   1.90863
    D1       -2.48503   0.00001   0.00692  -0.00071   0.00621  -2.47882
    D2        1.33119  -0.00001   0.00264  -0.00075   0.00190   1.33309
    D3        1.69850   0.00002   0.00676  -0.00049   0.00626   1.70476
    D4       -0.76846   0.00000   0.00248  -0.00054   0.00195  -0.76651
    D5       -0.40448   0.00001   0.00693  -0.00065   0.00628  -0.39820
    D6       -2.87143  -0.00001   0.00265  -0.00069   0.00196  -2.86947
    D7        2.21612   0.00005  -0.00685   0.00020  -0.00665   2.20947
    D8       -1.92274   0.00000  -0.00750   0.00016  -0.00735  -1.93008
    D9        0.10572  -0.00000  -0.00769   0.00016  -0.00754   0.09818
   D10       -1.56702   0.00005  -0.00249   0.00008  -0.00241  -1.56943
   D11        0.57731   0.00000  -0.00315   0.00004  -0.00311   0.57420
   D12        2.60576  -0.00000  -0.00334   0.00004  -0.00330   2.60247
   D13       -1.02658   0.00005   0.01281   0.00045   0.01325  -1.01332
   D14        1.13144   0.00006   0.01274   0.00053   0.01327   1.14471
   D15       -3.12221   0.00004   0.01276   0.00053   0.01329  -3.10891
   D16        2.74493   0.00001   0.00859   0.00023   0.00882   2.75375
   D17       -1.38025   0.00002   0.00853   0.00032   0.00885  -1.37140
   D18        0.64929   0.00001   0.00855   0.00032   0.00886   0.65816
   D19        3.14151  -0.00002  -0.00071  -0.00101  -0.00172   3.13978
   D20       -1.06533   0.00002  -0.00036  -0.00076  -0.00112  -1.06644
   D21        1.06212  -0.00003  -0.00098  -0.00109  -0.00206   1.06005
   D22        1.05974   0.00002  -0.00011  -0.00081  -0.00092   1.05882
   D23        3.13609   0.00005   0.00025  -0.00056  -0.00031   3.13577
   D24       -1.01966   0.00000  -0.00037  -0.00089  -0.00126  -1.02091
   D25       -1.09271  -0.00003  -0.00027  -0.00122  -0.00149  -1.09420
   D26        0.98364   0.00001   0.00009  -0.00097  -0.00089   0.98276
   D27        3.11109  -0.00004  -0.00053  -0.00130  -0.00183   3.10925
   D28       -3.02160   0.00002  -0.00408   0.00014  -0.00394  -3.02554
   D29       -0.95498   0.00002  -0.00411   0.00025  -0.00386  -0.95884
   D30        1.18627   0.00001  -0.00405   0.00007  -0.00399   1.18228
   D31        1.15777   0.00002  -0.00429   0.00026  -0.00403   1.15375
   D32       -3.05879   0.00002  -0.00432   0.00036  -0.00395  -3.06274
   D33       -0.91754   0.00001  -0.00426   0.00018  -0.00408  -0.92162
   D34       -0.98116  -0.00004  -0.00400  -0.00037  -0.00437  -0.98553
   D35        1.08547  -0.00004  -0.00403  -0.00027  -0.00430   1.08117
   D36       -3.05647  -0.00004  -0.00397  -0.00045  -0.00442  -3.06089
         Item               Value     Threshold  Converged?
 Maximum Force            0.000275     0.000450     YES
 RMS     Force            0.000054     0.000300     YES
 Maximum Displacement     0.020039     0.001800     NO 
 RMS     Displacement     0.007421     0.001200     NO 
 Predicted change in Energy=-5.060754D-07
 GradGradGradGradGradGradGradGradGradGradGradGradGradGradGradGradGradGrad

                          Input orientation:                          
 ---------------------------------------------------------------------
 Center     Atomic      Atomic             Coordinates (Angstroms)
 Number     Number       Type             X           Y           Z
 ---------------------------------------------------------------------
      1          5           0       -1.770258    0.667237   -0.220068
      2          9           0       -1.553787    1.619468   -1.200674
      3          9           0       -2.122682    1.220665    1.003938
      4          9           0       -2.643160   -0.323408   -0.638508
      5          8           0       -0.361041   -0.054110    0.004350
      6          6           0       -0.326015   -1.501088    0.254194
      7          6           0        0.611615   -2.167433   -0.725193
      8          6           0        0.657572    0.668836    0.776091
      9          6           0        0.995038    2.005711    0.161438
     10          1           0       -0.020085   -1.637572    1.297528
     11          1           0       -1.350926   -1.851613    0.136159
     12          1           0        0.623141   -3.245232   -0.518848
     13          1           0        0.266550   -2.011832   -1.754005
     14          1           0        1.638434   -1.792684   -0.630662
     15          1           0        0.275515    0.764135    1.799153
     16          1           0        1.533986    0.014627    0.774016
     17          1           0        1.840125    2.418626    0.726960
     18          1           0        1.298067    1.890301   -0.885305
     19          1           0        0.161450    2.711345    0.221851
 ---------------------------------------------------------------------
                    Distance matrix (angstroms):
                    1          2          3          4          5
     1  B    0.000000
     2  F    1.383905   0.000000
     3  F    1.388768   2.311493   0.000000
     4  F    1.385072   2.297288   2.313587   0.000000
     5  O    1.598937   2.382350   2.393242   2.386180   0.000000
     6  C    2.648093   3.655399   3.346352   2.748274   1.468807
     7  C    3.736820   4.388128   4.684601   3.741858   2.438119
     8  C    2.624251   3.114709   2.843632   3.725650   1.468267
     9  C    3.095791   2.915654   3.323594   4.393312   2.471131
    10  H    3.267774   4.381959   3.560425   3.515079   2.072658
    11  H    2.578244   3.725142   3.284439   2.146017   2.056274
    12  H    4.596198   5.373007   5.459181   4.384073   3.380178
    13  H    3.698509   4.099530   4.874805   3.544224   2.705246
    14  H    4.223622   4.707225   5.089025   4.526685   2.724661
    15  H    2.876079   3.616200   2.567516   3.955200   2.072691
    16  H    3.511714   4.001157   3.857280   4.422447   2.046518
    17  H    4.122996   3.984101   4.149176   5.429834   3.388469
    18  H    3.369428   2.881992   3.964741   4.527105   2.706448
    19  H    2.846957   2.481493   2.837436   4.220874   2.822773
                    6          7          8          9         10
     6  C    0.000000
     7  C    1.510749   0.000000
     8  C    2.438932   3.209421   0.000000
     9  C    3.748523   4.283487   1.509609   0.000000
    10  H    1.095795   2.184307   2.459803   3.949011   0.000000
    11  H    1.089607   2.166389   3.285763   4.514768   1.779250
    12  H    2.130851   1.097434   4.122860   5.307872   2.509488
    13  H    2.155193   1.096237   3.706787   4.510019   3.087732
    14  H    2.174179   1.097146   3.000021   3.933089   2.548070
    15  H    2.807129   3.883217   1.096223   2.177461   2.471275
    16  H    2.455038   2.803530   1.093661   2.151774   2.327867
    17  H    4.503313   4.964869   2.112490   1.097491   4.498741
    18  H    3.929074   4.118502   2.159270   1.095818   4.352950
    19  H    4.240667   4.990192   2.173744   1.093818   4.483649
                   11         12         13         14         15
    11  H    0.000000
    12  H    2.503627   0.000000
    13  H    2.492915   1.781585   0.000000
    14  H    3.086707   1.775730   1.786614   0.000000
    15  H    3.500428   4.644243   4.508992   3.781385   0.000000
    16  H    3.494629   3.623233   3.479055   2.291376   1.787852
    17  H    5.363469   5.925570   5.316041   4.429329   2.516932
    18  H    4.697071   5.192641   4.128597   3.707435   3.085478
    19  H    4.807827   6.020183   5.120885   4.816071   2.508489
                   16         17         18         19
    16  H    0.000000
    17  H    2.423870   0.000000
    18  H    2.515384   1.781110   0.000000
    19  H    3.075878   1.777293   1.786562   0.000000
 Stoichiometry    C4H10BF3O
 Framework group  C1[X(C4H10BF3O)]
 Deg. of freedom    51
 Full point group                 C1      NOp   1
 Largest Abelian subgroup         C1      NOp   1
 Largest concise Abelian subgroup C1      NOp   1
                         Standard orientation:                         
 ---------------------------------------------------------------------
 Center     Atomic      Atomic             Coordinates (Angstroms)
 Number     Number       Type             X           Y           Z
 ---------------------------------------------------------------------
      1          5           0       -0.946699   -0.704670   -0.046241
      2          9           0       -1.588138   -0.248343   -1.184447
      3          9           0       -1.656565   -0.441251    1.117965
      4          9           0       -0.563965   -2.030995   -0.159386
      5          8           0        0.408784    0.137214    0.056213
      6          6           0        1.634467   -0.527388    0.518165
      7          6           0        2.743400   -0.311421   -0.484825
      8          6           0        0.314079    1.523169    0.531574
      9          6           0       -0.602280    2.358869   -0.329130
     10          1           0        1.867593   -0.115877    1.506638
     11          1           0        1.383256   -1.582422    0.623239
     12          1           0        3.647627   -0.814061   -0.118647
     13          1           0        2.472478   -0.742229   -1.455774
     14          1           0        2.976291    0.752560   -0.616866
     15          1           0       -0.017189    1.481004    1.575695
     16          1           0        1.336419    1.909317    0.489090
     17          1           0       -0.520235    3.395654    0.021344
     18          1           0       -0.295556    2.320061   -1.380430
     19          1           0       -1.647453    2.047553   -0.244684
 ---------------------------------------------------------------------
 Rotational constants (GHZ):           1.7501557           1.4169262           1.0063160
 Standard basis: Aug-CC-pVDZ (5D, 7F)
 There are   315 symmetry adapted cartesian basis functions of A   symmetry.
 There are   297 symmetry adapted basis functions of A   symmetry.
   297 basis functions,   497 primitive gaussians,   315 cartesian basis functions
    37 alpha electrons       37 beta electrons
       nuclear repulsion energy       523.8733210028 Hartrees.
 NAtoms=   19 NActive=   19 NUniq=   19 SFac= 1.00D+00 NAtFMM=   60 NAOKFM=F Big=F
 Integral buffers will be    131072 words long.
 Raffenetti 2 integral format.
 Two-electron integral symmetry is turned on.
 Nuclear repulsion after empirical dispersion term =      523.8612491651 Hartrees.
 Force PCM accuracy= 1.00D-12.
 ------------------------------------------------------------------------------
 Polarizable Continuum Model (PCM)
 =================================
 Model                : C-PCM.
 Atomic radii         : UFF (Universal Force Field).
 Polarization charges : Total charges.
 Charge compensation  : None.
 Solution method      : On-the-fly selection.
 Cavity type          : Scaled VdW (van der Waals Surface) (Alpha=1.100).
 Cavity algorithm     : GePol (No added spheres)
                        Default sphere list used, NSphG=   19.
                        Lebedev-Laikov grids with approx.  5.0 points / Ang**2.
                        Smoothing algorithm: York/Karplus (Gamma=1.0000).
                        Polarization charges: spherical gaussians, with
                                              point-specific exponents (IZeta= 3).
                        Self-potential: point-specific (ISelfS= 7).
                        Self-field    : sphere-specific E.n sum rule (ISelfD= 2).
 1st derivatives      : Analytical E(r).r(x)/FMM algorithm (CHGder, D1EAlg=3).
                        Cavity 1st derivative terms included.
 Solvent              : TetraHydroFuran, Eps=   7.425700 Eps(inf)=   1.974025
 ------------------------------------------------------------------------------
 Spheres list:
 ISph  on   Nord     Re0    Alpha      Xe            Ye            Ze
    1   B      1    2.0415  1.100     -0.946699     -0.704670     -0.046241
    2   F      2    1.6820  1.100     -1.588138     -0.248343     -1.184447
    3   F      3    1.6820  1.100     -1.656565     -0.441251      1.117965
    4   F      4    1.6820  1.100     -0.563965     -2.030995     -0.159386
    5   O      5    1.7500  1.100      0.408784      0.137214      0.056213
    6   C      6    1.9255  1.100      1.634467     -0.527388      0.518165
    7   C      7    1.9255  1.100      2.743400     -0.311421     -0.484825
    8   C      8    1.9255  1.100      0.314079      1.523169      0.531574
    9   C      9    1.9255  1.100     -0.602280      2.358869     -0.329130
   10   H     10    1.4430  1.100      1.867593     -0.115877      1.506638
   11   H     11    1.4430  1.100      1.383256     -1.582422      0.623239
   12   H     12    1.4430  1.100      3.647627     -0.814061     -0.118647
   13   H     13    1.4430  1.100      2.472478     -0.742229     -1.455774
   14   H     14    1.4430  1.100      2.976291      0.752560     -0.616866
   15   H     15    1.4430  1.100     -0.017189      1.481004      1.575695
   16   H     16    1.4430  1.100      1.336419      1.909317      0.489090
   17   H     17    1.4430  1.100     -0.520235      3.395654      0.021344
   18   H     18    1.4430  1.100     -0.295556      2.320061     -1.380430
   19   H     19    1.4430  1.100     -1.647453      2.047553     -0.244684
 ------------------------------------------------------------------------------
 One-electron integrals computed using PRISM.
 NBasis=   297 RedAO= T EigKep=  2.72D-05  NBF=   297
 NBsUse=   297 1.00D-06 EigRej= -1.00D+00 NBFU=   297
 Initial guess from the checkpoint file:  "/inspire/hdd/project/materialscienceresearch/lipenghui-253107030018/g16/00-B-DFT-Shift/04-output/BF3OEt2_THF/BF3OEt2_THF.chk"
 B after Tr=     0.000000   -0.000000    0.000000
         Rot=    0.999990    0.001319    0.000102   -0.004347 Ang=   0.52 deg.
 ExpMin= 2.38D-02 ExpMax= 1.47D+04 ExpMxC= 5.03D+02 IAcc=3 IRadAn=         5 AccDes= 0.00D+00
 Harris functional with IExCor= 4639 and IRadAn=       5 diagonalized for initial guess.
 HarFok:  IExCor= 4639 AccDes= 0.00D+00 IRadAn=         5 IDoV= 1 UseB2=F ITyADJ=14
 ICtDFT=  3500011 ScaDFX=  1.000000  1.000000  1.000000  1.000000
 FoFCou: FMM=F IPFlag=           0 FMFlag=      100000 FMFlg1=           0
         NFxFlg=           0 DoJE=T BraDBF=F KetDBF=T FulRan=T
         wScrn=  0.000000 ICntrl=       500 IOpCl=  0 I1Cent=   200000004 NGrid=           0
         NMat0=    1 NMatS0=      1 NMatT0=    0 NMatD0=    1 NMtDS0=    0 NMtDT0=    0
 Petite list used in FoFCou.
 Requested convergence on RMS density matrix=1.00D-08 within 128 cycles.
 Requested convergence on MAX density matrix=1.00D-06.
 Requested convergence on             energy=1.00D-06.
 No special actions if energy rises.
 Inv3:  Mode=1 IEnd=     6995187.
 Iteration    1 A*A^-1 deviation from unit magnitude is 5.88D-15 for   1526.
 Iteration    1 A*A^-1 deviation from orthogonality  is 3.26D-15 for   1522    807.
 Iteration    1 A^-1*A deviation from unit magnitude is 5.88D-15 for   1526.
 Iteration    1 A^-1*A deviation from orthogonality  is 3.23D-15 for   1516    789.
 Error on total polarization charges =  0.00990
 SCF Done:  E(RwB97XD) =  -558.150337621     A.U. after    9 cycles
            NFock=  9  Conv=0.76D-08     -V/T= 2.0060
 D1PCM: C-PCM CHGder 1st derivatives, ID1Alg=3 FixD1E=F DoIter=F DoCFld=F I1PDM=0.
 Calling FoFJK, ICntrl=      2127 FMM=F ISym2X=0 I1Cent= 0 IOpClX= 0 NMat=1 NMatS=1 NMatT=0.
 ***** Axes restored to original set *****
 -------------------------------------------------------------------
 Center     Atomic                   Forces (Hartrees/Bohr)
 Number     Number              X              Y              Z
 -------------------------------------------------------------------
      1        5           0.000013218    0.000013013    0.000028884
      2        9          -0.000012996    0.000009685   -0.000026459
      3        9          -0.000023201    0.000012528   -0.000002367
      4        9          -0.000028811   -0.000018749    0.000008689
      5        8          -0.000090007   -0.000066008   -0.000140764
      6        6           0.000000779   -0.000082123    0.000020682
      7        6          -0.000025583   -0.000020574    0.000008814
      8        6           0.000174033    0.000167663    0.000142617
      9        6           0.000005349    0.000005746    0.000001181
     10        1           0.000000295    0.000004386   -0.000006617
     11        1           0.000005534    0.000002890    0.000007779
     12        1           0.000008969    0.000007167   -0.000007956
     13        1           0.000005596    0.000008935   -0.000004386
     14        1          -0.000001856    0.000022449    0.000013029
     15        1          -0.000014717   -0.000023061   -0.000018562
     16        1          -0.000008412   -0.000025016   -0.000029626
     17        1           0.000001604   -0.000007359   -0.000002222
     18        1          -0.000000870    0.000000067    0.000000398
     19        1          -0.000008923   -0.000011639    0.000006886
 -------------------------------------------------------------------
 Cartesian Forces:  Max     0.000174033 RMS     0.000047325

 GradGradGradGradGradGradGradGradGradGradGradGradGradGradGradGradGradGrad
 Berny optimization.
 Using GEDIIS/GDIIS optimizer.
 FormGI is forming the generalized inverse of G from B-inverse, IUseBI=4.
 Internal  Forces:  Max     0.000212076 RMS     0.000029817
 Search for a local minimum.
 Step number  20 out of a maximum of   97
 All quantities printed in internal units (Hartrees-Bohrs-Radians)
 Mixed Optimization -- En-DIIS/RFO-DIIS
 Swapping is turned off.
 Update second derivatives using D2CorX and points   10   11   12   13   14
                                                     15   16   17   18   19
                                                     20
 DE= -2.44D-06 DEPred=-5.06D-07 R= 4.81D+00
 TightC=F SS=  1.41D+00  RLast= 3.53D-02 DXNew= 1.4949D+00 1.0604D-01
 Trust test= 4.81D+00 RLast= 3.53D-02 DXMaxT set to 8.89D-01
 ITU=  1  1  1  1  1  1  1  1  1  1 -1  1  1  1  1  1  1  1  1  0
     Eigenvalues ---    0.00094   0.00251   0.00291   0.00400   0.01480
     Eigenvalues ---    0.01929   0.04527   0.05082   0.05153   0.05236
     Eigenvalues ---    0.05419   0.05459   0.05790   0.05892   0.08153
     Eigenvalues ---    0.09690   0.10250   0.12715   0.12911   0.12968
     Eigenvalues ---    0.13481   0.15699   0.15993   0.16033   0.16084
     Eigenvalues ---    0.16414   0.16650   0.20831   0.22404   0.23910
     Eigenvalues ---    0.25240   0.25514   0.28326   0.28404   0.28755
     Eigenvalues ---    0.28833   0.30566   0.31844   0.31988   0.32044
     Eigenvalues ---    0.32119   0.32155   0.32177   0.32223   0.32368
     Eigenvalues ---    0.32859   0.33928   0.38725   0.39427   0.42925
     Eigenvalues ---    0.57529
 En-DIIS/RFO-DIIS/Sim-DIIS IScMMF=       -3 using points:    20   19   18   17   16   15   14   13   12   11
 RFO step:  Lambda=-6.55890376D-07.
 DIIS inversion failure, remove point  10.
 DIIS inversion failure, remove point   9.
 DIIS inversion failure, remove point   8.
 DIIS inversion failure, remove point   7.
 DIIS inversion failure, remove point   6.
 RFO-DIIS uses    5 points instead of   10
 DidBck=F Rises=F RFO-DIIS coefs:    0.90016    0.84154   -0.72727   -0.71410    0.69967
                  RFO-DIIS coefs:    0.00000    0.00000    0.00000    0.00000    0.00000
 Iteration  1 RMS(Cart)=  0.00335030 RMS(Int)=  0.00000434
 Iteration  2 RMS(Cart)=  0.00000559 RMS(Int)=  0.00000138
 Iteration  3 RMS(Cart)=  0.00000000 RMS(Int)=  0.00000138
 Variable       Old X    -DE/DX   Delta X   Delta X   Delta X     New X
                                 (Linear)    (Quad)   (Total)
    R1        2.61520   0.00003   0.00002   0.00007   0.00008   2.61528
    R2        2.62439   0.00001  -0.00001   0.00002   0.00001   2.62440
    R3        2.61741   0.00003  -0.00001   0.00010   0.00009   2.61750
    R4        3.02155   0.00005   0.00004  -0.00004   0.00001   3.02156
    R5        2.77564   0.00006  -0.00009   0.00022   0.00014   2.77578
    R6        2.77462   0.00021  -0.00021   0.00058   0.00038   2.77500
    R7        2.85490  -0.00002   0.00002  -0.00006  -0.00004   2.85487
    R8        2.07075  -0.00001   0.00000  -0.00003  -0.00002   2.07073
    R9        2.05906  -0.00001   0.00002  -0.00004  -0.00003   2.05903
   R10        2.07385  -0.00001  -0.00004  -0.00001  -0.00005   2.07380
   R11        2.07159   0.00000   0.00001   0.00001   0.00001   2.07160
   R12        2.07331   0.00001   0.00001   0.00001   0.00002   2.07332
   R13        2.85275  -0.00002   0.00004  -0.00013  -0.00009   2.85266
   R14        2.07156  -0.00001   0.00004  -0.00006  -0.00002   2.07154
   R15        2.06672   0.00001   0.00007  -0.00002   0.00005   2.06677
   R16        2.07396  -0.00000  -0.00002  -0.00001  -0.00002   2.07393
   R17        2.07080  -0.00000  -0.00004   0.00001  -0.00003   2.07077
   R18        2.06702  -0.00000   0.00003  -0.00001   0.00003   2.06704
    A1        1.97144  -0.00002   0.00007  -0.00009  -0.00002   1.97142
    A2        1.95697  -0.00001  -0.00001   0.00005   0.00005   1.95702
    A3        1.84628   0.00002   0.00006  -0.00016  -0.00011   1.84617
    A4        1.97290  -0.00003  -0.00005  -0.00007  -0.00012   1.97278
    A5        1.85431   0.00005  -0.00001   0.00019   0.00017   1.85449
    A6        1.84957   0.00000  -0.00006   0.00010   0.00004   1.84961
    A7        2.08212   0.00000   0.00038   0.00020   0.00058   2.08270
    A8        2.05226   0.00004   0.00054  -0.00022   0.00033   2.05258
    A9        1.95963  -0.00004   0.00014  -0.00016  -0.00001   1.95962
   A10        1.91669  -0.00005  -0.00008  -0.00013  -0.00022   1.91648
   A11        1.86640   0.00001  -0.00006  -0.00008  -0.00014   1.86625
   A12        1.85049   0.00001   0.00003  -0.00002   0.00002   1.85051
   A13        1.97038   0.00001  -0.00017   0.00011  -0.00006   1.97032
   A14        1.95160   0.00002   0.00035   0.00003   0.00037   1.95198
   A15        1.90253  -0.00001  -0.00007   0.00008   0.00001   1.90254
   A16        1.89421   0.00002   0.00008   0.00018   0.00026   1.89447
   A17        1.92884   0.00001   0.00009  -0.00004   0.00005   1.92889
   A18        1.95449  -0.00004  -0.00037  -0.00005  -0.00042   1.95407
   A19        1.89565  -0.00000   0.00004   0.00005   0.00009   1.89574
   A20        1.88539   0.00001   0.00024  -0.00010   0.00014   1.88553
   A21        1.90390   0.00001  -0.00007  -0.00004  -0.00011   1.90379
   A22        1.95748   0.00005   0.00029  -0.00023   0.00007   1.95755
   A23        1.86665  -0.00003   0.00002  -0.00025  -0.00023   1.86641
   A24        1.83425  -0.00004  -0.00005  -0.00023  -0.00028   1.83397
   A25        1.96158   0.00000  -0.00017   0.00020   0.00003   1.96161
   A26        1.92818   0.00001  -0.00009   0.00029   0.00020   1.92838
   A27        1.91035   0.00001   0.00000   0.00018   0.00018   1.91053
   A28        1.87079  -0.00001  -0.00025   0.00006  -0.00018   1.87061
   A29        1.93636   0.00000   0.00009   0.00003   0.00012   1.93648
   A30        1.95891  -0.00002   0.00002  -0.00023  -0.00021   1.95870
   A31        1.89536   0.00000   0.00005   0.00001   0.00006   1.89543
   A32        1.89194   0.00001   0.00011   0.00010   0.00021   1.89215
   A33        1.90863   0.00001  -0.00002   0.00003   0.00001   1.90864
    D1       -2.47882   0.00001   0.00305  -0.00008   0.00297  -2.47586
    D2        1.33309   0.00003   0.00131   0.00026   0.00157   1.33466
    D3        1.70476  -0.00000   0.00295   0.00001   0.00296   1.70772
    D4       -0.76651   0.00002   0.00120   0.00036   0.00156  -0.76495
    D5       -0.39820   0.00001   0.00304  -0.00005   0.00299  -0.39521
    D6       -2.86947   0.00002   0.00130   0.00029   0.00159  -2.86788
    D7        2.20947   0.00001  -0.00248   0.00009  -0.00239   2.20707
    D8       -1.93008  -0.00000  -0.00277   0.00009  -0.00268  -1.93277
    D9        0.09818  -0.00000  -0.00287   0.00014  -0.00273   0.09545
   D10       -1.56943   0.00002  -0.00069  -0.00027  -0.00096  -1.57039
   D11        0.57420   0.00001  -0.00098  -0.00027  -0.00125   0.57295
   D12        2.60247   0.00001  -0.00108  -0.00022  -0.00130   2.60117
   D13       -1.01332   0.00001   0.00581  -0.00004   0.00576  -1.00756
   D14        1.14471   0.00002   0.00580  -0.00011   0.00569   1.15039
   D15       -3.10891  -0.00000   0.00578  -0.00013   0.00566  -3.10326
   D16        2.75375   0.00001   0.00411   0.00014   0.00425   2.75800
   D17       -1.37140   0.00002   0.00410   0.00007   0.00417  -1.36723
   D18        0.65816   0.00000   0.00408   0.00006   0.00414   0.66230
   D19        3.13978  -0.00001  -0.00014  -0.00005  -0.00019   3.13959
   D20       -1.06644   0.00001   0.00001   0.00010   0.00011  -1.06633
   D21        1.06005  -0.00001  -0.00027  -0.00001  -0.00029   1.05977
   D22        1.05882   0.00000   0.00010   0.00008   0.00017   1.05899
   D23        3.13577   0.00002   0.00026   0.00022   0.00048   3.13625
   D24       -1.02091   0.00000  -0.00003   0.00011   0.00008  -1.02083
   D25       -1.09420  -0.00001   0.00006  -0.00014  -0.00008  -1.09428
   D26        0.98276   0.00001   0.00021   0.00001   0.00022   0.98298
   D27        3.10925  -0.00001  -0.00007  -0.00010  -0.00017   3.10908
   D28       -3.02554   0.00000  -0.00179  -0.00002  -0.00182  -3.02736
   D29       -0.95884   0.00000  -0.00183   0.00004  -0.00179  -0.96063
   D30        1.18228   0.00000  -0.00178  -0.00006  -0.00184   1.18045
   D31        1.15375   0.00001  -0.00191   0.00032  -0.00159   1.15215
   D32       -3.06274   0.00001  -0.00194   0.00038  -0.00156  -3.06430
   D33       -0.92162   0.00001  -0.00190   0.00029  -0.00161  -0.92323
   D34       -0.98553  -0.00001  -0.00173  -0.00026  -0.00199  -0.98753
   D35        1.08117  -0.00001  -0.00177  -0.00020  -0.00196   1.07921
   D36       -3.06089  -0.00001  -0.00172  -0.00030  -0.00201  -3.06291
         Item               Value     Threshold  Converged?
 Maximum Force            0.000212     0.000450     YES
 RMS     Force            0.000030     0.000300     YES
 Maximum Displacement     0.009597     0.001800     NO 
 RMS     Displacement     0.003350     0.001200     NO 
 Predicted change in Energy=-3.101140D-07
 GradGradGradGradGradGradGradGradGradGradGradGradGradGradGradGradGradGrad

                          Input orientation:                          
 ---------------------------------------------------------------------
 Center     Atomic      Atomic             Coordinates (Angstroms)
 Number     Number       Type             X           Y           Z
 ---------------------------------------------------------------------
      1          5           0       -1.768483    0.667780   -0.222176
      2          9           0       -1.550693    1.616705   -1.205753
      3          9           0       -2.120371    1.225494    1.000042
      4          9           0       -2.642735   -0.323040   -0.637527
      5          8           0       -0.360168   -0.054660    0.004413
      6          6           0       -0.325841   -1.501592    0.255039
      7          6           0        0.610258   -2.168828   -0.725175
      8          6           0        0.659122    0.668257    0.775664
      9          6           0        0.992953    2.007163    0.163570
     10          1           0       -0.018504   -1.637552    1.298016
     11          1           0       -1.351168   -1.851437    0.138730
     12          1           0        0.621779   -3.246537   -0.518508
     13          1           0        0.264167   -2.013380   -1.753674
     14          1           0        1.637208   -1.794108   -0.631860
     15          1           0        0.279017    0.760376    1.799733
     16          1           0        1.536474    0.015283    0.769919
     17          1           0        1.837409    2.420777    0.729500
     18          1           0        1.295551    1.894777   -0.883612
     19          1           0        0.157564    2.710503    0.226076
 ---------------------------------------------------------------------
                    Distance matrix (angstroms):
                    1          2          3          4          5
     1  B    0.000000
     2  F    1.383949   0.000000
     3  F    1.388771   2.311517   0.000000
     4  F    1.385120   2.297400   2.313537   0.000000
     5  O    1.598941   2.382291   2.393405   2.386258   0.000000
     6  C    2.648609   3.654854   3.348487   2.748392   1.468879
     7  C    3.736009   4.385308   4.685523   3.741200   2.437977
     8  C    2.624682   3.115903   2.843667   3.725861   1.468466
     9  C    3.093263   2.915070   3.317150   4.392019   2.471312
    10  H    3.269246   4.382539   3.564220   3.515801   2.072605
    11  H    2.578926   3.724977   3.286492   2.146327   2.056338
    12  H    4.595982   5.370574   5.461176   4.383840   3.380199
    13  H    3.696725   4.095297   4.874349   3.543038   2.705041
    14  H    4.222258   4.703797   5.089253   4.525703   2.723974
    15  H    2.879054   3.621337   2.571557   3.956092   2.072684
    16  H    3.511801   3.999804   3.858767   4.422800   2.046496
    17  H    4.120819   3.983839   4.143178   5.428535   3.388641
    18  H    3.366204   2.877882   3.957856   4.526519   2.707453
    19  H    2.843116   2.482875   2.827237   4.217804   2.821933
                    6          7          8          9         10
     6  C    0.000000
     7  C    1.510730   0.000000
     8  C    2.439149   3.209978   0.000000
     9  C    3.749527   4.286633   1.509560   0.000000
    10  H    1.095784   2.184238   2.459428   3.948919   0.000000
    11  H    1.089593   2.166624   3.285697   4.514899   1.779236
    12  H    2.131007   1.097407   4.123335   5.310779   2.509692
    13  H    2.155218   1.096245   3.707388   4.513505   3.087711
    14  H    2.173871   1.097155   3.000169   3.936678   2.547609
    15  H    2.805073   3.881381   1.096213   2.177433   2.467853
    16  H    2.456467   2.804198   1.093688   2.151897   2.329959
    17  H    4.504414   4.968546   2.112301   1.097479   4.498628
    18  H    3.932018   4.124029   2.159303   1.095804   4.354721
    19  H    4.239843   4.991761   2.173563   1.093832   4.481701
                   11         12         13         14         15
    11  H    0.000000
    12  H    2.504154   0.000000
    13  H    2.493337   1.781627   0.000000
    14  H    3.086662   1.775808   1.786558   0.000000
    15  H    3.498285   4.641883   4.507843   3.779248   0.000000
    16  H    3.495929   3.624388   3.478903   2.291076   1.787981
    17  H    5.363566   5.929058   5.320056   4.433806   2.516131
    18  H    4.699407   5.198113   4.134544   3.713217   3.085539
    19  H    4.805746   6.021315   5.123070   4.818394   2.508813
                   16         17         18         19
    16  H    0.000000
    17  H    2.424581   0.000000
    18  H    2.514897   1.781128   0.000000
    19  H    3.075933   1.777430   1.786569   0.000000
 Stoichiometry    C4H10BF3O
 Framework group  C1[X(C4H10BF3O)]
 Deg. of freedom    51
 Full point group                 C1      NOp   1
 Largest Abelian subgroup         C1      NOp   1
 Largest concise Abelian subgroup C1      NOp   1
                         Standard orientation:                         
 ---------------------------------------------------------------------
 Center     Atomic      Atomic             Coordinates (Angstroms)
 Number     Number       Type             X           Y           Z
 ---------------------------------------------------------------------
      1          5           0       -0.943733   -0.707519   -0.046002
      2          9           0       -1.584270   -0.256373   -1.186832
      3          9           0       -1.656825   -0.443030    1.115993
      4          9           0       -0.556775   -2.033056   -0.154504
      5          8           0        0.408976    0.138807    0.056596
      6          6           0        1.637130   -0.520919    0.519201
      7          6           0        2.744326   -0.303959   -0.485464
      8          6           0        0.309833    1.525449    0.529656
      9          6           0       -0.614218    2.355137   -0.328552
     10          1           0        1.869885   -0.105882    1.506273
     11          1           0        1.389148   -1.576375    0.627510
     12          1           0        3.650684   -0.802571   -0.119129
     13          1           0        2.473759   -0.737916   -1.455117
     14          1           0        2.973208    0.760552   -0.620292
     15          1           0       -0.016675    1.483592    1.575277
     16          1           0        1.330284    1.916022    0.481851
     17          1           0       -0.536749    3.392607    0.020897
     18          1           0       -0.311032    2.317225   -1.380896
     19          1           0       -1.657248    2.037756   -0.240093
 ---------------------------------------------------------------------
 Rotational constants (GHZ):           1.7504512           1.4171039           1.0064389
 Standard basis: Aug-CC-pVDZ (5D, 7F)
 There are   315 symmetry adapted cartesian basis functions of A   symmetry.
 There are   297 symmetry adapted basis functions of A   symmetry.
   297 basis functions,   497 primitive gaussians,   315 cartesian basis functions
    37 alpha electrons       37 beta electrons
       nuclear repulsion energy       523.8844031635 Hartrees.
 NAtoms=   19 NActive=   19 NUniq=   19 SFac= 1.00D+00 NAtFMM=   60 NAOKFM=F Big=F
 Integral buffers will be    131072 words long.
 Raffenetti 2 integral format.
 Two-electron integral symmetry is turned on.
 Nuclear repulsion after empirical dispersion term =      523.8723285816 Hartrees.
 Force PCM accuracy= 1.00D-12.
 ------------------------------------------------------------------------------
 Polarizable Continuum Model (PCM)
 =================================
 Model                : C-PCM.
 Atomic radii         : UFF (Universal Force Field).
 Polarization charges : Total charges.
 Charge compensation  : None.
 Solution method      : On-the-fly selection.
 Cavity type          : Scaled VdW (van der Waals Surface) (Alpha=1.100).
 Cavity algorithm     : GePol (No added spheres)
                        Default sphere list used, NSphG=   19.
                        Lebedev-Laikov grids with approx.  5.0 points / Ang**2.
                        Smoothing algorithm: York/Karplus (Gamma=1.0000).
                        Polarization charges: spherical gaussians, with
                                              point-specific exponents (IZeta= 3).
                        Self-potential: point-specific (ISelfS= 7).
                        Self-field    : sphere-specific E.n sum rule (ISelfD= 2).
 1st derivatives      : Analytical E(r).r(x)/FMM algorithm (CHGder, D1EAlg=3).
                        Cavity 1st derivative terms included.
 Solvent              : TetraHydroFuran, Eps=   7.425700 Eps(inf)=   1.974025
 ------------------------------------------------------------------------------
 Spheres list:
 ISph  on   Nord     Re0    Alpha      Xe            Ye            Ze
    1   B      1    2.0415  1.100     -0.943733     -0.707519     -0.046002
    2   F      2    1.6820  1.100     -1.584270     -0.256373     -1.186832
    3   F      3    1.6820  1.100     -1.656825     -0.443030      1.115993
    4   F      4    1.6820  1.100     -0.556775     -2.033056     -0.154504
    5   O      5    1.7500  1.100      0.408976      0.138807      0.056596
    6   C      6    1.9255  1.100      1.637130     -0.520919      0.519201
    7   C      7    1.9255  1.100      2.744326     -0.303959     -0.485464
    8   C      8    1.9255  1.100      0.309833      1.525449      0.529656
    9   C      9    1.9255  1.100     -0.614218      2.355137     -0.328552
   10   H     10    1.4430  1.100      1.869885     -0.105882      1.506273
   11   H     11    1.4430  1.100      1.389148     -1.576375      0.627510
   12   H     12    1.4430  1.100      3.650684     -0.802571     -0.119129
   13   H     13    1.4430  1.100      2.473759     -0.737916     -1.455117
   14   H     14    1.4430  1.100      2.973208      0.760552     -0.620292
   15   H     15    1.4430  1.100     -0.016675      1.483592      1.575277
   16   H     16    1.4430  1.100      1.330284      1.916022      0.481851
   17   H     17    1.4430  1.100     -0.536749      3.392607      0.020897
   18   H     18    1.4430  1.100     -0.311032      2.317225     -1.380896
   19   H     19    1.4430  1.100     -1.657248      2.037756     -0.240093
 ------------------------------------------------------------------------------
 One-electron integrals computed using PRISM.
 NBasis=   297 RedAO= T EigKep=  2.72D-05  NBF=   297
 NBsUse=   297 1.00D-06 EigRej= -1.00D+00 NBFU=   297
 Initial guess from the checkpoint file:  "/inspire/hdd/project/materialscienceresearch/lipenghui-253107030018/g16/00-B-DFT-Shift/04-output/BF3OEt2_THF/BF3OEt2_THF.chk"
 B after Tr=    -0.000000    0.000000   -0.000000
         Rot=    0.999998    0.000647    0.000055   -0.001796 Ang=   0.22 deg.
 Requested convergence on RMS density matrix=1.00D-08 within 128 cycles.
 Requested convergence on MAX density matrix=1.00D-06.
 Requested convergence on             energy=1.00D-06.
 No special actions if energy rises.
 Inv3:  Mode=1 IEnd=     6986028.
 Iteration    1 A*A^-1 deviation from unit magnitude is 5.55D-15 for   1516.
 Iteration    1 A*A^-1 deviation from orthogonality  is 1.61D-15 for   1510    971.
 Iteration    1 A^-1*A deviation from unit magnitude is 5.55D-15 for   1516.
 Iteration    1 A^-1*A deviation from orthogonality  is 1.59D-15 for   1501   1148.
 Error on total polarization charges =  0.00990
 SCF Done:  E(RwB97XD) =  -558.150338474     A.U. after    8 cycles
            NFock=  8  Conv=0.72D-08     -V/T= 2.0060
 D1PCM: C-PCM CHGder 1st derivatives, ID1Alg=3 FixD1E=F DoIter=F DoCFld=F I1PDM=0.
 Calling FoFJK, ICntrl=      2127 FMM=F ISym2X=0 I1Cent= 0 IOpClX= 0 NMat=1 NMatS=1 NMatT=0.
 ***** Axes restored to original set *****
 -------------------------------------------------------------------
 Center     Atomic                   Forces (Hartrees/Bohr)
 Number     Number              X              Y              Z
 -------------------------------------------------------------------
      1        5           0.000010155   -0.000005497    0.000021677
      2        9          -0.000027548   -0.000013686   -0.000020084
      3        9          -0.000006508    0.000003357   -0.000000665
      4        9          -0.000008447   -0.000001476    0.000007601
      5        8          -0.000063568   -0.000028504   -0.000091880
      6        6           0.000009157   -0.000003164    0.000014986
      7        6          -0.000013383    0.000012077   -0.000002450
      8        6           0.000084375    0.000063783    0.000077153
      9        6           0.000005707   -0.000007937   -0.000001763
     10        1           0.000000597   -0.000001334    0.000000589
     11        1           0.000005549   -0.000008512   -0.000003297
     12        1           0.000009161   -0.000004104   -0.000000294
     13        1          -0.000002683    0.000001042    0.000001461
     14        1           0.000004484   -0.000006659    0.000001830
     15        1          -0.000008976   -0.000002719   -0.000008327
     16        1          -0.000007592   -0.000005570   -0.000008550
     17        1           0.000001365    0.000008040   -0.000003872
     18        1           0.000000213   -0.000000672    0.000000445
     19        1           0.000007942    0.000001535    0.000015438
 -------------------------------------------------------------------
 Cartesian Forces:  Max     0.000091880 RMS     0.000024539

 GradGradGradGradGradGradGradGradGradGradGradGradGradGradGradGradGradGrad
 Berny optimization.
 Using GEDIIS/GDIIS optimizer.
 FormGI is forming the generalized inverse of G from B-inverse, IUseBI=4.
 Internal  Forces:  Max     0.000128223 RMS     0.000020373
 Search for a local minimum.
 Step number  21 out of a maximum of   97
 All quantities printed in internal units (Hartrees-Bohrs-Radians)
 Mixed Optimization -- En-DIIS/RFO-DIIS
 Swapping is turned off.
 Update second derivatives using D2CorX and points   10   11   12   13   14
                                                     15   16   17   18   19
                                                     20   21
 DE= -8.52D-07 DEPred=-3.10D-07 R= 2.75D+00
 Trust test= 2.75D+00 RLast= 1.55D-02 DXMaxT set to 8.89D-01
 ITU=  0  1  1  1  1  1  1  1  1  1  1 -1  1  1  1  1  1  1  1  1
 ITU=  0
     Eigenvalues ---    0.00086   0.00251   0.00301   0.00388   0.01448
     Eigenvalues ---    0.01886   0.04555   0.04974   0.05097   0.05278
     Eigenvalues ---    0.05424   0.05442   0.05761   0.05895   0.08081
     Eigenvalues ---    0.09638   0.10025   0.12744   0.12918   0.12959
     Eigenvalues ---    0.13417   0.15720   0.15995   0.16034   0.16088
     Eigenvalues ---    0.16437   0.16911   0.20589   0.22224   0.23697
     Eigenvalues ---    0.25121   0.25537   0.28303   0.28385   0.28776
     Eigenvalues ---    0.28923   0.29991   0.31724   0.31970   0.32007
     Eigenvalues ---    0.32118   0.32140   0.32160   0.32214   0.32239
     Eigenvalues ---    0.32518   0.33875   0.38082   0.39519   0.41991
     Eigenvalues ---    0.55347
 En-DIIS/RFO-DIIS/Sim-DIIS IScMMF=       -3 using points:    21   20   19   18   17   16   15   14   13   12
 RFO step:  Lambda=-1.78595484D-07.
 DIIS inversion failure, remove point  10.
 DIIS inversion failure, remove point   9.
 DIIS inversion failure, remove point   8.
 DIIS inversion failure, remove point   7.
 DIIS inversion failure, remove point   6.
 DIIS inversion failure, remove point   5.
 RFO-DIIS uses    4 points instead of   10
 DidBck=F Rises=F RFO-DIIS coefs:    1.41356   -0.53425    0.11462    0.00607    0.00000
                  RFO-DIIS coefs:    0.00000    0.00000    0.00000    0.00000    0.00000
 Iteration  1 RMS(Cart)=  0.00082204 RMS(Int)=  0.00000043
 Iteration  2 RMS(Cart)=  0.00000044 RMS(Int)=  0.00000014
 Variable       Old X    -DE/DX   Delta X   Delta X   Delta X     New X
                                 (Linear)    (Quad)   (Total)
    R1        2.61528   0.00000   0.00001  -0.00000   0.00001   2.61529
    R2        2.62440   0.00000  -0.00001  -0.00001  -0.00002   2.62438
    R3        2.61750   0.00000   0.00002   0.00002   0.00004   2.61754
    R4        3.02156   0.00002   0.00003   0.00007   0.00010   3.02166
    R5        2.77578   0.00001   0.00005   0.00003   0.00008   2.77586
    R6        2.77500   0.00013   0.00014   0.00022   0.00036   2.77536
    R7        2.85487  -0.00001  -0.00002   0.00001  -0.00002   2.85485
    R8        2.07073  -0.00000  -0.00001  -0.00001  -0.00001   2.07072
    R9        2.05903  -0.00000  -0.00001  -0.00001  -0.00002   2.05901
   R10        2.07380   0.00000  -0.00001   0.00001  -0.00000   2.07380
   R11        2.07160  -0.00000   0.00000  -0.00000  -0.00000   2.07160
   R12        2.07332   0.00000   0.00000   0.00001   0.00001   2.07333
   R13        2.85266  -0.00000  -0.00003  -0.00003  -0.00007   2.85259
   R14        2.07154  -0.00000  -0.00001  -0.00001  -0.00002   2.07152
   R15        2.06677  -0.00000   0.00000  -0.00001  -0.00001   2.06676
   R16        2.07393   0.00000  -0.00000  -0.00000  -0.00000   2.07393
   R17        2.07077  -0.00000  -0.00001  -0.00000  -0.00001   2.07076
   R18        2.06704  -0.00001   0.00001   0.00000   0.00001   2.06705
    A1        1.97142  -0.00000  -0.00000   0.00001   0.00001   1.97143
    A2        1.95702  -0.00003   0.00000  -0.00005  -0.00005   1.95697
    A3        1.84617   0.00004  -0.00001  -0.00003  -0.00004   1.84613
    A4        1.97278  -0.00001  -0.00003  -0.00003  -0.00006   1.97272
    A5        1.85449   0.00001   0.00003   0.00004   0.00007   1.85456
    A6        1.84961  -0.00000   0.00001   0.00007   0.00007   1.84968
    A7        2.08270  -0.00002   0.00005  -0.00000   0.00005   2.08274
    A8        2.05258   0.00006   0.00002  -0.00004  -0.00001   2.05257
    A9        1.95962  -0.00005  -0.00005  -0.00015  -0.00020   1.95943
   A10        1.91648  -0.00000  -0.00003   0.00000  -0.00003   1.91645
   A11        1.86625   0.00000  -0.00002   0.00001  -0.00001   1.86624
   A12        1.85051   0.00001   0.00001   0.00006   0.00007   1.85058
   A13        1.97032   0.00000   0.00000   0.00001   0.00001   1.97033
   A14        1.95198  -0.00001   0.00003  -0.00006  -0.00003   1.95195
   A15        1.90254   0.00000   0.00001  -0.00002  -0.00001   1.90253
   A16        1.89447   0.00001   0.00004   0.00001   0.00005   1.89452
   A17        1.92889  -0.00000   0.00000  -0.00002  -0.00002   1.92887
   A18        1.95407   0.00000  -0.00006   0.00005  -0.00001   1.95406
   A19        1.89574  -0.00000   0.00002  -0.00000   0.00002   1.89576
   A20        1.88553  -0.00001   0.00000  -0.00005  -0.00005   1.88548
   A21        1.90379   0.00000  -0.00001   0.00001   0.00001   1.90379
   A22        1.95755   0.00007   0.00002  -0.00001   0.00001   1.95756
   A23        1.86641  -0.00003  -0.00011  -0.00005  -0.00015   1.86626
   A24        1.83397  -0.00003  -0.00006  -0.00011  -0.00017   1.83379
   A25        1.96161  -0.00001   0.00002   0.00004   0.00006   1.96167
   A26        1.92838  -0.00001   0.00006   0.00006   0.00012   1.92850
   A27        1.91053   0.00001   0.00005   0.00006   0.00011   1.91064
   A28        1.87061   0.00001  -0.00003  -0.00001  -0.00004   1.87057
   A29        1.93648  -0.00000   0.00001   0.00002   0.00003   1.93651
   A30        1.95870  -0.00000  -0.00005  -0.00000  -0.00005   1.95865
   A31        1.89543  -0.00000   0.00001  -0.00001   0.00000   1.89543
   A32        1.89215  -0.00001   0.00004  -0.00007  -0.00003   1.89212
   A33        1.90864   0.00001   0.00002   0.00006   0.00008   1.90872
    D1       -2.47586   0.00001   0.00043   0.00064   0.00107  -2.47479
    D2        1.33466   0.00004   0.00041   0.00099   0.00140   1.33606
    D3        1.70772  -0.00001   0.00042   0.00062   0.00104   1.70876
    D4       -0.76495   0.00002   0.00040   0.00097   0.00137  -0.76358
    D5       -0.39521   0.00000   0.00043   0.00061   0.00103  -0.39418
    D6       -2.86788   0.00003   0.00041   0.00095   0.00136  -2.86652
    D7        2.20707  -0.00001  -0.00010   0.00024   0.00013   2.20721
    D8       -1.93277  -0.00001  -0.00014   0.00026   0.00012  -1.93264
    D9        0.09545  -0.00000  -0.00013   0.00027   0.00014   0.09559
   D10       -1.57039   0.00000  -0.00006  -0.00006  -0.00012  -1.57051
   D11        0.57295   0.00001  -0.00009  -0.00004  -0.00013   0.57282
   D12        2.60117   0.00001  -0.00009  -0.00002  -0.00011   2.60106
   D13       -1.00756  -0.00001   0.00071  -0.00008   0.00063  -1.00693
   D14        1.15039  -0.00000   0.00068  -0.00007   0.00061   1.15101
   D15       -3.10326  -0.00002   0.00066  -0.00007   0.00059  -3.10267
   D16        2.75800   0.00000   0.00066   0.00020   0.00085   2.75885
   D17       -1.36723   0.00001   0.00063   0.00021   0.00083  -1.36639
   D18        0.66230  -0.00000   0.00061   0.00020   0.00081   0.66312
   D19        3.13959  -0.00000   0.00014   0.00014   0.00027   3.13986
   D20       -1.06633   0.00000   0.00019   0.00013   0.00032  -1.06602
   D21        1.05977   0.00000   0.00014   0.00016   0.00030   1.06007
   D22        1.05899  -0.00000   0.00019   0.00011   0.00030   1.05929
   D23        3.13625  -0.00000   0.00024   0.00010   0.00034   3.13660
   D24       -1.02083   0.00000   0.00019   0.00014   0.00033  -1.02050
   D25       -1.09428   0.00000   0.00015   0.00017   0.00032  -1.09396
   D26        0.98298   0.00000   0.00020   0.00016   0.00037   0.98335
   D27        3.10908   0.00000   0.00015   0.00020   0.00035   3.10943
   D28       -3.02736   0.00000  -0.00026   0.00060   0.00034  -3.02702
   D29       -0.96063   0.00000  -0.00025   0.00059   0.00034  -0.96029
   D30        1.18045   0.00001  -0.00026   0.00069   0.00043   1.18088
   D31        1.15215  -0.00000  -0.00015   0.00064   0.00049   1.15264
   D32       -3.06430  -0.00000  -0.00015   0.00063   0.00048  -3.06381
   D33       -0.92323   0.00001  -0.00015   0.00073   0.00058  -0.92265
   D34       -0.98753  -0.00000  -0.00028   0.00049   0.00021  -0.98731
   D35        1.07921  -0.00000  -0.00027   0.00048   0.00021   1.07942
   D36       -3.06291   0.00001  -0.00028   0.00058   0.00030  -3.06260
         Item               Value     Threshold  Converged?
 Maximum Force            0.000128     0.000450     YES
 RMS     Force            0.000020     0.000300     YES
 Maximum Displacement     0.003001     0.001800     NO 
 RMS     Displacement     0.000822     0.001200     YES
 Predicted change in Energy=-8.750729D-08
 GradGradGradGradGradGradGradGradGradGradGradGradGradGradGradGradGradGrad

                          Input orientation:                          
 ---------------------------------------------------------------------
 Center     Atomic      Atomic             Coordinates (Angstroms)
 Number     Number       Type             X           Y           Z
 ---------------------------------------------------------------------
      1          5           0       -1.768364    0.667886   -0.222540
      2          9           0       -1.550833    1.615621   -1.207328
      3          9           0       -2.119485    1.227082    0.999209
      4          9           0       -2.643207   -0.323102   -0.636317
      5          8           0       -0.360071   -0.054709    0.004056
      6          6           0       -0.325829   -1.501635    0.254972
      7          6           0        0.610259   -2.169066   -0.725105
      8          6           0        0.659361    0.668163    0.775529
      9          6           0        0.992683    2.007451    0.164083
     10          1           0       -0.018515   -1.637398    1.297973
     11          1           0       -1.351139   -1.851513    0.138715
     12          1           0        0.621557   -3.246785   -0.518478
     13          1           0        0.264352   -2.013497   -1.753647
     14          1           0        1.637282   -1.794579   -0.631617
     15          1           0        0.279352    0.759574    1.799685
     16          1           0        1.536772    0.015281    0.769147
     17          1           0        1.837404    2.420785    0.729818
     18          1           0        1.294717    1.895780   -0.883334
     19          1           0        0.157241    2.710644    0.227592
 ---------------------------------------------------------------------
                    Distance matrix (angstroms):
                    1          2          3          4          5
     1  B    0.000000
     2  F    1.383953   0.000000
     3  F    1.388761   2.311521   0.000000
     4  F    1.385142   2.297386   2.313503   0.000000
     5  O    1.598993   2.382303   2.393503   2.386383   0.000000
     6  C    2.648725   3.654618   3.349177   2.748376   1.468920
     7  C    3.736136   4.384828   4.685998   3.741725   2.437975
     8  C    2.624880   3.116787   2.843310   3.725973   1.468658
     9  C    3.093104   2.916123   3.315419   4.392245   2.471448
    10  H    3.269292   4.382541   3.564910   3.515375   2.072628
    11  H    2.579138   3.724611   3.287636   2.146195   2.056417
    12  H    4.596080   5.369989   5.461883   4.384118   3.380234
    13  H    3.696760   4.094368   4.874653   3.543975   2.704860
    14  H    4.222499   4.703720   5.089531   4.526351   2.724086
    15  H    2.879400   3.622779   2.571721   3.955711   2.072729
    16  H    3.511875   4.000106   3.858706   4.422902   2.046528
    17  H    4.120826   3.985094   4.141796   5.428731   3.388760
    18  H    3.365537   2.877607   3.955743   4.526776   2.707432
    19  H    2.843138   2.485073   2.824860   4.218111   2.822190
                    6          7          8          9         10
     6  C    0.000000
     7  C    1.510720   0.000000
     8  C    2.439181   3.210013   0.000000
     9  C    3.749723   4.287214   1.509525   0.000000
    10  H    1.095777   2.184233   2.459283   3.948817   0.000000
    11  H    1.089582   2.166588   3.285789   4.515058   1.779217
    12  H    2.131036   1.097406   4.123433   5.311367   2.509843
    13  H    2.155194   1.096244   3.707298   4.513998   3.087693
    14  H    2.173858   1.097159   3.000247   3.937522   2.547486
    15  H    2.804541   3.880850   1.096202   2.177438   2.466964
    16  H    2.456562   2.804031   1.093684   2.151948   2.330219
    17  H    4.504490   4.968845   2.112240   1.097476   4.498453
    18  H    3.932472   4.125105   2.159293   1.095799   4.355000
    19  H    4.239976   4.992437   2.173497   1.093835   4.481303
                   11         12         13         14         15
    11  H    0.000000
    12  H    2.504040   0.000000
    13  H    2.493407   1.781639   0.000000
    14  H    3.086634   1.775781   1.786565   0.000000
    15  H    3.497870   4.641325   4.507362   3.778743   0.000000
    16  H    3.496054   3.624455   3.478431   2.290815   1.788040
    17  H    5.363649   5.929407   5.320239   4.434280   2.516299
    18  H    4.699717   5.199253   4.135401   3.714762   3.085534
    19  H    4.805869   6.021890   5.123893   4.819314   2.508598
                   16         17         18         19
    16  H    0.000000
    17  H    2.424536   0.000000
    18  H    2.515066   1.781123   0.000000
    19  H    3.075934   1.777413   1.786620   0.000000
 Stoichiometry    C4H10BF3O
 Framework group  C1[X(C4H10BF3O)]
 Deg. of freedom    51
 Full point group                 C1      NOp   1
 Largest Abelian subgroup         C1      NOp   1
 Largest concise Abelian subgroup C1      NOp   1
                         Standard orientation:                         
 ---------------------------------------------------------------------
 Center     Atomic      Atomic             Coordinates (Angstroms)
 Number     Number       Type             X           Y           Z
 ---------------------------------------------------------------------
      1          5           0       -0.943560   -0.707724   -0.045946
      2          9           0       -1.583426   -0.258111   -1.187764
      3          9           0       -1.657405   -0.441846    1.115256
      4          9           0       -0.556517   -2.033416   -0.152518
      5          8           0        0.409062    0.138879    0.056327
      6          6           0        1.637375   -0.520423    0.519242
      7          6           0        2.744552   -0.303499   -0.485436
      8          6           0        0.309720    1.525752    0.529265
      9          6           0       -0.615266    2.354914   -0.328380
     10          1           0        1.869958   -0.105002    1.506185
     11          1           0        1.389712   -1.575908    0.627886
     12          1           0        3.650971   -0.801989   -0.119088
     13          1           0        2.473981   -0.737553   -1.455045
     14          1           0        2.973372    0.761018   -0.620354
     15          1           0       -0.016011    1.483798    1.575113
     16          1           0        1.330048    1.916532    0.480603
     17          1           0       -0.537638    3.392520    0.020621
     18          1           0       -0.313087    2.316675   -1.380996
     19          1           0       -1.658153    2.037387   -0.238715
 ---------------------------------------------------------------------
 Rotational constants (GHZ):           1.7504373           1.4170280           1.0063578
 Standard basis: Aug-CC-pVDZ (5D, 7F)
 There are   315 symmetry adapted cartesian basis functions of A   symmetry.
 There are   297 symmetry adapted basis functions of A   symmetry.
   297 basis functions,   497 primitive gaussians,   315 cartesian basis functions
    37 alpha electrons       37 beta electrons
       nuclear repulsion energy       523.8731386754 Hartrees.
 NAtoms=   19 NActive=   19 NUniq=   19 SFac= 1.00D+00 NAtFMM=   60 NAOKFM=F Big=F
 Integral buffers will be    131072 words long.
 Raffenetti 2 integral format.
 Two-electron integral symmetry is turned on.
 Nuclear repulsion after empirical dispersion term =      523.8610635920 Hartrees.
 Force PCM accuracy= 1.00D-12.
 ------------------------------------------------------------------------------
 Polarizable Continuum Model (PCM)
 =================================
 Model                : C-PCM.
 Atomic radii         : UFF (Universal Force Field).
 Polarization charges : Total charges.
 Charge compensation  : None.
 Solution method      : On-the-fly selection.
 Cavity type          : Scaled VdW (van der Waals Surface) (Alpha=1.100).
 Cavity algorithm     : GePol (No added spheres)
                        Default sphere list used, NSphG=   19.
                        Lebedev-Laikov grids with approx.  5.0 points / Ang**2.
                        Smoothing algorithm: York/Karplus (Gamma=1.0000).
                        Polarization charges: spherical gaussians, with
                                              point-specific exponents (IZeta= 3).
                        Self-potential: point-specific (ISelfS= 7).
                        Self-field    : sphere-specific E.n sum rule (ISelfD= 2).
 1st derivatives      : Analytical E(r).r(x)/FMM algorithm (CHGder, D1EAlg=3).
                        Cavity 1st derivative terms included.
 Solvent              : TetraHydroFuran, Eps=   7.425700 Eps(inf)=   1.974025
 ------------------------------------------------------------------------------
 Spheres list:
 ISph  on   Nord     Re0    Alpha      Xe            Ye            Ze
    1   B      1    2.0415  1.100     -0.943560     -0.707724     -0.045946
    2   F      2    1.6820  1.100     -1.583426     -0.258111     -1.187764
    3   F      3    1.6820  1.100     -1.657405     -0.441846      1.115256
    4   F      4    1.6820  1.100     -0.556517     -2.033416     -0.152518
    5   O      5    1.7500  1.100      0.409062      0.138879      0.056327
    6   C      6    1.9255  1.100      1.637375     -0.520423      0.519242
    7   C      7    1.9255  1.100      2.744552     -0.303499     -0.485436
    8   C      8    1.9255  1.100      0.309720      1.525752      0.529265
    9   C      9    1.9255  1.100     -0.615266      2.354914     -0.328380
   10   H     10    1.4430  1.100      1.869958     -0.105002      1.506185
   11   H     11    1.4430  1.100      1.389712     -1.575908      0.627886
   12   H     12    1.4430  1.100      3.650971     -0.801989     -0.119088
   13   H     13    1.4430  1.100      2.473981     -0.737553     -1.455045
   14   H     14    1.4430  1.100      2.973372      0.761018     -0.620354
   15   H     15    1.4430  1.100     -0.016011      1.483798      1.575113
   16   H     16    1.4430  1.100      1.330048      1.916532      0.480603
   17   H     17    1.4430  1.100     -0.537638      3.392520      0.020621
   18   H     18    1.4430  1.100     -0.313087      2.316675     -1.380996
   19   H     19    1.4430  1.100     -1.658153      2.037387     -0.238715
 ------------------------------------------------------------------------------
 One-electron integrals computed using PRISM.
 NBasis=   297 RedAO= T EigKep=  2.72D-05  NBF=   297
 NBsUse=   297 1.00D-06 EigRej= -1.00D+00 NBFU=   297
 Initial guess from the checkpoint file:  "/inspire/hdd/project/materialscienceresearch/lipenghui-253107030018/g16/00-B-DFT-Shift/04-output/BF3OEt2_THF/BF3OEt2_THF.chk"
 B after Tr=     0.000000   -0.000000    0.000000
         Rot=    1.000000    0.000215    0.000048   -0.000114 Ang=   0.03 deg.
 Requested convergence on RMS density matrix=1.00D-08 within 128 cycles.
 Requested convergence on MAX density matrix=1.00D-06.
 Requested convergence on             energy=1.00D-06.
 No special actions if energy rises.
 Inv3:  Mode=1 IEnd=     6976875.
 Iteration    1 A*A^-1 deviation from unit magnitude is 3.11D-15 for   1504.
 Iteration    1 A*A^-1 deviation from orthogonality  is 2.04D-15 for   1460    932.
 Iteration    1 A^-1*A deviation from unit magnitude is 2.89D-15 for   1504.
 Iteration    1 A^-1*A deviation from orthogonality  is 1.97D-15 for   1514    789.
 Error on total polarization charges =  0.00990
 SCF Done:  E(RwB97XD) =  -558.150338685     A.U. after    7 cycles
            NFock=  7  Conv=0.91D-08     -V/T= 2.0060
 D1PCM: C-PCM CHGder 1st derivatives, ID1Alg=3 FixD1E=F DoIter=F DoCFld=F I1PDM=0.
 Calling FoFJK, ICntrl=      2127 FMM=F ISym2X=0 I1Cent= 0 IOpClX= 0 NMat=1 NMatS=1 NMatT=0.
 ***** Axes restored to original set *****
 -------------------------------------------------------------------
 Center     Atomic                   Forces (Hartrees/Bohr)
 Number     Number              X              Y              Z
 -------------------------------------------------------------------
      1        5           0.000008986   -0.000013036    0.000009231
      2        9          -0.000015835   -0.000010583   -0.000015008
      3        9          -0.000000620    0.000001608    0.000005481
      4        9           0.000001338    0.000002382    0.000010000
      5        8          -0.000034799   -0.000010316   -0.000033033
      6        6           0.000012558    0.000011921    0.000003622
      7        6           0.000000183    0.000013796   -0.000003517
      8        6           0.000019818    0.000007938    0.000030621
      9        6          -0.000003045   -0.000008962   -0.000007318
     10        1           0.000001516   -0.000003344    0.000004767
     11        1          -0.000002640   -0.000001679   -0.000004931
     12        1           0.000004727   -0.000004101    0.000000989
     13        1          -0.000002459   -0.000001982    0.000000685
     14        1           0.000002485   -0.000006357   -0.000002687
     15        1          -0.000001301    0.000002327   -0.000002886
     16        1          -0.000002124    0.000002200   -0.000003391
     17        1           0.000001064    0.000012328   -0.000003739
     18        1           0.000000991   -0.000000091    0.000000254
     19        1           0.000009158    0.000005952    0.000010859
 -------------------------------------------------------------------
 Cartesian Forces:  Max     0.000034799 RMS     0.000010380

 GradGradGradGradGradGradGradGradGradGradGradGradGradGradGradGradGradGrad
 Berny optimization.
 Using GEDIIS/GDIIS optimizer.
 FormGI is forming the generalized inverse of G from B-inverse, IUseBI=4.
 Internal  Forces:  Max     0.000046424 RMS     0.000009632
 Search for a local minimum.
 Step number  22 out of a maximum of   97
 All quantities printed in internal units (Hartrees-Bohrs-Radians)
 Mixed Optimization -- En-DIIS/RFO-DIIS
 Swapping is turned off.
 Update second derivatives using D2CorX and points   10   11   12   13   14
                                                     15   16   17   18   19
                                                     20   21   22
 DE= -2.12D-07 DEPred=-8.75D-08 R= 2.42D+00
 Trust test= 2.42D+00 RLast= 3.87D-03 DXMaxT set to 8.89D-01
 ITU=  0  0  1  1  1  1  1  1  1  1  1  1 -1  1  1  1  1  1  1  1
 ITU=  1  0
     Eigenvalues ---    0.00079   0.00253   0.00290   0.00338   0.00859
     Eigenvalues ---    0.01937   0.04612   0.04896   0.05111   0.05215
     Eigenvalues ---    0.05437   0.05541   0.05803   0.05890   0.07904
     Eigenvalues ---    0.09692   0.10307   0.12742   0.12911   0.12960
     Eigenvalues ---    0.13351   0.15953   0.16032   0.16035   0.16288
     Eigenvalues ---    0.16456   0.16805   0.20874   0.22268   0.23967
     Eigenvalues ---    0.24997   0.25451   0.28238   0.28389   0.28794
     Eigenvalues ---    0.28972   0.30612   0.31821   0.31928   0.32048
     Eigenvalues ---    0.32120   0.32148   0.32179   0.32224   0.32445
     Eigenvalues ---    0.33141   0.33711   0.36851   0.39309   0.42428
     Eigenvalues ---    0.48382
 En-DIIS/RFO-DIIS/Sim-DIIS IScMMF=       -3 using points:    22   21   20   19   18   17   16   15   14   13
 RFO step:  Lambda=-1.75238711D-07.
 DIIS inversion failure, remove point  10.
 DIIS inversion failure, remove point   9.
 DIIS inversion failure, remove point   8.
 DIIS inversion failure, remove point   7.
 DIIS inversion failure, remove point   6.
 RFO-DIIS uses    5 points instead of   10
 DidBck=F Rises=F RFO-DIIS coefs:    2.52646   -2.00000    0.66233   -0.13171   -0.05707
                  RFO-DIIS coefs:    0.00000    0.00000    0.00000    0.00000    0.00000
 Iteration  1 RMS(Cart)=  0.00149365 RMS(Int)=  0.00000146
 Iteration  2 RMS(Cart)=  0.00000149 RMS(Int)=  0.00000043
 Iteration  3 RMS(Cart)=  0.00000000 RMS(Int)=  0.00000043
 Variable       Old X    -DE/DX   Delta X   Delta X   Delta X     New X
                                 (Linear)    (Quad)   (Total)
    R1        2.61529   0.00000   0.00001   0.00003   0.00004   2.61533
    R2        2.62438   0.00000  -0.00001   0.00002   0.00001   2.62438
    R3        2.61754  -0.00001   0.00004  -0.00003   0.00001   2.61755
    R4        3.02166  -0.00000   0.00004  -0.00010  -0.00006   3.02160
    R5        2.77586  -0.00001   0.00005  -0.00004   0.00001   2.77586
    R6        2.77536   0.00005   0.00036  -0.00007   0.00029   2.77565
    R7        2.85485   0.00000   0.00000   0.00000   0.00001   2.85485
    R8        2.07072   0.00000  -0.00002   0.00002   0.00001   2.07072
    R9        2.05901   0.00000  -0.00002   0.00002   0.00000   2.05902
   R10        2.07380   0.00000   0.00001   0.00001   0.00001   2.07381
   R11        2.07160  -0.00000   0.00000   0.00000   0.00000   2.07160
   R12        2.07333  -0.00000   0.00001  -0.00001   0.00000   2.07333
   R13        2.85259   0.00001  -0.00006   0.00003  -0.00004   2.85255
   R14        2.07152  -0.00000  -0.00001  -0.00001  -0.00002   2.07150
   R15        2.06676  -0.00000   0.00000  -0.00000  -0.00000   2.06676
   R16        2.07393   0.00001  -0.00001   0.00002   0.00001   2.07394
   R17        2.07076  -0.00000  -0.00001  -0.00001  -0.00002   2.07074
   R18        2.06705  -0.00000   0.00001   0.00000   0.00001   2.06706
    A1        1.97143   0.00000   0.00002   0.00003   0.00005   1.97148
    A2        1.95697  -0.00001  -0.00007  -0.00000  -0.00008   1.95689
    A3        1.84613   0.00002  -0.00004  -0.00000  -0.00004   1.84609
    A4        1.97272  -0.00000  -0.00006  -0.00001  -0.00007   1.97265
    A5        1.85456   0.00000   0.00007  -0.00003   0.00004   1.85460
    A6        1.84968  -0.00000   0.00010   0.00001   0.00011   1.84980
    A7        2.08274  -0.00001   0.00017   0.00006   0.00022   2.08297
    A8        2.05257   0.00003   0.00009  -0.00002   0.00007   2.05264
    A9        1.95943  -0.00002  -0.00020   0.00007  -0.00014   1.95929
   A10        1.91645   0.00000  -0.00005   0.00002  -0.00003   1.91642
   A11        1.86624   0.00000  -0.00002   0.00005   0.00003   1.86628
   A12        1.85058  -0.00000   0.00012  -0.00008   0.00003   1.85061
   A13        1.97033   0.00000  -0.00001   0.00001   0.00000   1.97033
   A14        1.95195  -0.00000  -0.00000  -0.00002  -0.00002   1.95193
   A15        1.90253   0.00000  -0.00003   0.00002  -0.00001   1.90252
   A16        1.89452   0.00000   0.00007  -0.00004   0.00003   1.89455
   A17        1.92887  -0.00000  -0.00002   0.00001  -0.00001   1.92886
   A18        1.95406   0.00001  -0.00003   0.00005   0.00002   1.95408
   A19        1.89576  -0.00000   0.00001  -0.00002  -0.00001   1.89575
   A20        1.88548  -0.00001  -0.00004  -0.00002  -0.00005   1.88543
   A21        1.90379  -0.00000   0.00001   0.00002   0.00003   1.90382
   A22        1.95756   0.00003   0.00002  -0.00001   0.00000   1.95756
   A23        1.86626  -0.00001  -0.00010   0.00000  -0.00009   1.86617
   A24        1.83379  -0.00001  -0.00021   0.00006  -0.00015   1.83365
   A25        1.96167  -0.00001   0.00004  -0.00001   0.00003   1.96170
   A26        1.92850  -0.00001   0.00011  -0.00005   0.00006   1.92856
   A27        1.91064   0.00001   0.00012   0.00002   0.00014   1.91078
   A28        1.87057   0.00001  -0.00006   0.00007   0.00001   1.87058
   A29        1.93651  -0.00000   0.00006  -0.00001   0.00005   1.93656
   A30        1.95865   0.00001  -0.00004   0.00004   0.00001   1.95866
   A31        1.89543  -0.00000   0.00000  -0.00004  -0.00004   1.89539
   A32        1.89212  -0.00001  -0.00007  -0.00010  -0.00017   1.89195
   A33        1.90872   0.00000   0.00010   0.00004   0.00014   1.90886
    D1       -2.47479   0.00001   0.00189   0.00060   0.00249  -2.47229
    D2        1.33606   0.00002   0.00188   0.00041   0.00229   1.33835
    D3        1.70876  -0.00000   0.00186   0.00058   0.00244   1.71120
    D4       -0.76358   0.00001   0.00185   0.00039   0.00224  -0.76135
    D5       -0.39418   0.00001   0.00184   0.00060   0.00244  -0.39174
    D6       -2.86652   0.00002   0.00183   0.00041   0.00224  -2.86428
    D7        2.20721  -0.00000  -0.00071  -0.00004  -0.00075   2.20645
    D8       -1.93264  -0.00000  -0.00076   0.00001  -0.00075  -1.93339
    D9        0.09559  -0.00000  -0.00075   0.00002  -0.00073   0.09486
   D10       -1.57051   0.00000  -0.00061   0.00011  -0.00050  -1.57101
   D11        0.57282   0.00001  -0.00066   0.00016  -0.00049   0.57233
   D12        2.60106   0.00001  -0.00065   0.00017  -0.00047   2.60059
   D13       -1.00693  -0.00001   0.00142   0.00008   0.00150  -1.00543
   D14        1.15101  -0.00000   0.00141   0.00006   0.00147   1.15248
   D15       -3.10267  -0.00001   0.00141   0.00011   0.00151  -3.10115
   D16        2.75885  -0.00000   0.00128  -0.00010   0.00118   2.76004
   D17       -1.36639   0.00000   0.00128  -0.00012   0.00116  -1.36524
   D18        0.66312   0.00000   0.00127  -0.00007   0.00120   0.66432
   D19        3.13986   0.00000   0.00010   0.00004   0.00013   3.13999
   D20       -1.06602   0.00000   0.00014  -0.00001   0.00013  -1.06589
   D21        1.06007   0.00000   0.00011   0.00005   0.00017   1.06024
   D22        1.05929  -0.00000   0.00016  -0.00005   0.00011   1.05940
   D23        3.13660  -0.00000   0.00020  -0.00009   0.00011   3.13670
   D24       -1.02050   0.00000   0.00017  -0.00003   0.00015  -1.02036
   D25       -1.09396  -0.00000   0.00021  -0.00007   0.00014  -1.09382
   D26        0.98335  -0.00000   0.00025  -0.00012   0.00014   0.98348
   D27        3.10943   0.00000   0.00023  -0.00005   0.00018   3.10961
   D28       -3.02702   0.00000   0.00044  -0.00005   0.00039  -3.02663
   D29       -0.96029   0.00000   0.00044  -0.00007   0.00037  -0.95991
   D30        1.18088   0.00001   0.00059  -0.00000   0.00059   1.18147
   D31        1.15264  -0.00000   0.00053  -0.00004   0.00049   1.15313
   D32       -3.06381  -0.00000   0.00053  -0.00006   0.00047  -3.06334
   D33       -0.92265   0.00000   0.00067   0.00001   0.00069  -0.92196
   D34       -0.98731   0.00000   0.00026  -0.00002   0.00025  -0.98707
   D35        1.07942   0.00000   0.00026  -0.00003   0.00023   1.07965
   D36       -3.06260   0.00001   0.00041   0.00004   0.00045  -3.06216
         Item               Value     Threshold  Converged?
 Maximum Force            0.000046     0.000450     YES
 RMS     Force            0.000010     0.000300     YES
 Maximum Displacement     0.005982     0.001800     NO 
 RMS     Displacement     0.001494     0.001200     NO 
 Predicted change in Energy=-8.653562D-08
 GradGradGradGradGradGradGradGradGradGradGradGradGradGradGradGradGradGrad

                          Input orientation:                          
 ---------------------------------------------------------------------
 Center     Atomic      Atomic             Coordinates (Angstroms)
 Number     Number       Type             X           Y           Z
 ---------------------------------------------------------------------
      1          5           0       -1.767870    0.667987   -0.223353
      2          9           0       -1.550430    1.613320   -1.210493
      3          9           0       -2.117921    1.230159    0.997341
      4          9           0       -2.643655   -0.323350   -0.634316
      5          8           0       -0.359850   -0.054857    0.003934
      6          6           0       -0.325685   -1.501753    0.255051
      7          6           0        0.610002   -2.169394   -0.725270
      8          6           0        0.659656    0.667995    0.775617
      9          6           0        0.992062    2.007905    0.165080
     10          1           0       -0.018033   -1.637435    1.297967
     11          1           0       -1.351061   -1.851570    0.139180
     12          1           0        0.621187   -3.247118   -0.518622
     13          1           0        0.263814   -2.013801   -1.753715
     14          1           0        1.637135   -1.795126   -0.632086
     15          1           0        0.279941    0.758399    1.799962
     16          1           0        1.537309    0.015451    0.768257
     17          1           0        1.837084    2.421043    0.730523
     18          1           0        1.293352    1.897286   -0.882653
     19          1           0        0.156503    2.710838    0.230010
 ---------------------------------------------------------------------
                    Distance matrix (angstroms):
                    1          2          3          4          5
     1  B    0.000000
     2  F    1.383973   0.000000
     3  F    1.388764   2.311577   0.000000
     4  F    1.385149   2.297349   2.313459   0.000000
     5  O    1.598963   2.382253   2.393520   2.386465   0.000000
     6  C    2.648875   3.653970   3.350589   2.748198   1.468923
     7  C    3.735898   4.383131   4.686781   3.741983   2.437954
     8  C    2.625038   3.118134   2.842556   3.725928   1.468810
     9  C    3.092488   2.917561   3.312030   4.392291   2.471562
    10  H    3.269757   4.382696   3.566932   3.514887   2.072658
    11  H    2.579405   3.723820   3.289616   2.145822   2.056446
    12  H    4.595958   5.368283   5.463229   4.384176   3.380241
    13  H    3.696179   4.091770   4.874859   3.544582   2.704764
    14  H    4.222328   4.702408   5.089974   4.526732   2.724153
    15  H    2.880192   3.625464   2.572256   3.955162   2.072784
    16  H    3.511880   4.000346   3.858588   4.422947   2.046545
    17  H    4.120531   3.986880   4.139016   5.428766   3.388883
    18  H    3.364066   2.876668   3.951737   4.526911   2.707393
    19  H    2.842885   2.488618   2.820322   4.218323   2.822552
                    6          7          8          9         10
     6  C    0.000000
     7  C    1.510723   0.000000
     8  C    2.439199   3.210281   0.000000
     9  C    3.749966   4.288183   1.509506   0.000000
    10  H    1.095780   2.184238   2.459089   3.948699   0.000000
    11  H    1.089584   2.166577   3.285764   4.515135   1.779215
    12  H    2.131064   1.097414   4.123668   5.312274   2.509915
    13  H    2.155189   1.096245   3.707592   4.515112   3.087693
    14  H    2.173878   1.097161   3.000677   3.938862   2.547460
    15  H    2.803894   3.880427   1.096193   2.177434   2.465929
    16  H    2.456835   2.804295   1.093682   2.151973   2.330603
    17  H    4.504661   4.969625   2.112237   1.097484   4.498298
    18  H    3.933080   4.126697   2.159303   1.095790   4.355352
    19  H    4.240172   4.993485   2.173490   1.093842   4.480901
                   11         12         13         14         15
    11  H    0.000000
    12  H    2.504001   0.000000
    13  H    2.493430   1.781639   0.000000
    14  H    3.086642   1.775755   1.786583   0.000000
    15  H    3.497185   4.640738   4.507103   3.778535   0.000000
    16  H    3.496311   3.624872   3.478505   2.291095   1.788117
    17  H    5.363691   5.930161   5.321133   4.435399   2.516501
    18  H    4.700106   5.200886   4.137065   3.716838   3.085529
    19  H    4.805889   6.022759   5.125319   4.820705   2.508387
                   16         17         18         19
    16  H    0.000000
    17  H    2.424491   0.000000
    18  H    2.515218   1.781096   0.000000
    19  H    3.075946   1.777314   1.786704   0.000000
 Stoichiometry    C4H10BF3O
 Framework group  C1[X(C4H10BF3O)]
 Deg. of freedom    51
 Full point group                 C1      NOp   1
 Largest Abelian subgroup         C1      NOp   1
 Largest concise Abelian subgroup C1      NOp   1
                         Standard orientation:                         
 ---------------------------------------------------------------------
 Center     Atomic      Atomic             Coordinates (Angstroms)
 Number     Number       Type             X           Y           Z
 ---------------------------------------------------------------------
      1          5           0       -0.942732   -0.708506   -0.045859
      2          9           0       -1.581223   -0.262024   -1.189697
      3          9           0       -1.658469   -0.440477    1.113687
      4          9           0       -0.554732   -2.034213   -0.148795
      5          8           0        0.409105    0.139298    0.056362
      6          6           0        1.638105   -0.518518    0.519583
      7          6           0        2.744808   -0.301577   -0.485618
      8          6           0        0.308544    1.526446    0.528707
      9          6           0       -0.618517    2.353947   -0.328269
     10          1           0        1.870618   -0.101985    1.506078
     11          1           0        1.391411   -1.574123    0.629280
     12          1           0        3.651749   -0.799044   -0.119147
     13          1           0        2.474271   -0.736666   -1.454772
     14          1           0        2.972798    0.762999   -0.621492
     15          1           0       -0.015906    1.484549    1.574946
     16          1           0        1.328358    1.918367    0.478536
     17          1           0       -0.541500    3.391919    0.019803
     18          1           0       -0.317816    2.315244   -1.381282
     19          1           0       -1.660974    2.035522   -0.236734
 ---------------------------------------------------------------------
 Rotational constants (GHZ):           1.7504399           1.4170670           1.0063677
 Standard basis: Aug-CC-pVDZ (5D, 7F)
 There are   315 symmetry adapted cartesian basis functions of A   symmetry.
 There are   297 symmetry adapted basis functions of A   symmetry.
   297 basis functions,   497 primitive gaussians,   315 cartesian basis functions
    37 alpha electrons       37 beta electrons
       nuclear repulsion energy       523.8703138923 Hartrees.
 NAtoms=   19 NActive=   19 NUniq=   19 SFac= 1.00D+00 NAtFMM=   60 NAOKFM=F Big=F
 Integral buffers will be    131072 words long.
 Raffenetti 2 integral format.
 Two-electron integral symmetry is turned on.
 Nuclear repulsion after empirical dispersion term =      523.8582376372 Hartrees.
 Force PCM accuracy= 1.00D-12.
 ------------------------------------------------------------------------------
 Polarizable Continuum Model (PCM)
 =================================
 Model                : C-PCM.
 Atomic radii         : UFF (Universal Force Field).
 Polarization charges : Total charges.
 Charge compensation  : None.
 Solution method      : On-the-fly selection.
 Cavity type          : Scaled VdW (van der Waals Surface) (Alpha=1.100).
 Cavity algorithm     : GePol (No added spheres)
                        Default sphere list used, NSphG=   19.
                        Lebedev-Laikov grids with approx.  5.0 points / Ang**2.
                        Smoothing algorithm: York/Karplus (Gamma=1.0000).
                        Polarization charges: spherical gaussians, with
                                              point-specific exponents (IZeta= 3).
                        Self-potential: point-specific (ISelfS= 7).
                        Self-field    : sphere-specific E.n sum rule (ISelfD= 2).
 1st derivatives      : Analytical E(r).r(x)/FMM algorithm (CHGder, D1EAlg=3).
                        Cavity 1st derivative terms included.
 Solvent              : TetraHydroFuran, Eps=   7.425700 Eps(inf)=   1.974025
 ------------------------------------------------------------------------------
 Spheres list:
 ISph  on   Nord     Re0    Alpha      Xe            Ye            Ze
    1   B      1    2.0415  1.100     -0.942732     -0.708506     -0.045859
    2   F      2    1.6820  1.100     -1.581223     -0.262024     -1.189697
    3   F      3    1.6820  1.100     -1.658469     -0.440477      1.113687
    4   F      4    1.6820  1.100     -0.554732     -2.034213     -0.148795
    5   O      5    1.7500  1.100      0.409105      0.139298      0.056362
    6   C      6    1.9255  1.100      1.638105     -0.518518      0.519583
    7   C      7    1.9255  1.100      2.744808     -0.301577     -0.485618
    8   C      8    1.9255  1.100      0.308544      1.526446      0.528707
    9   C      9    1.9255  1.100     -0.618517      2.353947     -0.328269
   10   H     10    1.4430  1.100      1.870618     -0.101985      1.506078
   11   H     11    1.4430  1.100      1.391411     -1.574123      0.629280
   12   H     12    1.4430  1.100      3.651749     -0.799044     -0.119147
   13   H     13    1.4430  1.100      2.474271     -0.736666     -1.454772
   14   H     14    1.4430  1.100      2.972798      0.762999     -0.621492
   15   H     15    1.4430  1.100     -0.015906      1.484549      1.574946
   16   H     16    1.4430  1.100      1.328358      1.918367      0.478536
   17   H     17    1.4430  1.100     -0.541500      3.391919      0.019803
   18   H     18    1.4430  1.100     -0.317816      2.315244     -1.381282
   19   H     19    1.4430  1.100     -1.660974      2.035522     -0.236734
 ------------------------------------------------------------------------------
 One-electron integrals computed using PRISM.
 NBasis=   297 RedAO= T EigKep=  2.72D-05  NBF=   297
 NBsUse=   297 1.00D-06 EigRej= -1.00D+00 NBFU=   297
 Initial guess from the checkpoint file:  "/inspire/hdd/project/materialscienceresearch/lipenghui-253107030018/g16/00-B-DFT-Shift/04-output/BF3OEt2_THF/BF3OEt2_THF.chk"
 B after Tr=     0.000000   -0.000000   -0.000000
         Rot=    1.000000    0.000424    0.000122   -0.000472 Ang=   0.07 deg.
 Requested convergence on RMS density matrix=1.00D-08 within 128 cycles.
 Requested convergence on MAX density matrix=1.00D-06.
 Requested convergence on             energy=1.00D-06.
 No special actions if energy rises.
 Inv3:  Mode=1 IEnd=     7004352.
 Iteration    1 A*A^-1 deviation from unit magnitude is 4.88D-15 for   1507.
 Iteration    1 A*A^-1 deviation from orthogonality  is 1.68D-15 for   1510   1090.
 Iteration    1 A^-1*A deviation from unit magnitude is 5.00D-15 for   1507.
 Iteration    1 A^-1*A deviation from orthogonality  is 1.68D-15 for   1517    790.
 Error on total polarization charges =  0.00990
 SCF Done:  E(RwB97XD) =  -558.150338980     A.U. after    8 cycles
            NFock=  8  Conv=0.36D-08     -V/T= 2.0060
 D1PCM: C-PCM CHGder 1st derivatives, ID1Alg=3 FixD1E=F DoIter=F DoCFld=F I1PDM=0.
 Calling FoFJK, ICntrl=      2127 FMM=F ISym2X=0 I1Cent= 0 IOpClX= 0 NMat=1 NMatS=1 NMatT=0.
 ***** Axes restored to original set *****
 -------------------------------------------------------------------
 Center     Atomic                   Forces (Hartrees/Bohr)
 Number     Number              X              Y              Z
 -------------------------------------------------------------------
      1        5           0.000003250   -0.000006903   -0.000001278
      2        9          -0.000005592   -0.000005280   -0.000002824
      3        9           0.000002287    0.000001461    0.000003822
      4        9          -0.000001903    0.000002035    0.000008338
      5        8           0.000004889    0.000006991    0.000032267
      6        6           0.000009815    0.000006768   -0.000012635
      7        6           0.000007310    0.000005006   -0.000000502
      8        6          -0.000028099   -0.000024792   -0.000015830
      9        6          -0.000001194   -0.000002086   -0.000005802
     10        1           0.000001114    0.000001498    0.000001786
     11        1           0.000003166    0.000000845   -0.000001967
     12        1           0.000001054   -0.000000430    0.000001007
     13        1          -0.000000558   -0.000001885    0.000000638
     14        1          -0.000000079   -0.000002158   -0.000004513
     15        1           0.000004392    0.000004266   -0.000000140
     16        1           0.000000848    0.000004872    0.000002343
     17        1          -0.000001677    0.000005900   -0.000003720
     18        1          -0.000000959    0.000000560   -0.000002036
     19        1           0.000001936    0.000003333    0.000001048
 -------------------------------------------------------------------
 Cartesian Forces:  Max     0.000032267 RMS     0.000007956

 GradGradGradGradGradGradGradGradGradGradGradGradGradGradGradGradGradGrad
 Berny optimization.
 Using GEDIIS/GDIIS optimizer.
 FormGI is forming the generalized inverse of G from B-inverse, IUseBI=4.
 Internal  Forces:  Max     0.000027463 RMS     0.000004553
 Search for a local minimum.
 Step number  23 out of a maximum of   97
 All quantities printed in internal units (Hartrees-Bohrs-Radians)
 Mixed Optimization -- En-DIIS/RFO-DIIS
 Swapping is turned off.
 Update second derivatives using D2CorX and points   10   11   12   13   14
                                                     15   16   17   18   19
                                                     20   21   22   23
 DE= -2.94D-07 DEPred=-8.65D-08 R= 3.40D+00
 Trust test= 3.40D+00 RLast= 7.00D-03 DXMaxT set to 8.89D-01
 ITU=  0  0  0  1  1  1  1  1  1  1  1  1  1 -1  1  1  1  1  1  1
 ITU=  1  1  0
     Eigenvalues ---    0.00069   0.00257   0.00272   0.00340   0.00605
     Eigenvalues ---    0.02018   0.04605   0.05030   0.05112   0.05159
     Eigenvalues ---    0.05421   0.05521   0.05797   0.05890   0.08054
     Eigenvalues ---    0.09749   0.10234   0.12742   0.12909   0.12977
     Eigenvalues ---    0.13360   0.15829   0.16003   0.16032   0.16190
     Eigenvalues ---    0.16439   0.16626   0.20774   0.22544   0.23847
     Eigenvalues ---    0.25130   0.25470   0.28214   0.28393   0.28813
     Eigenvalues ---    0.28980   0.30593   0.31830   0.31953   0.32042
     Eigenvalues ---    0.32121   0.32152   0.32180   0.32224   0.32429
     Eigenvalues ---    0.33112   0.33731   0.37646   0.39799   0.42951
     Eigenvalues ---    0.54569
 En-DIIS/RFO-DIIS/Sim-DIIS IScMMF=       -3 using points:    23   22   21   20   19   18   17   16   15   14
 RFO step:  Lambda=-5.01180500D-08.
 DIIS inversion failure, remove point  10.
 DIIS inversion failure, remove point   9.
 DIIS inversion failure, remove point   8.
 DIIS inversion failure, remove point   7.
 DIIS inversion failure, remove point   6.
 DIIS inversion failure, remove point   5.
 DIIS inversion failure, remove point   4.
 RFO-DIIS uses    3 points instead of   10
 DidBck=F Rises=F RFO-DIIS coefs:    0.87712    0.96422   -0.84133    0.00000    0.00000
                  RFO-DIIS coefs:    0.00000    0.00000    0.00000    0.00000    0.00000
 Iteration  1 RMS(Cart)=  0.00043835 RMS(Int)=  0.00000017
 Iteration  2 RMS(Cart)=  0.00000018 RMS(Int)=  0.00000001
 Variable       Old X    -DE/DX   Delta X   Delta X   Delta X     New X
                                 (Linear)    (Quad)   (Total)
    R1        2.61533   0.00000   0.00000   0.00001   0.00002   2.61535
    R2        2.62438   0.00000  -0.00002   0.00002   0.00000   2.62439
    R3        2.61755  -0.00000   0.00003  -0.00002   0.00001   2.61757
    R4        3.02160  -0.00000   0.00009  -0.00009  -0.00000   3.02160
    R5        2.77586  -0.00001   0.00006  -0.00005   0.00001   2.77587
    R6        2.77565  -0.00003   0.00027  -0.00015   0.00012   2.77577
    R7        2.85485   0.00000  -0.00002   0.00002   0.00000   2.85486
    R8        2.07072   0.00000  -0.00001   0.00001  -0.00000   2.07072
    R9        2.05902  -0.00000  -0.00002   0.00001  -0.00001   2.05901
   R10        2.07381   0.00000  -0.00000   0.00001   0.00001   2.07382
   R11        2.07160  -0.00000  -0.00000   0.00000  -0.00000   2.07160
   R12        2.07333  -0.00000   0.00001  -0.00001   0.00000   2.07333
   R13        2.85255   0.00001  -0.00005   0.00004  -0.00001   2.85254
   R14        2.07150  -0.00000  -0.00002   0.00000  -0.00001   2.07149
   R15        2.06676  -0.00000  -0.00001  -0.00000  -0.00001   2.06675
   R16        2.07394   0.00000  -0.00001   0.00001   0.00000   2.07395
   R17        2.07074   0.00000  -0.00001   0.00000  -0.00000   2.07074
   R18        2.06706  -0.00000   0.00000  -0.00000   0.00000   2.06706
    A1        1.97148   0.00000   0.00000   0.00000   0.00001   1.97148
    A2        1.95689  -0.00000  -0.00003  -0.00001  -0.00004   1.95685
    A3        1.84609   0.00000  -0.00003   0.00001  -0.00002   1.84607
    A4        1.97265  -0.00000  -0.00004   0.00000  -0.00004   1.97262
    A5        1.85460  -0.00000   0.00005  -0.00003   0.00003   1.85463
    A6        1.84980   0.00001   0.00005   0.00002   0.00007   1.84986
    A7        2.08297   0.00001   0.00001   0.00008   0.00009   2.08306
    A8        2.05264  -0.00001  -0.00002   0.00001  -0.00001   2.05263
    A9        1.95929  -0.00000  -0.00015   0.00010  -0.00005   1.95924
   A10        1.91642   0.00001  -0.00002   0.00002  -0.00000   1.91641
   A11        1.86628  -0.00000  -0.00001   0.00002   0.00001   1.86628
   A12        1.85061  -0.00000   0.00005  -0.00004   0.00001   1.85062
   A13        1.97033  -0.00000   0.00001   0.00000   0.00001   1.97034
   A14        1.95193  -0.00000  -0.00002  -0.00001  -0.00003   1.95190
   A15        1.90252   0.00000  -0.00001   0.00000  -0.00000   1.90252
   A16        1.89455  -0.00000   0.00004  -0.00003   0.00001   1.89456
   A17        1.92886   0.00000  -0.00002   0.00001  -0.00001   1.92885
   A18        1.95408   0.00001  -0.00001   0.00004   0.00002   1.95410
   A19        1.89575  -0.00000   0.00002  -0.00002  -0.00000   1.89575
   A20        1.88543  -0.00000  -0.00003   0.00000  -0.00003   1.88540
   A21        1.90382  -0.00000   0.00000   0.00000   0.00001   1.90383
   A22        1.95756   0.00000   0.00001  -0.00002  -0.00002   1.95754
   A23        1.86617   0.00000  -0.00012   0.00009  -0.00003   1.86614
   A24        1.83365   0.00000  -0.00013   0.00007  -0.00006   1.83359
   A25        1.96170  -0.00000   0.00005  -0.00002   0.00003   1.96174
   A26        1.92856  -0.00000   0.00009  -0.00007   0.00002   1.92858
   A27        1.91078  -0.00000   0.00008  -0.00003   0.00004   1.91082
   A28        1.87058   0.00000  -0.00003   0.00005   0.00001   1.87059
   A29        1.93656  -0.00000   0.00002  -0.00001   0.00001   1.93657
   A30        1.95866   0.00000  -0.00005   0.00005   0.00001   1.95866
   A31        1.89539  -0.00000   0.00001  -0.00003  -0.00002   1.89537
   A32        1.89195  -0.00001  -0.00000  -0.00007  -0.00007   1.89188
   A33        1.90886  -0.00000   0.00005   0.00000   0.00005   1.90891
    D1       -2.47229   0.00001   0.00059   0.00036   0.00095  -2.47134
    D2        1.33835   0.00000   0.00090   0.00003   0.00092   1.33927
    D3        1.71120   0.00001   0.00057   0.00037   0.00094   1.71214
    D4       -0.76135   0.00000   0.00088   0.00003   0.00091  -0.76044
    D5       -0.39174   0.00001   0.00057   0.00037   0.00093  -0.39080
    D6       -2.86428   0.00000   0.00087   0.00004   0.00090  -2.86337
    D7        2.20645   0.00000   0.00020  -0.00029  -0.00008   2.20637
    D8       -1.93339   0.00000   0.00019  -0.00026  -0.00007  -1.93346
    D9        0.09486   0.00000   0.00021  -0.00027  -0.00006   0.09481
   D10       -1.57101   0.00000  -0.00004  -0.00001  -0.00005  -1.57105
   D11        0.57233   0.00000  -0.00005   0.00002  -0.00003   0.57230
   D12        2.60059   0.00000  -0.00003   0.00001  -0.00002   2.60057
   D13       -1.00543  -0.00000   0.00035  -0.00030   0.00005  -1.00538
   D14        1.15248  -0.00000   0.00033  -0.00027   0.00006   1.15254
   D15       -3.10115   0.00000   0.00031  -0.00024   0.00007  -3.10108
   D16        2.76004  -0.00001   0.00057  -0.00060  -0.00002   2.76001
   D17       -1.36524  -0.00001   0.00056  -0.00057  -0.00001  -1.36525
   D18        0.66432  -0.00001   0.00054  -0.00054  -0.00000   0.66431
   D19        3.13999   0.00000   0.00021  -0.00014   0.00008   3.14007
   D20       -1.06589  -0.00000   0.00025  -0.00017   0.00008  -1.06581
   D21        1.06024   0.00000   0.00024  -0.00014   0.00010   1.06034
   D22        1.05940   0.00000   0.00024  -0.00017   0.00007   1.05947
   D23        3.13670  -0.00000   0.00028  -0.00021   0.00006   3.13677
   D24       -1.02036   0.00000   0.00026  -0.00018   0.00008  -1.02027
   D25       -1.09382   0.00000   0.00025  -0.00018   0.00008  -1.09374
   D26        0.98348  -0.00000   0.00029  -0.00021   0.00008   0.98356
   D27        3.10961  -0.00000   0.00028  -0.00018   0.00010   3.10971
   D28       -3.02663   0.00000   0.00024   0.00002   0.00026  -3.02637
   D29       -0.95991  -0.00000   0.00024   0.00001   0.00025  -0.95966
   D30        1.18147   0.00000   0.00029   0.00004   0.00033   1.18180
   D31        1.15313  -0.00000   0.00035  -0.00006   0.00029   1.15341
   D32       -3.06334  -0.00000   0.00035  -0.00007   0.00028  -3.06307
   D33       -0.92196  -0.00000   0.00040  -0.00004   0.00036  -0.92160
   D34       -0.98707   0.00000   0.00015   0.00004   0.00019  -0.98688
   D35        1.07965   0.00000   0.00015   0.00003   0.00018   1.07983
   D36       -3.06216   0.00000   0.00020   0.00007   0.00026  -3.06189
         Item               Value     Threshold  Converged?
 Maximum Force            0.000027     0.000450     YES
 RMS     Force            0.000005     0.000300     YES
 Maximum Displacement     0.001964     0.001800     NO 
 RMS     Displacement     0.000438     0.001200     YES
 Predicted change in Energy=-1.738531D-08
 GradGradGradGradGradGradGradGradGradGradGradGradGradGradGradGradGradGrad

                          Input orientation:                          
 ---------------------------------------------------------------------
 Center     Atomic      Atomic             Coordinates (Angstroms)
 Number     Number       Type             X           Y           Z
 ---------------------------------------------------------------------
      1          5           0       -1.767871    0.668002   -0.223454
      2          9           0       -1.550597    1.612517   -1.211426
      3          9           0       -2.117457    1.231199    0.996904
      4          9           0       -2.644017   -0.323462   -0.633362
      5          8           0       -0.359888   -0.054883    0.003926
      6          6           0       -0.325649   -1.501793    0.254991
      7          6           0        0.610065   -2.169348   -0.725365
      8          6           0        0.659616    0.667970    0.775737
      9          6           0        0.992026    2.007904    0.165271
     10          1           0       -0.017998   -1.637503    1.297902
     11          1           0       -1.350997   -1.851674    0.139095
     12          1           0        0.621252   -3.247095   -0.518820
     13          1           0        0.263896   -2.013661   -1.753802
     14          1           0        1.637208   -1.795118   -0.632130
     15          1           0        0.279822    0.758292    1.800054
     16          1           0        1.537246    0.015404    0.768338
     17          1           0        1.837189    2.420925    0.730594
     18          1           0        1.293125    1.897370   -0.882524
     19          1           0        0.156569    2.710935    0.230486
 ---------------------------------------------------------------------
                    Distance matrix (angstroms):
                    1          2          3          4          5
     1  B    0.000000
     2  F    1.383982   0.000000
     3  F    1.388767   2.311591   0.000000
     4  F    1.385156   2.297334   2.313439   0.000000
     5  O    1.598963   2.382246   2.393545   2.386528   0.000000
     6  C    2.648947   3.653738   3.351156   2.748174   1.468929
     7  C    3.735914   4.382605   4.687143   3.742301   2.437958
     8  C    2.625085   3.118658   2.842230   3.725921   1.468875
     9  C    3.092486   2.918314   3.311157   4.392481   2.471597
    10  H    3.269853   4.382719   3.567601   3.514607   2.072667
    11  H    2.579534   3.723489   3.290502   2.145698   2.056460
    12  H    4.595991   5.367724   5.463795   4.384374   3.380253
    13  H    3.696128   4.090933   4.875073   3.545154   2.704723
    14  H    4.222385   4.702091   5.090171   4.527102   2.724219
    15  H    2.880240   3.626175   2.572088   3.954812   2.072814
    16  H    3.511884   4.000626   3.858400   4.422957   2.046553
    17  H    4.120607   3.987738   4.138308   5.428926   3.388926
    18  H    3.363840   2.876817   3.950709   4.527170   2.707312
    19  H    2.843080   2.489989   2.819256   4.218658   2.822730
                    6          7          8          9         10
     6  C    0.000000
     7  C    1.510725   0.000000
     8  C    2.439220   3.210317   0.000000
     9  C    3.749971   4.288188   1.509499   0.000000
    10  H    1.095779   2.184247   2.459070   3.948670   0.000000
    11  H    1.089581   2.166558   3.285800   4.515172   1.779211
    12  H    2.131076   1.097417   4.123722   5.312293   2.509961
    13  H    2.155184   1.096245   3.707601   4.515086   3.087694
    14  H    2.173897   1.097161   3.000762   3.938918   2.547464
    15  H    2.803890   3.880448   1.096187   2.177447   2.465905
    16  H    2.456784   2.804274   1.093678   2.151978   2.330520
    17  H    4.504640   4.969533   2.112243   1.097487   4.498266
    18  H    3.933024   4.126678   2.159303   1.095789   4.355300
    19  H    4.240307   4.993643   2.173490   1.093844   4.480934
                   11         12         13         14         15
    11  H    0.000000
    12  H    2.503961   0.000000
    13  H    2.493427   1.781640   0.000000
    14  H    3.086641   1.775737   1.786587   0.000000
    15  H    3.497182   4.640783   4.507091   3.778612   0.000000
    16  H    3.496266   3.624874   3.478464   2.291133   1.788137
    17  H    5.363721   5.930092   5.320999   4.435316   2.516642
    18  H    4.700045   5.200886   4.136981   3.716929   3.085532
    19  H    4.806091   6.022915   5.125497   4.820882   2.508296
                   16         17         18         19
    16  H    0.000000
    17  H    2.424443   0.000000
    18  H    2.515301   1.781085   0.000000
    19  H    3.075946   1.777272   1.786739   0.000000
 Stoichiometry    C4H10BF3O
 Framework group  C1[X(C4H10BF3O)]
 Deg. of freedom    51
 Full point group                 C1      NOp   1
 Largest Abelian subgroup         C1      NOp   1
 Largest concise Abelian subgroup C1      NOp   1
                         Standard orientation:                         
 ---------------------------------------------------------------------
 Center     Atomic      Atomic             Coordinates (Angstroms)
 Number     Number       Type             X           Y           Z
 ---------------------------------------------------------------------
      1          5           0       -0.942783   -0.708442   -0.045852
      2          9           0       -1.580594   -0.262772   -1.190396
      3          9           0       -1.659108   -0.439401    1.113099
      4          9           0       -0.555016   -2.034320   -0.147541
      5          8           0        0.409130    0.139237    0.056393
      6          6           0        1.638129   -0.518583    0.519629
      7          6           0        2.744799   -0.301772   -0.485640
      8          6           0        0.308663    1.526468    0.528717
      9          6           0       -0.618350    2.353983   -0.328285
     10          1           0        1.870692   -0.101982    1.506082
     11          1           0        1.391423   -1.574173    0.629414
     12          1           0        3.651724   -0.799304   -0.119209
     13          1           0        2.474164   -0.736876   -1.454761
     14          1           0        2.972905    0.762772   -0.621569
     15          1           0       -0.015766    1.484593    1.574957
     16          1           0        1.328517    1.918267    0.478480
     17          1           0       -0.541075    3.392016    0.019556
     18          1           0       -0.317816    2.315019   -1.381335
     19          1           0       -1.660872    2.035845   -0.236478
 ---------------------------------------------------------------------
 Rotational constants (GHZ):           1.7504155           1.4170298           1.0063452
 Standard basis: Aug-CC-pVDZ (5D, 7F)
 There are   315 symmetry adapted cartesian basis functions of A   symmetry.
 There are   297 symmetry adapted basis functions of A   symmetry.
   297 basis functions,   497 primitive gaussians,   315 cartesian basis functions
    37 alpha electrons       37 beta electrons
       nuclear repulsion energy       523.8650291872 Hartrees.
 NAtoms=   19 NActive=   19 NUniq=   19 SFac= 1.00D+00 NAtFMM=   60 NAOKFM=F Big=F
 Integral buffers will be    131072 words long.
 Raffenetti 2 integral format.
 Two-electron integral symmetry is turned on.
 Nuclear repulsion after empirical dispersion term =      523.8529527134 Hartrees.
 Force PCM accuracy= 1.00D-12.
 ------------------------------------------------------------------------------
 Polarizable Continuum Model (PCM)
 =================================
 Model                : C-PCM.
 Atomic radii         : UFF (Universal Force Field).
 Polarization charges : Total charges.
 Charge compensation  : None.
 Solution method      : On-the-fly selection.
 Cavity type          : Scaled VdW (van der Waals Surface) (Alpha=1.100).
 Cavity algorithm     : GePol (No added spheres)
                        Default sphere list used, NSphG=   19.
                        Lebedev-Laikov grids with approx.  5.0 points / Ang**2.
                        Smoothing algorithm: York/Karplus (Gamma=1.0000).
                        Polarization charges: spherical gaussians, with
                                              point-specific exponents (IZeta= 3).
                        Self-potential: point-specific (ISelfS= 7).
                        Self-field    : sphere-specific E.n sum rule (ISelfD= 2).
 1st derivatives      : Analytical E(r).r(x)/FMM algorithm (CHGder, D1EAlg=3).
                        Cavity 1st derivative terms included.
 Solvent              : TetraHydroFuran, Eps=   7.425700 Eps(inf)=   1.974025
 ------------------------------------------------------------------------------
 Spheres list:
 ISph  on   Nord     Re0    Alpha      Xe            Ye            Ze
    1   B      1    2.0415  1.100     -0.942783     -0.708442     -0.045852
    2   F      2    1.6820  1.100     -1.580594     -0.262772     -1.190396
    3   F      3    1.6820  1.100     -1.659108     -0.439401      1.113099
    4   F      4    1.6820  1.100     -0.555016     -2.034320     -0.147541
    5   O      5    1.7500  1.100      0.409130      0.139237      0.056393
    6   C      6    1.9255  1.100      1.638129     -0.518583      0.519629
    7   C      7    1.9255  1.100      2.744799     -0.301772     -0.485640
    8   C      8    1.9255  1.100      0.308663      1.526468      0.528717
    9   C      9    1.9255  1.100     -0.618350      2.353983     -0.328285
   10   H     10    1.4430  1.100      1.870692     -0.101982      1.506082
   11   H     11    1.4430  1.100      1.391423     -1.574173      0.629414
   12   H     12    1.4430  1.100      3.651724     -0.799304     -0.119209
   13   H     13    1.4430  1.100      2.474164     -0.736876     -1.454761
   14   H     14    1.4430  1.100      2.972905      0.762772     -0.621569
   15   H     15    1.4430  1.100     -0.015766      1.484593      1.574957
   16   H     16    1.4430  1.100      1.328517      1.918267      0.478480
   17   H     17    1.4430  1.100     -0.541075      3.392016      0.019556
   18   H     18    1.4430  1.100     -0.317816      2.315019     -1.381335
   19   H     19    1.4430  1.100     -1.660872      2.035845     -0.236478
 ------------------------------------------------------------------------------
 One-electron integrals computed using PRISM.
 NBasis=   297 RedAO= T EigKep=  2.72D-05  NBF=   297
 NBsUse=   297 1.00D-06 EigRej= -1.00D+00 NBFU=   297
 Initial guess from the checkpoint file:  "/inspire/hdd/project/materialscienceresearch/lipenghui-253107030018/g16/00-B-DFT-Shift/04-output/BF3OEt2_THF/BF3OEt2_THF.chk"
 B after Tr=    -0.000000   -0.000000    0.000000
         Rot=    1.000000    0.000123    0.000061    0.000043 Ang=   0.02 deg.
 Requested convergence on RMS density matrix=1.00D-08 within 128 cycles.
 Requested convergence on MAX density matrix=1.00D-06.
 Requested convergence on             energy=1.00D-06.
 No special actions if energy rises.
 Inv3:  Mode=1 IEnd=     7004352.
 Iteration    1 A*A^-1 deviation from unit magnitude is 2.78D-15 for    352.
 Iteration    1 A*A^-1 deviation from orthogonality  is 2.38D-15 for   1525    804.
 Iteration    1 A^-1*A deviation from unit magnitude is 2.78D-15 for    352.
 Iteration    1 A^-1*A deviation from orthogonality  is 1.13D-15 for   1503   1148.
 Error on total polarization charges =  0.00990
 SCF Done:  E(RwB97XD) =  -558.150339000     A.U. after    7 cycles
            NFock=  7  Conv=0.47D-08     -V/T= 2.0060
 D1PCM: C-PCM CHGder 1st derivatives, ID1Alg=3 FixD1E=F DoIter=F DoCFld=F I1PDM=0.
 Calling FoFJK, ICntrl=      2127 FMM=F ISym2X=0 I1Cent= 0 IOpClX= 0 NMat=1 NMatS=1 NMatT=0.
 ***** Axes restored to original set *****
 -------------------------------------------------------------------
 Center     Atomic                   Forces (Hartrees/Bohr)
 Number     Number              X              Y              Z
 -------------------------------------------------------------------
      1        5          -0.000002103   -0.000004345   -0.000006778
      2        9           0.000001616   -0.000002723    0.000002832
      3        9           0.000006003    0.000000150    0.000002824
      4        9           0.000001484    0.000001388    0.000009339
      5        8           0.000017626    0.000013404    0.000058399
      6        6           0.000009997    0.000006200   -0.000019512
      7        6           0.000010580    0.000002178    0.000000973
      8        6          -0.000046186   -0.000038793   -0.000036082
      9        6          -0.000002569    0.000000694   -0.000005579
     10        1           0.000001204    0.000001708    0.000001776
     11        1           0.000001287    0.000002833   -0.000001119
     12        1          -0.000001268    0.000001203    0.000001142
     13        1          -0.000000009   -0.000002097    0.000000162
     14        1          -0.000000895    0.000000841   -0.000004689
     15        1           0.000006020    0.000004846    0.000001283
     16        1           0.000003547    0.000005977    0.000004049
     17        1          -0.000002355    0.000003878   -0.000003327
     18        1          -0.000002315    0.000000631   -0.000002113
     19        1          -0.000001663    0.000002028   -0.000003579
 -------------------------------------------------------------------
 Cartesian Forces:  Max     0.000058399 RMS     0.000013230

 GradGradGradGradGradGradGradGradGradGradGradGradGradGradGradGradGradGrad
 Berny optimization.
 Using GEDIIS/GDIIS optimizer.
 FormGI is forming the generalized inverse of G from B-inverse, IUseBI=4.
 Internal  Forces:  Max     0.000059313 RMS     0.000008462
 Search for a local minimum.
 Step number  24 out of a maximum of   97
 All quantities printed in internal units (Hartrees-Bohrs-Radians)
 Mixed Optimization -- En-DIIS/RFO-DIIS
 Swapping is turned off.
 Update second derivatives using D2CorX and points   10   11   12   13   14
                                                     15   16   17   18   19
                                                     20   21   22   23   24
 DE= -2.04D-08 DEPred=-1.74D-08 R= 1.17D+00
 Trust test= 1.17D+00 RLast= 2.44D-03 DXMaxT set to 8.89D-01
 ITU=  0  0  0  0  1  1  1  1  1  1  1  1  1  1 -1  1  1  1  1  1
 ITU=  1  1  1  0
     Eigenvalues ---    0.00073   0.00255   0.00267   0.00326   0.00481
     Eigenvalues ---    0.02138   0.04606   0.05022   0.05057   0.05190
     Eigenvalues ---    0.05441   0.05498   0.05777   0.05894   0.08047
     Eigenvalues ---    0.09804   0.10070   0.12795   0.12932   0.12992
     Eigenvalues ---    0.13384   0.15657   0.15990   0.16036   0.16155
     Eigenvalues ---    0.16439   0.16712   0.20614   0.22653   0.23749
     Eigenvalues ---    0.25196   0.25541   0.28233   0.28402   0.28839
     Eigenvalues ---    0.29037   0.30571   0.31788   0.31978   0.32034
     Eigenvalues ---    0.32121   0.32154   0.32177   0.32224   0.32439
     Eigenvalues ---    0.32997   0.33698   0.37231   0.39935   0.42497
     Eigenvalues ---    0.59841
 En-DIIS/RFO-DIIS/Sim-DIIS IScMMF=       -3 using points:    24   23   22   21   20   19   18   17   16   15
 RFO step:  Lambda=-3.82121181D-08.
 DIIS inversion failure, remove point  10.
 DIIS inversion failure, remove point   9.
 DIIS inversion failure, remove point   8.
 DIIS inversion failure, remove point   7.
 DIIS inversion failure, remove point   6.
 DIIS inversion failure, remove point   5.
 DIIS inversion failure, remove point   4.
 RFO-DIIS uses    3 points instead of   10
 DidBck=F Rises=F RFO-DIIS coefs:    2.61414   -2.00000    0.38586    0.00000    0.00000
                  RFO-DIIS coefs:    0.00000    0.00000    0.00000    0.00000    0.00000
 Iteration  1 RMS(Cart)=  0.00050729 RMS(Int)=  0.00000010
 Iteration  2 RMS(Cart)=  0.00000012 RMS(Int)=  0.00000000
 Variable       Old X    -DE/DX   Delta X   Delta X   Delta X     New X
                                 (Linear)    (Quad)   (Total)
    R1        2.61535  -0.00000   0.00001  -0.00001   0.00001   2.61535
    R2        2.62439  -0.00000   0.00001  -0.00001  -0.00000   2.62438
    R3        2.61757  -0.00001   0.00001  -0.00003  -0.00001   2.61755
    R4        3.02160  -0.00001   0.00002  -0.00001   0.00002   3.02162
    R5        2.77587  -0.00002   0.00001  -0.00005  -0.00004   2.77583
    R6        2.77577  -0.00006   0.00009  -0.00013  -0.00004   2.77573
    R7        2.85486   0.00000   0.00000   0.00000   0.00001   2.85487
    R8        2.07072   0.00000  -0.00000   0.00001   0.00000   2.07073
    R9        2.05901  -0.00000  -0.00001   0.00001   0.00000   2.05901
   R10        2.07382  -0.00000   0.00000   0.00000   0.00001   2.07382
   R11        2.07160  -0.00000  -0.00000   0.00000  -0.00000   2.07160
   R12        2.07333  -0.00000  -0.00000  -0.00000  -0.00000   2.07333
   R13        2.85254   0.00001  -0.00001   0.00002   0.00001   2.85255
   R14        2.07149   0.00000  -0.00001   0.00001  -0.00000   2.07149
   R15        2.06675  -0.00000  -0.00001   0.00001  -0.00000   2.06675
   R16        2.07395  -0.00000   0.00000   0.00000   0.00001   2.07396
   R17        2.07074   0.00000   0.00000  -0.00000   0.00000   2.07074
   R18        2.06706   0.00000   0.00000   0.00000   0.00000   2.06707
    A1        1.97148   0.00000  -0.00001   0.00001   0.00000   1.97149
    A2        1.95685   0.00001  -0.00003   0.00004   0.00001   1.95686
    A3        1.84607  -0.00001  -0.00001  -0.00002  -0.00003   1.84605
    A4        1.97262   0.00000  -0.00003   0.00003  -0.00001   1.97261
    A5        1.85463  -0.00001   0.00003  -0.00005  -0.00003   1.85461
    A6        1.84986   0.00001   0.00006  -0.00002   0.00005   1.84991
    A7        2.08306   0.00001   0.00005   0.00005   0.00011   2.08316
    A8        2.05263  -0.00002  -0.00004  -0.00002  -0.00007   2.05257
    A9        1.95924   0.00001  -0.00002   0.00008   0.00006   1.95930
   A10        1.91641   0.00001   0.00001   0.00001   0.00002   1.91643
   A11        1.86628  -0.00000  -0.00000   0.00002   0.00002   1.86630
   A12        1.85062  -0.00000   0.00001  -0.00003  -0.00002   1.85061
   A13        1.97034  -0.00000   0.00002  -0.00001   0.00001   1.97035
   A14        1.95190   0.00000  -0.00003   0.00000  -0.00003   1.95187
   A15        1.90252   0.00000   0.00000   0.00000   0.00000   1.90252
   A16        1.89456  -0.00001   0.00001  -0.00003  -0.00002   1.89454
   A17        1.92885   0.00000  -0.00001   0.00001  -0.00000   1.92885
   A18        1.95410   0.00000   0.00003   0.00001   0.00004   1.95414
   A19        1.89575   0.00000  -0.00000  -0.00001  -0.00001   1.89574
   A20        1.88540   0.00000  -0.00003   0.00002  -0.00001   1.88539
   A21        1.90383  -0.00000   0.00000  -0.00000   0.00000   1.90383
   A22        1.95754  -0.00002  -0.00003  -0.00002  -0.00005   1.95749
   A23        1.86614   0.00001  -0.00001   0.00003   0.00002   1.86616
   A24        1.83359   0.00001  -0.00004   0.00009   0.00005   1.83364
   A25        1.96174   0.00000   0.00004  -0.00003   0.00001   1.96175
   A26        1.92858  -0.00000   0.00001  -0.00003  -0.00002   1.92856
   A27        1.91082  -0.00000   0.00002  -0.00003  -0.00001   1.91081
   A28        1.87059   0.00000   0.00002   0.00003   0.00005   1.87064
   A29        1.93657  -0.00000  -0.00000  -0.00002  -0.00002   1.93655
   A30        1.95866   0.00000   0.00001   0.00001   0.00001   1.95868
   A31        1.89537  -0.00000  -0.00002   0.00000  -0.00001   1.89535
   A32        1.89188  -0.00000  -0.00005  -0.00000  -0.00005   1.89183
   A33        1.90891  -0.00000   0.00004  -0.00002   0.00002   1.90893
    D1       -2.47134   0.00000   0.00057   0.00022   0.00080  -2.47054
    D2        1.33927  -0.00001   0.00060   0.00002   0.00063   1.33990
    D3        1.71214   0.00001   0.00058   0.00024   0.00082   1.71296
    D4       -0.76044   0.00000   0.00061   0.00004   0.00065  -0.75979
    D5       -0.39080   0.00001   0.00057   0.00025   0.00082  -0.38999
    D6       -2.86337  -0.00000   0.00060   0.00005   0.00065  -2.86273
    D7        2.20637   0.00000   0.00015   0.00008   0.00023   2.20660
    D8       -1.93346   0.00000   0.00018   0.00009   0.00026  -1.93320
    D9        0.09481   0.00000   0.00018   0.00008   0.00027   0.09507
   D10       -1.57105   0.00000   0.00012   0.00023   0.00035  -1.57070
   D11        0.57230   0.00000   0.00014   0.00024   0.00038   0.57268
   D12        2.60057   0.00000   0.00015   0.00024   0.00038   2.60095
   D13       -1.00538   0.00000  -0.00049   0.00000  -0.00049  -1.00587
   D14        1.15254   0.00000  -0.00047  -0.00003  -0.00049   1.15205
   D15       -3.10108   0.00001  -0.00047  -0.00000  -0.00047  -3.10155
   D16        2.76001  -0.00001  -0.00050  -0.00018  -0.00067   2.75934
   D17       -1.36525  -0.00001  -0.00047  -0.00021  -0.00068  -1.36593
   D18        0.66431  -0.00001  -0.00047  -0.00018  -0.00065   0.66366
   D19        3.14007   0.00000   0.00008  -0.00009  -0.00002   3.14006
   D20       -1.06581  -0.00000   0.00007  -0.00012  -0.00004  -1.06585
   D21        1.06034   0.00000   0.00009  -0.00010  -0.00001   1.06032
   D22        1.05947   0.00000   0.00007  -0.00012  -0.00006   1.05941
   D23        3.13677  -0.00000   0.00006  -0.00014  -0.00008   3.13668
   D24       -1.02027   0.00000   0.00008  -0.00013  -0.00005  -1.02032
   D25       -1.09374  -0.00000   0.00007  -0.00012  -0.00004  -1.09378
   D26        0.98356  -0.00000   0.00007  -0.00014  -0.00007   0.98349
   D27        3.10971  -0.00000   0.00009  -0.00013  -0.00004   3.10967
   D28       -3.02637  -0.00000   0.00027  -0.00021   0.00006  -3.02631
   D29       -0.95966  -0.00000   0.00026  -0.00020   0.00006  -0.95960
   D30        1.18180  -0.00000   0.00031  -0.00023   0.00008   1.18188
   D31        1.15341  -0.00000   0.00028  -0.00022   0.00006   1.15347
   D32       -3.06307  -0.00000   0.00027  -0.00020   0.00006  -3.06300
   D33       -0.92160  -0.00000   0.00032  -0.00024   0.00008  -0.92152
   D34       -0.98688   0.00000   0.00021  -0.00013   0.00008  -0.98680
   D35        1.07983   0.00000   0.00020  -0.00012   0.00008   1.07991
   D36       -3.06189   0.00000   0.00025  -0.00015   0.00010  -3.06179
         Item               Value     Threshold  Converged?
 Maximum Force            0.000059     0.000450     YES
 RMS     Force            0.000008     0.000300     YES
 Maximum Displacement     0.001957     0.001800     NO 
 RMS     Displacement     0.000507     0.001200     YES
 Predicted change in Energy=-1.839923D-08
 GradGradGradGradGradGradGradGradGradGradGradGradGradGradGradGradGradGrad

                          Input orientation:                          
 ---------------------------------------------------------------------
 Center     Atomic      Atomic             Coordinates (Angstroms)
 Number     Number       Type             X           Y           Z
 ---------------------------------------------------------------------
      1          5           0       -1.768071    0.668049   -0.223180
      2          9           0       -1.550976    1.612076   -1.211663
      3          9           0       -2.117156    1.231859    0.997035
      4          9           0       -2.644507   -0.323463   -0.632326
      5          8           0       -0.360087   -0.054893    0.004081
      6          6           0       -0.325699   -1.501837    0.254805
      7          6           0        0.610355   -2.169050   -0.725467
      8          6           0        0.659382    0.667933    0.775917
      9          6           0        0.992181    2.007616    0.165103
     10          1           0       -0.018321   -1.637770    1.297771
     11          1           0       -1.350967   -1.851831    0.138530
     12          1           0        0.621631   -3.246838   -0.519130
     13          1           0        0.264401   -2.013215   -1.753953
     14          1           0        1.637433   -1.794721   -0.631929
     15          1           0        0.279392    0.758633    1.800124
     16          1           0        1.536902    0.015216    0.768912
     17          1           0        1.837348    2.420664    0.730407
     18          1           0        1.293415    1.896686   -0.882612
     19          1           0        0.156882    2.710867    0.229991
 ---------------------------------------------------------------------
                    Distance matrix (angstroms):
                    1          2          3          4          5
     1  B    0.000000
     2  F    1.383986   0.000000
     3  F    1.388764   2.311594   0.000000
     4  F    1.385148   2.297335   2.313427   0.000000
     5  O    1.598972   2.382233   2.393528   2.386570   0.000000
     6  C    2.649020   3.653530   3.351614   2.748170   1.468908
     7  C    3.736085   4.382311   4.687484   3.742859   2.437962
     8  C    2.625019   3.118904   2.841843   3.725815   1.468852
     9  C    3.092604   2.918833   3.310874   4.392645   2.471539
    10  H    3.269819   4.382669   3.567957   3.514190   2.072664
    11  H    2.579652   3.723127   3.291386   2.145548   2.056430
    12  H    4.596151   5.367389   5.464288   4.384814   3.380242
    13  H    3.696401   4.090526   4.875475   3.546132   2.704754
    14  H    4.222531   4.701947   5.090251   4.527650   2.724261
    15  H    2.879943   3.626220   2.571447   3.954356   2.072807
    16  H    3.511877   4.000953   3.858030   4.422935   2.046570
    17  H    4.120684   3.988257   4.137928   5.429024   3.388902
    18  H    3.364090   2.877471   3.950577   4.527575   2.707205
    19  H    2.843223   2.490480   2.819055   4.218831   2.822715
                    6          7          8          9         10
     6  C    0.000000
     7  C    1.510730   0.000000
     8  C    2.439230   3.210144   0.000000
     9  C    3.749816   4.287592   1.509503   0.000000
    10  H    1.095782   2.184258   2.459243   3.948783   0.000000
    11  H    1.089582   2.166541   3.285875   4.515128   1.779216
    12  H    2.131066   1.097420   4.123591   5.311758   2.509934
    13  H    2.155188   1.096245   3.707399   4.514369   3.087703
    14  H    2.173929   1.097160   3.000547   3.938195   2.547528
    15  H    2.804259   3.880654   1.096185   2.177458   2.466523
    16  H    2.456632   2.804046   1.093677   2.151967   2.330402
    17  H    4.504552   4.968959   2.112284   1.097490   4.498477
    18  H    3.932583   4.125709   2.159294   1.095790   4.355124
    19  H    4.240327   4.993208   2.173504   1.093845   4.481238
                   11         12         13         14         15
    11  H    0.000000
    12  H    2.503938   0.000000
    13  H    2.493381   1.781636   0.000000
    14  H    3.086649   1.775731   1.786587   0.000000
    15  H    3.497640   4.641106   4.507198   3.778727   0.000000
    16  H    3.496145   3.624606   3.478310   2.290925   1.788127
    17  H    5.363757   5.929578   5.320291   4.434569   2.516719
    18  H    4.699667   5.199929   4.135872   3.715869   3.085528
    19  H    4.806266   6.022576   5.124895   4.820297   2.508296
                   16         17         18         19
    16  H    0.000000
    17  H    2.424444   0.000000
    18  H    2.515303   1.781080   0.000000
    19  H    3.075943   1.777245   1.786752   0.000000
 Stoichiometry    C4H10BF3O
 Framework group  C1[X(C4H10BF3O)]
 Deg. of freedom    51
 Full point group                 C1      NOp   1
 Largest Abelian subgroup         C1      NOp   1
 Largest concise Abelian subgroup C1      NOp   1
                         Standard orientation:                         
 ---------------------------------------------------------------------
 Center     Atomic      Atomic             Coordinates (Angstroms)
 Number     Number       Type             X           Y           Z
 ---------------------------------------------------------------------
      1          5           0       -0.943281   -0.707939   -0.045895
      2          9           0       -1.580332   -0.262276   -1.190869
      3          9           0       -1.659858   -0.437920    1.112670
      4          9           0       -0.556418   -2.034127   -0.146888
      5          8           0        0.409162    0.138888    0.056534
      6          6           0        1.637838   -0.519668    0.519515
      7          6           0        2.744664   -0.302906   -0.485599
      8          6           0        0.309438    1.526085    0.529041
      9          6           0       -0.616539    2.354356   -0.328359
     10          1           0        1.870543   -0.103647    1.506182
     11          1           0        1.390659   -1.575203    0.628776
     12          1           0        3.651341   -0.801001   -0.119310
     13          1           0        2.473907   -0.737496   -1.454915
     14          1           0        2.973277    0.761585   -0.621082
     15          1           0       -0.015583    1.484281    1.575098
     16          1           0        1.329577    1.917216    0.479420
     17          1           0       -0.538730    3.392315    0.019592
     18          1           0       -0.315475    2.315267   -1.381254
     19          1           0       -1.659345    2.036984   -0.237115
 ---------------------------------------------------------------------
 Rotational constants (GHZ):           1.7504808           1.4169504           1.0063406
 Standard basis: Aug-CC-pVDZ (5D, 7F)
 There are   315 symmetry adapted cartesian basis functions of A   symmetry.
 There are   297 symmetry adapted basis functions of A   symmetry.
   297 basis functions,   497 primitive gaussians,   315 cartesian basis functions
    37 alpha electrons       37 beta electrons
       nuclear repulsion energy       523.8640453101 Hartrees.
 NAtoms=   19 NActive=   19 NUniq=   19 SFac= 1.00D+00 NAtFMM=   60 NAOKFM=F Big=F
 Integral buffers will be    131072 words long.
 Raffenetti 2 integral format.
 Two-electron integral symmetry is turned on.
 Nuclear repulsion after empirical dispersion term =      523.8519689724 Hartrees.
 Force PCM accuracy= 1.00D-12.
 ------------------------------------------------------------------------------
 Polarizable Continuum Model (PCM)
 =================================
 Model                : C-PCM.
 Atomic radii         : UFF (Universal Force Field).
 Polarization charges : Total charges.
 Charge compensation  : None.
 Solution method      : On-the-fly selection.
 Cavity type          : Scaled VdW (van der Waals Surface) (Alpha=1.100).
 Cavity algorithm     : GePol (No added spheres)
                        Default sphere list used, NSphG=   19.
                        Lebedev-Laikov grids with approx.  5.0 points / Ang**2.
                        Smoothing algorithm: York/Karplus (Gamma=1.0000).
                        Polarization charges: spherical gaussians, with
                                              point-specific exponents (IZeta= 3).
                        Self-potential: point-specific (ISelfS= 7).
                        Self-field    : sphere-specific E.n sum rule (ISelfD= 2).
 1st derivatives      : Analytical E(r).r(x)/FMM algorithm (CHGder, D1EAlg=3).
                        Cavity 1st derivative terms included.
 Solvent              : TetraHydroFuran, Eps=   7.425700 Eps(inf)=   1.974025
 ------------------------------------------------------------------------------
 Spheres list:
 ISph  on   Nord     Re0    Alpha      Xe            Ye            Ze
    1   B      1    2.0415  1.100     -0.943281     -0.707939     -0.045895
    2   F      2    1.6820  1.100     -1.580332     -0.262276     -1.190869
    3   F      3    1.6820  1.100     -1.659858     -0.437920      1.112670
    4   F      4    1.6820  1.100     -0.556418     -2.034127     -0.146888
    5   O      5    1.7500  1.100      0.409162      0.138888      0.056534
    6   C      6    1.9255  1.100      1.637838     -0.519668      0.519515
    7   C      7    1.9255  1.100      2.744664     -0.302906     -0.485599
    8   C      8    1.9255  1.100      0.309438      1.526085      0.529041
    9   C      9    1.9255  1.100     -0.616539      2.354356     -0.328359
   10   H     10    1.4430  1.100      1.870543     -0.103647      1.506182
   11   H     11    1.4430  1.100      1.390659     -1.575203      0.628776
   12   H     12    1.4430  1.100      3.651341     -0.801001     -0.119310
   13   H     13    1.4430  1.100      2.473907     -0.737496     -1.454915
   14   H     14    1.4430  1.100      2.973277      0.761585     -0.621082
   15   H     15    1.4430  1.100     -0.015583      1.484281      1.575098
   16   H     16    1.4430  1.100      1.329577      1.917216      0.479420
   17   H     17    1.4430  1.100     -0.538730      3.392315      0.019592
   18   H     18    1.4430  1.100     -0.315475      2.315267     -1.381254
   19   H     19    1.4430  1.100     -1.659345      2.036984     -0.237115
 ------------------------------------------------------------------------------
 One-electron integrals computed using PRISM.
 NBasis=   297 RedAO= T EigKep=  2.72D-05  NBF=   297
 NBsUse=   297 1.00D-06 EigRej= -1.00D+00 NBFU=   297
 Initial guess from the checkpoint file:  "/inspire/hdd/project/materialscienceresearch/lipenghui-253107030018/g16/00-B-DFT-Shift/04-output/BF3OEt2_THF/BF3OEt2_THF.chk"
 B after Tr=     0.000000    0.000000    0.000000
         Rot=    1.000000    0.000025    0.000067    0.000300 Ang=   0.04 deg.
 Requested convergence on RMS density matrix=1.00D-08 within 128 cycles.
 Requested convergence on MAX density matrix=1.00D-06.
 Requested convergence on             energy=1.00D-06.
 No special actions if energy rises.
 Inv3:  Mode=1 IEnd=     6995187.
 Iteration    1 A*A^-1 deviation from unit magnitude is 3.55D-15 for   1512.
 Iteration    1 A*A^-1 deviation from orthogonality  is 3.96D-15 for   1522    807.
 Iteration    1 A^-1*A deviation from unit magnitude is 3.33D-15 for   1512.
 Iteration    1 A^-1*A deviation from orthogonality  is 1.25D-15 for   1424    509.
 Error on total polarization charges =  0.00990
 SCF Done:  E(RwB97XD) =  -558.150338951     A.U. after    7 cycles
            NFock=  7  Conv=0.52D-08     -V/T= 2.0060
 D1PCM: C-PCM CHGder 1st derivatives, ID1Alg=3 FixD1E=F DoIter=F DoCFld=F I1PDM=0.
 Calling FoFJK, ICntrl=      2127 FMM=F ISym2X=0 I1Cent= 0 IOpClX= 0 NMat=1 NMatS=1 NMatT=0.
 ***** Axes restored to original set *****
 -------------------------------------------------------------------
 Center     Atomic                   Forces (Hartrees/Bohr)
 Number     Number              X              Y              Z
 -------------------------------------------------------------------
      1        5          -0.000001816   -0.000002624   -0.000007798
      2        9           0.000002951   -0.000000717    0.000004518
      3        9           0.000004463    0.000001455    0.000002247
      4        9           0.000000291    0.000000163    0.000008178
      5        8           0.000014754    0.000011088    0.000057190
      6        6           0.000009492   -0.000002132   -0.000020659
      7        6           0.000009526   -0.000001328    0.000001462
      8        6          -0.000036511   -0.000029592   -0.000031672
      9        6          -0.000001696    0.000004071   -0.000004078
     10        1           0.000001436    0.000002661    0.000001172
     11        1           0.000001636    0.000003850    0.000000507
     12        1          -0.000001159    0.000002370    0.000000491
     13        1           0.000000428   -0.000001184    0.000000127
     14        1          -0.000001264    0.000002371   -0.000003554
     15        1           0.000005747    0.000003454    0.000001123
     16        1           0.000002073    0.000004356    0.000002242
     17        1          -0.000003150    0.000000566   -0.000003322
     18        1          -0.000003418    0.000001040   -0.000002813
     19        1          -0.000003780    0.000000132   -0.000005361
 -------------------------------------------------------------------
 Cartesian Forces:  Max     0.000057190 RMS     0.000011763

 GradGradGradGradGradGradGradGradGradGradGradGradGradGradGradGradGradGrad
 Berny optimization.
 Using GEDIIS/GDIIS optimizer.
 FormGI is forming the generalized inverse of G from B-inverse, IUseBI=4.
 Internal  Forces:  Max     0.000053079 RMS     0.000008102
 Search for a local minimum.
 Step number  25 out of a maximum of   97
 All quantities printed in internal units (Hartrees-Bohrs-Radians)
 Mixed Optimization -- En-DIIS/RFO-DIIS
 Swapping is turned off.
 Update second derivatives using D2CorX and points   10   11   12   13   14
                                                     15   16   17   18   19
                                                     20   21   22   23   24
                                                     25
 DE=  4.93D-08 DEPred=-1.84D-08 R=-2.68D+00
 Trust test=-2.68D+00 RLast= 2.44D-03 DXMaxT set to 4.44D-01
 ITU= -1  0  0  0  0  1  1  1  1  1  1  1  1  1  1 -1  1  1  1  1
 ITU=  1  1  1  1  0
     Eigenvalues ---    0.00061   0.00142   0.00257   0.00309   0.00361
     Eigenvalues ---    0.01967   0.04613   0.04896   0.05091   0.05352
     Eigenvalues ---    0.05434   0.05495   0.05771   0.05896   0.07888
     Eigenvalues ---    0.09700   0.10253   0.12834   0.12930   0.13101
     Eigenvalues ---    0.13396   0.15938   0.15979   0.16050   0.16211
     Eigenvalues ---    0.16471   0.17144   0.20797   0.22243   0.23839
     Eigenvalues ---    0.25087   0.25772   0.28241   0.28421   0.28858
     Eigenvalues ---    0.29137   0.30346   0.31641   0.31990   0.32021
     Eigenvalues ---    0.32121   0.32152   0.32196   0.32214   0.32291
     Eigenvalues ---    0.32584   0.33715   0.36693   0.39915   0.41563
     Eigenvalues ---    0.56459
 En-DIIS/RFO-DIIS/Sim-DIIS IScMMF=       -3 using points:    25   24   23   22   21   20   19   18   17   16
 RFO step:  Lambda=-1.94662325D-07.
 DIIS inversion failure, remove point  10.
 DIIS inversion failure, remove point   9.
 DIIS inversion failure, remove point   8.
 DIIS inversion failure, remove point   7.
 DIIS inversion failure, remove point   6.
 DIIS inversion failure, remove point   5.
 DIIS inversion failure, remove point   4.
 RFO-DIIS uses    3 points instead of   10
 DidBck=F Rises=F RFO-DIIS coefs:    2.84856    0.15144   -2.00000    0.00000    0.00000
                  RFO-DIIS coefs:    0.00000    0.00000    0.00000    0.00000    0.00000
 Iteration  1 RMS(Cart)=  0.00203977 RMS(Int)=  0.00000288
 Iteration  2 RMS(Cart)=  0.00000307 RMS(Int)=  0.00000009
 Iteration  3 RMS(Cart)=  0.00000000 RMS(Int)=  0.00000009
 Variable       Old X    -DE/DX   Delta X   Delta X   Delta X     New X
                                 (Linear)    (Quad)   (Total)
    R1        2.61535  -0.00000   0.00005   0.00000   0.00005   2.61540
    R2        2.62438   0.00000   0.00000  -0.00000   0.00000   2.62438
    R3        2.61755  -0.00000  -0.00000  -0.00004  -0.00004   2.61751
    R4        3.02162  -0.00001   0.00003  -0.00006  -0.00003   3.02159
    R5        2.77583  -0.00001  -0.00005  -0.00009  -0.00015   2.77569
    R6        2.77573  -0.00005   0.00016  -0.00030  -0.00014   2.77559
    R7        2.85487   0.00000   0.00002   0.00001   0.00003   2.85490
    R8        2.07073  -0.00000   0.00001   0.00001   0.00001   2.07074
    R9        2.05901  -0.00000  -0.00001   0.00001   0.00000   2.05901
   R10        2.07382  -0.00000   0.00002  -0.00000   0.00002   2.07384
   R11        2.07160  -0.00000  -0.00000   0.00000  -0.00000   2.07160
   R12        2.07333  -0.00000  -0.00000  -0.00000  -0.00001   2.07333
   R13        2.85255   0.00000  -0.00001   0.00004   0.00003   2.85257
   R14        2.07149   0.00000  -0.00003   0.00001  -0.00002   2.07147
   R15        2.06675  -0.00000  -0.00002   0.00001  -0.00001   2.06674
   R16        2.07396  -0.00000   0.00002  -0.00000   0.00002   2.07397
   R17        2.07074   0.00000  -0.00000   0.00000   0.00000   2.07074
   R18        2.06707   0.00000   0.00001   0.00000   0.00002   2.06708
    A1        1.97149   0.00000   0.00002  -0.00002  -0.00000   1.97148
    A2        1.95686   0.00001  -0.00006   0.00006  -0.00000   1.95686
    A3        1.84605  -0.00001  -0.00008  -0.00002  -0.00010   1.84595
    A4        1.97261   0.00000  -0.00008   0.00003  -0.00005   1.97256
    A5        1.85461  -0.00001   0.00001  -0.00008  -0.00007   1.85454
    A6        1.84991   0.00001   0.00021   0.00002   0.00023   1.85014
    A7        2.08316   0.00001   0.00037   0.00032   0.00069   2.08386
    A8        2.05257  -0.00002  -0.00015   0.00003  -0.00011   2.05245
    A9        1.95930   0.00001   0.00001   0.00026   0.00027   1.95957
   A10        1.91643   0.00001   0.00003   0.00004   0.00007   1.91650
   A11        1.86630  -0.00000   0.00004  -0.00002   0.00002   1.86633
   A12        1.85061  -0.00000  -0.00000  -0.00005  -0.00005   1.85056
   A13        1.97035  -0.00000   0.00004  -0.00002   0.00002   1.97037
   A14        1.95187   0.00000  -0.00011   0.00003  -0.00007   1.95180
   A15        1.90252   0.00000   0.00000   0.00001   0.00001   1.90253
   A16        1.89454  -0.00000  -0.00002  -0.00003  -0.00005   1.89448
   A17        1.92885   0.00000  -0.00002   0.00002  -0.00000   1.92884
   A18        1.95414   0.00000   0.00013  -0.00000   0.00012   1.95427
   A19        1.89574   0.00000  -0.00002  -0.00001  -0.00004   1.89570
   A20        1.88539   0.00000  -0.00008   0.00003  -0.00005   1.88533
   A21        1.90383  -0.00000   0.00002  -0.00000   0.00001   1.90384
   A22        1.95749  -0.00002  -0.00013  -0.00007  -0.00019   1.95730
   A23        1.86616   0.00001  -0.00002   0.00010   0.00008   1.86624
   A24        1.83364   0.00001  -0.00002   0.00015   0.00013   1.83377
   A25        1.96175   0.00000   0.00009  -0.00005   0.00004   1.96179
   A26        1.92856   0.00000   0.00001  -0.00006  -0.00005   1.92851
   A27        1.91081  -0.00000   0.00007  -0.00006   0.00001   1.91082
   A28        1.87064  -0.00000   0.00011   0.00005   0.00016   1.87080
   A29        1.93655  -0.00000  -0.00001  -0.00003  -0.00004   1.93651
   A30        1.95868   0.00000   0.00004  -0.00000   0.00004   1.95871
   A31        1.89535   0.00000  -0.00006   0.00001  -0.00005   1.89531
   A32        1.89183   0.00000  -0.00023   0.00002  -0.00021   1.89162
   A33        1.90893  -0.00000   0.00014  -0.00004   0.00010   1.90903
    D1       -2.47054   0.00000   0.00338   0.00133   0.00471  -2.46583
    D2        1.33990  -0.00001   0.00301   0.00028   0.00329   1.34319
    D3        1.71296   0.00001   0.00340   0.00141   0.00480   1.71776
    D4       -0.75979  -0.00000   0.00302   0.00036   0.00338  -0.75641
    D5       -0.38999   0.00001   0.00338   0.00140   0.00478  -0.38521
    D6       -2.86273  -0.00000   0.00300   0.00035   0.00335  -2.85938
    D7        2.20660   0.00000   0.00026  -0.00061  -0.00035   2.20626
    D8       -1.93320   0.00000   0.00035  -0.00062  -0.00027  -1.93346
    D9        0.09507   0.00000   0.00038  -0.00064  -0.00027   0.09481
   D10       -1.57070   0.00000   0.00055   0.00031   0.00086  -1.56984
   D11        0.57268   0.00000   0.00064   0.00030   0.00094   0.57362
   D12        2.60095  -0.00000   0.00067   0.00027   0.00094   2.60189
   D13       -1.00587   0.00000  -0.00080   0.00017  -0.00063  -1.00650
   D14        1.15205   0.00000  -0.00079   0.00014  -0.00065   1.15140
   D15       -3.10155   0.00001  -0.00073   0.00018  -0.00054  -3.10210
   D16        2.75934  -0.00001  -0.00129  -0.00084  -0.00213   2.75721
   D17       -1.36593  -0.00001  -0.00127  -0.00087  -0.00215  -1.36807
   D18        0.66366  -0.00001  -0.00122  -0.00083  -0.00204   0.66162
   D19        3.14006   0.00000   0.00013  -0.00011   0.00001   3.14007
   D20       -1.06585  -0.00000   0.00008  -0.00014  -0.00006  -1.06592
   D21        1.06032  -0.00000   0.00017  -0.00013   0.00004   1.06036
   D22        1.05941   0.00000   0.00003  -0.00011  -0.00008   1.05933
   D23        3.13668   0.00000  -0.00002  -0.00013  -0.00015   3.13653
   D24       -1.02032   0.00000   0.00007  -0.00012  -0.00005  -1.02037
   D25       -1.09378  -0.00000   0.00008  -0.00013  -0.00005  -1.09383
   D26        0.98349  -0.00000   0.00003  -0.00015  -0.00012   0.98337
   D27        3.10967  -0.00000   0.00012  -0.00014  -0.00002   3.10965
   D28       -3.02631  -0.00000   0.00063  -0.00054   0.00009  -3.02621
   D29       -0.95960  -0.00000   0.00062  -0.00050   0.00011  -0.95949
   D30        1.18188  -0.00000   0.00082  -0.00058   0.00023   1.18211
   D31        1.15347  -0.00000   0.00068  -0.00058   0.00011   1.15358
   D32       -3.06300  -0.00000   0.00067  -0.00055   0.00012  -3.06288
   D33       -0.92152  -0.00000   0.00087  -0.00063   0.00024  -0.92128
   D34       -0.98680   0.00000   0.00052  -0.00042   0.00010  -0.98670
   D35        1.07991   0.00000   0.00051  -0.00039   0.00012   1.08002
   D36       -3.06179  -0.00000   0.00071  -0.00047   0.00024  -3.06156
         Item               Value     Threshold  Converged?
 Maximum Force            0.000053     0.000450     YES
 RMS     Force            0.000008     0.000300     YES
 Maximum Displacement     0.008966     0.001800     NO 
 RMS     Displacement     0.002040     0.001200     NO 
 Predicted change in Energy=-7.917230D-08
 GradGradGradGradGradGradGradGradGradGradGradGradGradGradGradGradGradGrad

                          Input orientation:                          
 ---------------------------------------------------------------------
 Center     Atomic      Atomic             Coordinates (Angstroms)
 Number     Number       Type             X           Y           Z
 ---------------------------------------------------------------------
      1          5           0       -1.768411    0.668252   -0.222733
      2          9           0       -1.551710    1.608980   -1.214479
      3          9           0       -2.115366    1.236231    0.996155
      4          9           0       -2.646381   -0.323636   -0.627582
      5          8           0       -0.360715   -0.055064    0.005010
      6          6           0       -0.325687   -1.502151    0.254359
      7          6           0        0.611095   -2.168053   -0.726134
      8          6           0        0.658659    0.667728    0.776867
      9          6           0        0.992351    2.006748    0.165054
     10          1           0       -0.018740   -1.638944    1.297348
     11          1           0       -1.350730   -1.852525    0.137244
     12          1           0        0.622742   -3.246026   -0.520725
     13          1           0        0.265457   -2.011510   -1.754619
     14          1           0        1.638004   -1.793442   -0.631908
     15          1           0        0.278195    0.759435    1.800799
     16          1           0        1.535920    0.014666    0.770837
     17          1           0        1.837493    2.420015    0.730254
     18          1           0        1.293935    1.894745   -0.882447
     19          1           0        0.157427    2.710531    0.229115
 ---------------------------------------------------------------------
                    Distance matrix (angstroms):
                    1          2          3          4          5
     1  B    0.000000
     2  F    1.384011   0.000000
     3  F    1.388764   2.311613   0.000000
     4  F    1.385126   2.297337   2.313371   0.000000
     5  O    1.598957   2.382155   2.393452   2.386749   0.000000
     6  C    2.649476   3.652363   3.354393   2.748151   1.468831
     7  C    3.736321   4.379747   4.689245   3.744695   2.437972
     8  C    2.624856   3.120440   2.840158   3.725395   1.468780
     9  C    3.092533   2.921229   3.307920   4.393101   2.471330
    10  H    3.270344   4.382725   3.571161   3.512817   2.072622
    11  H    2.580380   3.721500   3.295878   2.145034   2.056327
    12  H    4.596519   5.364757   5.467064   4.386222   3.380210
    13  H    3.696542   4.086783   4.876771   3.549357   2.704822
    14  H    4.222681   4.700015   5.090904   4.529493   2.724427
    15  H    2.879513   3.627972   2.569810   3.952622   2.072794
    16  H    3.511831   4.002096   3.856796   4.422856   2.046601
    17  H    4.120607   3.990797   4.134869   5.429223   3.388822
    18  H    3.364145   2.879167   3.947926   4.529046   2.706880
    19  H    2.843225   2.493698   2.815582   4.219175   2.822625
                    6          7          8          9         10
     6  C    0.000000
     7  C    1.510746   0.000000
     8  C    2.439330   3.209818   0.000000
     9  C    3.749344   4.285853   1.509517   0.000000
    10  H    1.095789   2.184291   2.459777   3.949109   0.000000
    11  H    1.089582   2.166504   3.286097   4.514952   1.779228
    12  H    2.131049   1.097431   4.123409   5.310229   2.509900
    13  H    2.155200   1.096244   3.706932   4.512196   3.087729
    14  H    2.174030   1.097157   3.000187   3.936173   2.547685
    15  H    2.805516   3.881546   1.096174   2.177492   2.468573
    16  H    2.456230   2.803655   1.093670   2.151937   2.329937
    17  H    4.504355   4.967442   2.112423   1.097499   4.499149
    18  H    3.931210   4.122745   2.159275   1.095790   4.354489
    19  H    4.240370   4.991884   2.173548   1.093853   4.482197
                   11         12         13         14         15
    11  H    0.000000
    12  H    2.503869   0.000000
    13  H    2.493287   1.781622   0.000000
    14  H    3.086684   1.775702   1.786594   0.000000
    15  H    3.499020   4.642402   4.507692   3.779461   0.000000
    16  H    3.495795   3.624104   3.478130   2.290713   1.788120
    17  H    5.363863   5.928287   5.318298   4.432663   2.516943
    18  H    4.698516   5.197005   4.132466   3.712664   3.085525
    19  H    4.806710   6.021574   5.122943   4.818635   2.508296
                   16         17         18         19
    16  H    0.000000
    17  H    2.424520   0.000000
    18  H    2.515274   1.781058   0.000000
    19  H    3.075938   1.777122   1.786821   0.000000
 Stoichiometry    C4H10BF3O
 Framework group  C1[X(C4H10BF3O)]
 Deg. of freedom    51
 Full point group                 C1      NOp   1
 Largest Abelian subgroup         C1      NOp   1
 Largest concise Abelian subgroup C1      NOp   1
                         Standard orientation:                         
 ---------------------------------------------------------------------
 Center     Atomic      Atomic             Coordinates (Angstroms)
 Number     Number       Type             X           Y           Z
 ---------------------------------------------------------------------
      1          5           0       -0.944457   -0.706670   -0.046008
      2          9           0       -1.577750   -0.262852   -1.193812
      3          9           0       -1.663399   -0.432054    1.110008
      4          9           0       -0.560096   -2.033905   -0.142381
      5          8           0        0.409266    0.137950    0.057503
      6          6           0        1.637379   -0.522169    0.519505
      7          6           0        2.744169   -0.305704   -0.485738
      8          6           0        0.311275    1.525187    0.530035
      9          6           0       -0.612152    2.354934   -0.328712
     10          1           0        1.870793   -0.107278    1.506489
     11          1           0        1.389170   -1.577554    0.627865
     12          1           0        3.650413   -0.805058   -0.120058
     13          1           0        2.472735   -0.739277   -1.455320
     14          1           0        2.973953    0.758628   -0.620467
     15          1           0       -0.015279    1.483887    1.575623
     16          1           0        1.332084    1.914723    0.481839
     17          1           0       -0.533221    3.392848    0.019151
     18          1           0       -0.309673    2.315224   -1.381178
     19          1           0       -1.655644    2.039413   -0.238804
 ---------------------------------------------------------------------
 Rotational constants (GHZ):           1.7507141           1.4167295           1.0063859
 Standard basis: Aug-CC-pVDZ (5D, 7F)
 There are   315 symmetry adapted cartesian basis functions of A   symmetry.
 There are   297 symmetry adapted basis functions of A   symmetry.
   297 basis functions,   497 primitive gaussians,   315 cartesian basis functions
    37 alpha electrons       37 beta electrons
       nuclear repulsion energy       523.8625208110 Hartrees.
 NAtoms=   19 NActive=   19 NUniq=   19 SFac= 1.00D+00 NAtFMM=   60 NAOKFM=F Big=F
 Integral buffers will be    131072 words long.
 Raffenetti 2 integral format.
 Two-electron integral symmetry is turned on.
 Nuclear repulsion after empirical dispersion term =      523.8504441176 Hartrees.
 Force PCM accuracy= 1.00D-12.
 ------------------------------------------------------------------------------
 Polarizable Continuum Model (PCM)
 =================================
 Model                : C-PCM.
 Atomic radii         : UFF (Universal Force Field).
 Polarization charges : Total charges.
 Charge compensation  : None.
 Solution method      : On-the-fly selection.
 Cavity type          : Scaled VdW (van der Waals Surface) (Alpha=1.100).
 Cavity algorithm     : GePol (No added spheres)
                        Default sphere list used, NSphG=   19.
                        Lebedev-Laikov grids with approx.  5.0 points / Ang**2.
                        Smoothing algorithm: York/Karplus (Gamma=1.0000).
                        Polarization charges: spherical gaussians, with
                                              point-specific exponents (IZeta= 3).
                        Self-potential: point-specific (ISelfS= 7).
                        Self-field    : sphere-specific E.n sum rule (ISelfD= 2).
 1st derivatives      : Analytical E(r).r(x)/FMM algorithm (CHGder, D1EAlg=3).
                        Cavity 1st derivative terms included.
 Solvent              : TetraHydroFuran, Eps=   7.425700 Eps(inf)=   1.974025
 ------------------------------------------------------------------------------
 Spheres list:
 ISph  on   Nord     Re0    Alpha      Xe            Ye            Ze
    1   B      1    2.0415  1.100     -0.944457     -0.706670     -0.046008
    2   F      2    1.6820  1.100     -1.577750     -0.262852     -1.193812
    3   F      3    1.6820  1.100     -1.663399     -0.432054      1.110008
    4   F      4    1.6820  1.100     -0.560096     -2.033905     -0.142381
    5   O      5    1.7500  1.100      0.409266      0.137950      0.057503
    6   C      6    1.9255  1.100      1.637379     -0.522169      0.519505
    7   C      7    1.9255  1.100      2.744169     -0.305704     -0.485738
    8   C      8    1.9255  1.100      0.311275      1.525187      0.530035
    9   C      9    1.9255  1.100     -0.612152      2.354934     -0.328712
   10   H     10    1.4430  1.100      1.870793     -0.107278      1.506489
   11   H     11    1.4430  1.100      1.389170     -1.577554      0.627865
   12   H     12    1.4430  1.100      3.650413     -0.805058     -0.120058
   13   H     13    1.4430  1.100      2.472735     -0.739277     -1.455320
   14   H     14    1.4430  1.100      2.973953      0.758628     -0.620467
   15   H     15    1.4430  1.100     -0.015279      1.483887      1.575623
   16   H     16    1.4430  1.100      1.332084      1.914723      0.481839
   17   H     17    1.4430  1.100     -0.533221      3.392848      0.019151
   18   H     18    1.4430  1.100     -0.309673      2.315224     -1.381178
   19   H     19    1.4430  1.100     -1.655644      2.039413     -0.238804
 ------------------------------------------------------------------------------
 One-electron integrals computed using PRISM.
 NBasis=   297 RedAO= T EigKep=  2.72D-05  NBF=   297
 NBsUse=   297 1.00D-06 EigRej= -1.00D+00 NBFU=   297
 Initial guess from the checkpoint file:  "/inspire/hdd/project/materialscienceresearch/lipenghui-253107030018/g16/00-B-DFT-Shift/04-output/BF3OEt2_THF/BF3OEt2_THF.chk"
 B after Tr=    -0.000000    0.000000   -0.000000
         Rot=    1.000000    0.000344    0.000339    0.000746 Ang=   0.10 deg.
 Requested convergence on RMS density matrix=1.00D-08 within 128 cycles.
 Requested convergence on MAX density matrix=1.00D-06.
 Requested convergence on             energy=1.00D-06.
 No special actions if energy rises.
 Inv3:  Mode=1 IEnd=     7004352.
 Iteration    1 A*A^-1 deviation from unit magnitude is 3.22D-15 for   1517.
 Iteration    1 A*A^-1 deviation from orthogonality  is 1.54D-15 for   1511   1267.
 Iteration    1 A^-1*A deviation from unit magnitude is 3.33D-15 for   1277.
 Iteration    1 A^-1*A deviation from orthogonality  is 1.22D-15 for   1322    290.
 Error on total polarization charges =  0.00990
 SCF Done:  E(RwB97XD) =  -558.150338854     A.U. after    8 cycles
            NFock=  8  Conv=0.37D-08     -V/T= 2.0060
 D1PCM: C-PCM CHGder 1st derivatives, ID1Alg=3 FixD1E=F DoIter=F DoCFld=F I1PDM=0.
 Calling FoFJK, ICntrl=      2127 FMM=F ISym2X=0 I1Cent= 0 IOpClX= 0 NMat=1 NMatS=1 NMatT=0.
 ***** Axes restored to original set *****
 -------------------------------------------------------------------
 Center     Atomic                   Forces (Hartrees/Bohr)
 Number     Number              X              Y              Z
 -------------------------------------------------------------------
      1        5          -0.000009155    0.000006708   -0.000011349
      2        9           0.000011400    0.000008477    0.000013396
      3        9           0.000001660    0.000002781   -0.000002090
      4        9          -0.000001337   -0.000005903    0.000005942
      5        8           0.000015674    0.000002018    0.000063287
      6        6           0.000005784   -0.000025046   -0.000026257
      7        6           0.000007586   -0.000014776    0.000004631
      8        6          -0.000012279   -0.000003905   -0.000029265
      9        6           0.000002693    0.000017239    0.000001667
     10        1           0.000000898    0.000005206   -0.000001500
     11        1           0.000001992    0.000006634    0.000005868
     12        1          -0.000002385    0.000007173   -0.000001387
     13        1           0.000002265    0.000001778   -0.000000658
     14        1          -0.000002653    0.000010272   -0.000000117
     15        1           0.000005178   -0.000000712    0.000000885
     16        1           0.000000193   -0.000000804   -0.000000711
     17        1          -0.000005423   -0.000011185   -0.000002804
     18        1          -0.000008086    0.000002067   -0.000004784
     19        1          -0.000014007   -0.000008024   -0.000014753
 -------------------------------------------------------------------
 Cartesian Forces:  Max     0.000063287 RMS     0.000012575

 GradGradGradGradGradGradGradGradGradGradGradGradGradGradGradGradGradGrad
 Berny optimization.
 Using GEDIIS/GDIIS optimizer.
 FormGI is forming the generalized inverse of G from B-inverse, IUseBI=4.
 Internal  Forces:  Max     0.000045069 RMS     0.000011526
 Search for a local minimum.
 Step number  26 out of a maximum of   97
 All quantities printed in internal units (Hartrees-Bohrs-Radians)
 Mixed Optimization -- En-DIIS/RFO-DIIS
 Swapping is turned off.
 Update second derivatives using D2CorX and points   10   11   12   13   14
                                                     15   16   17   18   19
                                                     20   21   22   23   24
                                                     25   26
 DE=  9.62D-08 DEPred=-7.92D-08 R=-1.21D+00
 Trust test=-1.21D+00 RLast= 1.10D-02 DXMaxT set to 2.22D-01
 ITU= -1 -1  0  0  0  0  1  1  1  1  1  1  1  1  1  1 -1  1  1  1
 ITU=  1  1  1  1  1  0
     Eigenvalues ---    0.00058   0.00125   0.00255   0.00304   0.00375
     Eigenvalues ---    0.01793   0.04609   0.04811   0.05103   0.05320
     Eigenvalues ---    0.05452   0.05512   0.05782   0.05896   0.07616
     Eigenvalues ---    0.09679   0.10375   0.12824   0.12924   0.13067
     Eigenvalues ---    0.13412   0.15958   0.15995   0.16060   0.16310
     Eigenvalues ---    0.16463   0.17031   0.21031   0.22156   0.24124
     Eigenvalues ---    0.24970   0.25727   0.28247   0.28408   0.28786
     Eigenvalues ---    0.29179   0.30416   0.31515   0.31929   0.32038
     Eigenvalues ---    0.32123   0.32140   0.32173   0.32242   0.32293
     Eigenvalues ---    0.32554   0.33686   0.35924   0.39564   0.41342
     Eigenvalues ---    0.49886
 En-DIIS/RFO-DIIS/Sim-DIIS IScMMF=       -3 using points:    26   25   24   23   22   21   20   19   18   17
 RFO step:  Lambda=-8.30410087D-08.
 DIIS inversion failure, remove point  10.
 DIIS inversion failure, remove point   9.
 DIIS inversion failure, remove point   8.
 DIIS inversion failure, remove point   7.
 DIIS inversion failure, remove point   6.
 DIIS inversion failure, remove point   5.
 DIIS inversion failure, remove point   4.
 RFO-DIIS uses    3 points instead of   10
 DidBck=F Rises=F RFO-DIIS coefs:    1.58701   -2.00000    1.41299    0.00000    0.00000
                  RFO-DIIS coefs:    0.00000    0.00000    0.00000    0.00000    0.00000
 Iteration  1 RMS(Cart)=  0.00073365 RMS(Int)=  0.00000036
 Iteration  2 RMS(Cart)=  0.00000046 RMS(Int)=  0.00000007
 Variable       Old X    -DE/DX   Delta X   Delta X   Delta X     New X
                                 (Linear)    (Quad)   (Total)
    R1        2.61540   0.00000   0.00002  -0.00001   0.00001   2.61542
    R2        2.62438  -0.00000   0.00001  -0.00001  -0.00000   2.62438
    R3        2.61751   0.00000  -0.00000  -0.00002  -0.00003   2.61748
    R4        3.02159   0.00000  -0.00004   0.00006   0.00002   3.02161
    R5        2.77569   0.00001  -0.00003  -0.00005  -0.00008   2.77561
    R6        2.77559  -0.00005  -0.00002  -0.00021  -0.00023   2.77536
    R7        2.85490  -0.00000   0.00001   0.00001   0.00001   2.85491
    R8        2.07074  -0.00000   0.00000   0.00000   0.00001   2.07075
    R9        2.05901  -0.00000  -0.00000   0.00000   0.00000   2.05901
   R10        2.07384  -0.00001   0.00001  -0.00001  -0.00001   2.07384
   R11        2.07160   0.00000  -0.00000   0.00000   0.00000   2.07160
   R12        2.07333   0.00000  -0.00000   0.00000  -0.00000   2.07333
   R13        2.85257  -0.00000   0.00000   0.00003   0.00003   2.85260
   R14        2.07147  -0.00000  -0.00001   0.00001   0.00001   2.07148
   R15        2.06674   0.00000  -0.00000   0.00001   0.00001   2.06675
   R16        2.07397  -0.00001   0.00000  -0.00001  -0.00001   2.07396
   R17        2.07074   0.00000  -0.00000   0.00001   0.00001   2.07075
   R18        2.06708   0.00000   0.00001   0.00000   0.00001   2.06709
    A1        1.97148  -0.00001  -0.00001  -0.00003  -0.00004   1.97144
    A2        1.95686   0.00002  -0.00001   0.00008   0.00007   1.95692
    A3        1.84595  -0.00002  -0.00002  -0.00002  -0.00004   1.84591
    A4        1.97256   0.00000  -0.00002   0.00003   0.00001   1.97257
    A5        1.85454   0.00000  -0.00001  -0.00004  -0.00004   1.85449
    A6        1.85014   0.00000   0.00007  -0.00003   0.00004   1.85018
    A7        2.08386   0.00002   0.00025   0.00015   0.00040   2.08426
    A8        2.05245  -0.00004   0.00003   0.00001   0.00004   2.05249
    A9        1.95957   0.00003   0.00008   0.00020   0.00028   1.95985
   A10        1.91650  -0.00000   0.00001   0.00002   0.00004   1.91654
   A11        1.86633  -0.00000  -0.00001  -0.00003  -0.00004   1.86629
   A12        1.85056  -0.00000  -0.00001  -0.00005  -0.00005   1.85051
   A13        1.97037  -0.00000   0.00000  -0.00001  -0.00001   1.97035
   A14        1.95180   0.00001   0.00000   0.00006   0.00006   1.95186
   A15        1.90253  -0.00000   0.00000   0.00000   0.00000   1.90254
   A16        1.89448  -0.00000  -0.00000  -0.00000  -0.00000   1.89448
   A17        1.92884   0.00000  -0.00000   0.00001   0.00001   1.92886
   A18        1.95427  -0.00001   0.00002  -0.00004  -0.00003   1.95424
   A19        1.89570   0.00000  -0.00001   0.00001   0.00000   1.89570
   A20        1.88533   0.00001  -0.00002   0.00005   0.00003   1.88537
   A21        1.90384   0.00000   0.00001  -0.00002  -0.00002   1.90382
   A22        1.95730  -0.00004  -0.00004  -0.00005  -0.00009   1.95721
   A23        1.86624   0.00001   0.00001   0.00007   0.00008   1.86632
   A24        1.83377   0.00001   0.00000   0.00011   0.00011   1.83388
   A25        1.96179   0.00001   0.00001  -0.00003  -0.00002   1.96177
   A26        1.92851   0.00001  -0.00000  -0.00002  -0.00002   1.92849
   A27        1.91082  -0.00001   0.00002  -0.00007  -0.00005   1.91077
   A28        1.87080  -0.00001   0.00003   0.00000   0.00003   1.87083
   A29        1.93651   0.00000   0.00000  -0.00002  -0.00002   1.93649
   A30        1.95871  -0.00001   0.00000  -0.00004  -0.00004   1.95867
   A31        1.89531   0.00001  -0.00001   0.00004   0.00003   1.89534
   A32        1.89162   0.00001  -0.00006   0.00011   0.00006   1.89167
   A33        1.90903  -0.00000   0.00003  -0.00009  -0.00005   1.90897
    D1       -2.46583  -0.00000   0.00164   0.00019   0.00183  -2.46400
    D2        1.34319  -0.00002   0.00104  -0.00044   0.00060   1.34379
    D3        1.71776   0.00001   0.00166   0.00026   0.00192   1.71968
    D4       -0.75641  -0.00001   0.00106  -0.00038   0.00068  -0.75573
    D5       -0.38521   0.00001   0.00165   0.00025   0.00191  -0.38330
    D6       -2.85938  -0.00001   0.00106  -0.00038   0.00067  -2.85870
    D7        2.20626   0.00001  -0.00053  -0.00009  -0.00063   2.20563
    D8       -1.93346   0.00001  -0.00053  -0.00011  -0.00064  -1.93411
    D9        0.09481   0.00000  -0.00054  -0.00015  -0.00068   0.09412
   D10       -1.56984   0.00000   0.00001   0.00044   0.00046  -1.56939
   D11        0.57362   0.00000   0.00001   0.00042   0.00044   0.57406
   D12        2.60189  -0.00000   0.00001   0.00039   0.00040   2.60229
   D13       -1.00650   0.00001   0.00032   0.00018   0.00050  -1.00600
   D14        1.15140   0.00001   0.00032   0.00016   0.00048   1.15187
   D15       -3.10210   0.00001   0.00035   0.00016   0.00051  -3.10159
   D16        2.75721  -0.00001  -0.00030  -0.00040  -0.00070   2.75651
   D17       -1.36807  -0.00001  -0.00031  -0.00042  -0.00073  -1.36880
   D18        0.66162  -0.00001  -0.00028  -0.00042  -0.00069   0.66093
   D19        3.14007  -0.00000   0.00003  -0.00007  -0.00004   3.14003
   D20       -1.06592   0.00000   0.00002  -0.00006  -0.00003  -1.06595
   D21        1.06036  -0.00000   0.00004  -0.00011  -0.00006   1.06030
   D22        1.05933   0.00000   0.00003  -0.00005  -0.00001   1.05932
   D23        3.13653   0.00001   0.00003  -0.00003  -0.00000   3.13653
   D24       -1.02037   0.00000   0.00004  -0.00008  -0.00004  -1.02041
   D25       -1.09383  -0.00000   0.00003  -0.00008  -0.00005  -1.09388
   D26        0.98337   0.00000   0.00002  -0.00006  -0.00004   0.98333
   D27        3.10965  -0.00000   0.00004  -0.00011  -0.00007   3.10958
   D28       -3.02621  -0.00000  -0.00003  -0.00064  -0.00067  -3.02688
   D29       -0.95949  -0.00000  -0.00002  -0.00060  -0.00062  -0.96012
   D30        1.18211  -0.00001   0.00002  -0.00076  -0.00074   1.18138
   D31        1.15358   0.00000  -0.00002  -0.00068  -0.00070   1.15288
   D32       -3.06288   0.00001  -0.00002  -0.00064  -0.00065  -3.06354
   D33       -0.92128  -0.00000   0.00003  -0.00079  -0.00077  -0.92204
   D34       -0.98670  -0.00000  -0.00005  -0.00055  -0.00060  -0.98730
   D35        1.08002  -0.00000  -0.00005  -0.00051  -0.00055   1.07947
   D36       -3.06156  -0.00001  -0.00000  -0.00066  -0.00066  -3.06222
         Item               Value     Threshold  Converged?
 Maximum Force            0.000045     0.000450     YES
 RMS     Force            0.000012     0.000300     YES
 Maximum Displacement     0.003249     0.001800     NO 
 RMS     Displacement     0.000734     0.001200     YES
 Predicted change in Energy=-4.101070D-08
 GradGradGradGradGradGradGradGradGradGradGradGradGradGradGradGradGradGrad

                          Input orientation:                          
 ---------------------------------------------------------------------
 Center     Atomic      Atomic             Coordinates (Angstroms)
 Number     Number       Type             X           Y           Z
 ---------------------------------------------------------------------
      1          5           0       -1.768352    0.668429   -0.222640
      2          9           0       -1.551339    1.607977   -1.215445
      3          9           0       -2.114817    1.237950    0.995665
      4          9           0       -2.646833   -0.323511   -0.626202
      5          8           0       -0.360912   -0.055216    0.005714
      6          6           0       -0.325680   -1.502375    0.254365
      7          6           0        0.611211   -2.167722   -0.726412
      8          6           0        0.658535    0.667577    0.777244
      9          6           0        0.992193    2.006438    0.165024
     10          1           0       -0.018710   -1.639585    1.297295
     11          1           0       -1.350696   -1.852780    0.137111
     12          1           0        0.623015   -3.245777   -0.521460
     13          1           0        0.265570   -2.010794   -1.754837
     14          1           0        1.638050   -1.792964   -0.632016
     15          1           0        0.278266    0.759592    1.801225
     16          1           0        1.535804    0.014517    0.771301
     17          1           0        1.836989    2.420154    0.730402
     18          1           0        1.294215    1.894062   -0.882314
     19          1           0        0.157030    2.710006    0.228395
 ---------------------------------------------------------------------
                    Distance matrix (angstroms):
                    1          2          3          4          5
     1  B    0.000000
     2  F    1.384019   0.000000
     3  F    1.388762   2.311587   0.000000
     4  F    1.385112   2.297381   2.313365   0.000000
     5  O    1.598968   2.382134   2.393422   2.386784   0.000000
     6  C    2.649760   3.651969   3.355581   2.748249   1.468788
     7  C    3.736289   4.378548   4.689923   3.745131   2.437973
     8  C    2.624796   3.120691   2.839809   3.725236   1.468660
     9  C    3.092113   2.921305   3.306667   4.392859   2.471171
    10  H    3.270838   4.382862   3.572794   3.512681   2.072560
    11  H    2.580766   3.721089   3.297515   2.145060   2.056252
    12  H    4.596623   5.363615   5.468199   4.386630   3.380192
    13  H    3.696309   4.085047   4.877073   3.550047   2.704867
    14  H    4.222513   4.698829   5.091149   4.529851   2.724392
    15  H    2.879754   3.628706   2.569941   3.952431   2.072756
    16  H    3.511833   4.002091   3.856704   4.422865   2.046587
    17  H    4.120111   3.990829   4.133369   5.428879   3.388716
    18  H    3.364024   2.879235   3.946997   4.529358   2.706977
    19  H    2.842282   2.493525   2.813706   4.218319   2.822110
                    6          7          8          9         10
     6  C    0.000000
     7  C    1.510753   0.000000
     8  C    2.439421   3.209695   0.000000
     9  C    3.749205   4.285255   1.509533   0.000000
    10  H    1.095792   2.184289   2.460103   3.949360   0.000000
    11  H    1.089582   2.166550   3.286180   4.514805   1.779232
    12  H    2.131050   1.097427   4.123376   5.309737   2.509887
    13  H    2.155217   1.096245   3.706687   4.511319   3.087738
    14  H    2.174017   1.097157   2.999954   3.935461   2.547670
    15  H    2.806068   3.881876   1.096178   2.177492   2.469450
    16  H    2.456279   2.803602   1.093674   2.151937   2.330072
    17  H    4.504440   4.967237   2.112457   1.097494   4.499607
    18  H    3.930888   4.121758   2.159279   1.095793   4.354438
    19  H    4.240028   4.991009   2.173536   1.093856   4.482452
                   11         12         13         14         15
    11  H    0.000000
    12  H    2.503935   0.000000
    13  H    2.493341   1.781620   0.000000
    14  H    3.086703   1.775721   1.786583   0.000000
    15  H    3.499610   4.642918   4.507857   3.779578   0.000000
    16  H    3.495837   3.624076   3.478039   2.290576   1.788095
    17  H    5.363888   5.928209   5.317807   4.432395   2.516694
    18  H    4.698255   5.196024   4.131260   3.711473   3.085540
    19  H    4.806307   6.020862   5.121616   4.817724   2.508507
                   16         17         18         19
    16  H    0.000000
    17  H    2.424763   0.000000
    18  H    2.515054   1.781075   0.000000
    19  H    3.075944   1.777157   1.786793   0.000000
 Stoichiometry    C4H10BF3O
 Framework group  C1[X(C4H10BF3O)]
 Deg. of freedom    51
 Full point group                 C1      NOp   1
 Largest Abelian subgroup         C1      NOp   1
 Largest concise Abelian subgroup C1      NOp   1
                         Standard orientation:                         
 ---------------------------------------------------------------------
 Center     Atomic      Atomic             Coordinates (Angstroms)
 Number     Number       Type             X           Y           Z
 ---------------------------------------------------------------------
      1          5           0       -0.944646   -0.706426   -0.046051
      2          9           0       -1.576576   -0.263132   -1.194816
      3          9           0       -1.664640   -0.430584    1.109015
      4          9           0       -0.560779   -2.033893   -0.141003
      5          8           0        0.409318    0.137734    0.058217
      6          6           0        1.637492   -0.522588    0.519629
      7          6           0        2.743992   -0.306025   -0.485922
      8          6           0        0.311568    1.524992    0.530361
      9          6           0       -0.611529    2.354655   -0.328849
     10          1           0        1.871268   -0.107908    1.506619
     11          1           0        1.389153   -1.577955    0.627874
     12          1           0        3.650303   -0.805524   -0.120617
     13          1           0        2.472230   -0.739381   -1.455510
     14          1           0        2.973788    0.758320   -0.620519
     15          1           0       -0.015226    1.484111    1.575895
     16          1           0        1.332442    1.914390    0.482308
     17          1           0       -0.533030    3.392553    0.019143
     18          1           0       -0.308440    2.315067   -1.381147
     19          1           0       -1.654995    2.038844   -0.239605
 ---------------------------------------------------------------------
 Rotational constants (GHZ):           1.7509217           1.4166686           1.0064613
 Standard basis: Aug-CC-pVDZ (5D, 7F)
 There are   315 symmetry adapted cartesian basis functions of A   symmetry.
 There are   297 symmetry adapted basis functions of A   symmetry.
   297 basis functions,   497 primitive gaussians,   315 cartesian basis functions
    37 alpha electrons       37 beta electrons
       nuclear repulsion energy       523.8693868308 Hartrees.
 NAtoms=   19 NActive=   19 NUniq=   19 SFac= 1.00D+00 NAtFMM=   60 NAOKFM=F Big=F
 Integral buffers will be    131072 words long.
 Raffenetti 2 integral format.
 Two-electron integral symmetry is turned on.
 Nuclear repulsion after empirical dispersion term =      523.8573098352 Hartrees.
 Force PCM accuracy= 1.00D-12.
 ------------------------------------------------------------------------------
 Polarizable Continuum Model (PCM)
 =================================
 Model                : C-PCM.
 Atomic radii         : UFF (Universal Force Field).
 Polarization charges : Total charges.
 Charge compensation  : None.
 Solution method      : On-the-fly selection.
 Cavity type          : Scaled VdW (van der Waals Surface) (Alpha=1.100).
 Cavity algorithm     : GePol (No added spheres)
                        Default sphere list used, NSphG=   19.
                        Lebedev-Laikov grids with approx.  5.0 points / Ang**2.
                        Smoothing algorithm: York/Karplus (Gamma=1.0000).
                        Polarization charges: spherical gaussians, with
                                              point-specific exponents (IZeta= 3).
                        Self-potential: point-specific (ISelfS= 7).
                        Self-field    : sphere-specific E.n sum rule (ISelfD= 2).
 1st derivatives      : Analytical E(r).r(x)/FMM algorithm (CHGder, D1EAlg=3).
                        Cavity 1st derivative terms included.
 Solvent              : TetraHydroFuran, Eps=   7.425700 Eps(inf)=   1.974025
 ------------------------------------------------------------------------------
 Spheres list:
 ISph  on   Nord     Re0    Alpha      Xe            Ye            Ze
    1   B      1    2.0415  1.100     -0.944646     -0.706426     -0.046051
    2   F      2    1.6820  1.100     -1.576576     -0.263132     -1.194816
    3   F      3    1.6820  1.100     -1.664640     -0.430584      1.109015
    4   F      4    1.6820  1.100     -0.560779     -2.033893     -0.141003
    5   O      5    1.7500  1.100      0.409318      0.137734      0.058217
    6   C      6    1.9255  1.100      1.637492     -0.522588      0.519629
    7   C      7    1.9255  1.100      2.743992     -0.306025     -0.485922
    8   C      8    1.9255  1.100      0.311568      1.524992      0.530361
    9   C      9    1.9255  1.100     -0.611529      2.354655     -0.328849
   10   H     10    1.4430  1.100      1.871268     -0.107908      1.506619
   11   H     11    1.4430  1.100      1.389153     -1.577955      0.627874
   12   H     12    1.4430  1.100      3.650303     -0.805524     -0.120617
   13   H     13    1.4430  1.100      2.472230     -0.739381     -1.455510
   14   H     14    1.4430  1.100      2.973788      0.758320     -0.620519
   15   H     15    1.4430  1.100     -0.015226      1.484111      1.575895
   16   H     16    1.4430  1.100      1.332442      1.914390      0.482308
   17   H     17    1.4430  1.100     -0.533030      3.392553      0.019143
   18   H     18    1.4430  1.100     -0.308440      2.315067     -1.381147
   19   H     19    1.4430  1.100     -1.654995      2.038844     -0.239605
 ------------------------------------------------------------------------------
 One-electron integrals computed using PRISM.
 NBasis=   297 RedAO= T EigKep=  2.72D-05  NBF=   297
 NBsUse=   297 1.00D-06 EigRej= -1.00D+00 NBFU=   297
 Initial guess from the checkpoint file:  "/inspire/hdd/project/materialscienceresearch/lipenghui-253107030018/g16/00-B-DFT-Shift/04-output/BF3OEt2_THF/BF3OEt2_THF.chk"
 B after Tr=     0.000000   -0.000000    0.000000
         Rot=    1.000000    0.000104    0.000119    0.000116 Ang=   0.02 deg.
 Requested convergence on RMS density matrix=1.00D-08 within 128 cycles.
 Requested convergence on MAX density matrix=1.00D-06.
 Requested convergence on             energy=1.00D-06.
 No special actions if energy rises.
 Inv3:  Mode=1 IEnd=     7013523.
 Iteration    1 A*A^-1 deviation from unit magnitude is 4.22D-15 for   1514.
 Iteration    1 A*A^-1 deviation from orthogonality  is 2.39D-15 for   1493   1283.
 Iteration    1 A^-1*A deviation from unit magnitude is 4.22D-15 for   1514.
 Iteration    1 A^-1*A deviation from orthogonality  is 4.09D-15 for   1528    717.
 Error on total polarization charges =  0.00990
 SCF Done:  E(RwB97XD) =  -558.150338897     A.U. after    7 cycles
            NFock=  7  Conv=0.77D-08     -V/T= 2.0060
 D1PCM: C-PCM CHGder 1st derivatives, ID1Alg=3 FixD1E=F DoIter=F DoCFld=F I1PDM=0.
 Calling FoFJK, ICntrl=      2127 FMM=F ISym2X=0 I1Cent= 0 IOpClX= 0 NMat=1 NMatS=1 NMatT=0.
 ***** Axes restored to original set *****
 -------------------------------------------------------------------
 Center     Atomic                   Forces (Hartrees/Bohr)
 Number     Number              X              Y              Z
 -------------------------------------------------------------------
      1        5          -0.000006416    0.000004600   -0.000004298
      2        9           0.000002382    0.000004217    0.000007838
      3        9          -0.000000221    0.000000959   -0.000002569
      4        9          -0.000000660   -0.000006238    0.000004668
      5        8          -0.000005325   -0.000005753    0.000028096
      6        6           0.000005444   -0.000022361   -0.000016320
      7        6           0.000002641   -0.000009989    0.000003131
      8        6           0.000016724    0.000016034   -0.000007291
      9        6           0.000002904    0.000013257    0.000001399
     10        1           0.000000899    0.000004044   -0.000001481
     11        1           0.000002752    0.000003338    0.000004839
     12        1          -0.000000153    0.000005470   -0.000001024
     13        1           0.000001063    0.000001919    0.000000061
     14        1          -0.000001483    0.000006925    0.000000390
     15        1           0.000000698   -0.000001437   -0.000001839
     16        1          -0.000002431   -0.000002160   -0.000001534
     17        1          -0.000004147   -0.000008591   -0.000002771
     18        1          -0.000007347    0.000001388   -0.000003427
     19        1          -0.000007324   -0.000005622   -0.000007868
 -------------------------------------------------------------------
 Cartesian Forces:  Max     0.000028096 RMS     0.000007555

 GradGradGradGradGradGradGradGradGradGradGradGradGradGradGradGradGradGrad
 Berny optimization.
 Using GEDIIS/GDIIS optimizer.
 FormGI is forming the generalized inverse of G from B-inverse, IUseBI=4.
 Internal  Forces:  Max     0.000014143 RMS     0.000004855
 Search for a local minimum.
 Step number  27 out of a maximum of   97
 All quantities printed in internal units (Hartrees-Bohrs-Radians)
 Mixed Optimization -- En-DIIS/RFO-DIIS
 Swapping is turned off.
 Update second derivatives using D2CorX and points   10   11   12   13   14
                                                     15   16   17   18   19
                                                     20   21   22   23   24
                                                     25   26   27
 DE= -4.25D-08 DEPred=-4.10D-08 R= 1.04D+00
 Trust test= 1.04D+00 RLast= 4.51D-03 DXMaxT set to 2.22D-01
 ITU=  0 -1 -1  0  0  0  0  1  1  1  1  1  1  1  1  1  1 -1  1  1
 ITU=  1  1  1  1  1  1  0
     Eigenvalues ---    0.00064   0.00106   0.00258   0.00302   0.00362
     Eigenvalues ---    0.01412   0.04646   0.04811   0.05099   0.05197
     Eigenvalues ---    0.05390   0.05524   0.05781   0.05890   0.07528
     Eigenvalues ---    0.09669   0.10246   0.12760   0.12891   0.13017
     Eigenvalues ---    0.13411   0.15832   0.16003   0.16028   0.16233
     Eigenvalues ---    0.16499   0.16535   0.20742   0.22237   0.23911
     Eigenvalues ---    0.24876   0.25483   0.28242   0.28409   0.28783
     Eigenvalues ---    0.29233   0.30386   0.31804   0.31917   0.32036
     Eigenvalues ---    0.32123   0.32149   0.32176   0.32241   0.32504
     Eigenvalues ---    0.32582   0.33848   0.37204   0.39633   0.41710
     Eigenvalues ---    0.48421
 En-DIIS/RFO-DIIS/Sim-DIIS IScMMF=       -3 using points:    27   26   25   24   23   22   21   20   19   18
 RFO step:  Lambda=-4.36750255D-08.
 DIIS inversion failure, remove point  10.
 DIIS inversion failure, remove point   9.
 DIIS inversion failure, remove point   8.
 DIIS inversion failure, remove point   7.
 DIIS inversion failure, remove point   6.
 DIIS inversion failure, remove point   5.
 DIIS inversion failure, remove point   4.
 RFO-DIIS uses    3 points instead of   10
 DidBck=F Rises=F RFO-DIIS coefs:    1.62348   -0.41306   -0.21042    0.00000    0.00000
                  RFO-DIIS coefs:    0.00000    0.00000    0.00000    0.00000    0.00000
 Iteration  1 RMS(Cart)=  0.00088329 RMS(Int)=  0.00000047
 Iteration  2 RMS(Cart)=  0.00000058 RMS(Int)=  0.00000014
 Variable       Old X    -DE/DX   Delta X   Delta X   Delta X     New X
                                 (Linear)    (Quad)   (Total)
    R1        2.61542   0.00000   0.00002   0.00001   0.00003   2.61544
    R2        2.62438  -0.00000  -0.00000  -0.00000  -0.00001   2.62437
    R3        2.61748   0.00000  -0.00003   0.00001  -0.00001   2.61747
    R4        3.02161   0.00001   0.00001  -0.00005  -0.00004   3.02157
    R5        2.77561   0.00001  -0.00008   0.00005  -0.00004   2.77557
    R6        2.77536  -0.00000  -0.00017   0.00007  -0.00010   2.77526
    R7        2.85491  -0.00000   0.00001  -0.00002  -0.00000   2.85490
    R8        2.07075  -0.00000   0.00001  -0.00001   0.00000   2.07075
    R9        2.05901  -0.00000   0.00000  -0.00001  -0.00001   2.05900
   R10        2.07384  -0.00001   0.00000  -0.00001  -0.00001   2.07382
   R11        2.07160  -0.00000   0.00000  -0.00000   0.00000   2.07160
   R12        2.07333   0.00000  -0.00000  -0.00000  -0.00000   2.07332
   R13        2.85260  -0.00000   0.00002  -0.00001   0.00001   2.85262
   R14        2.07148  -0.00000   0.00000  -0.00000  -0.00000   2.07147
   R15        2.06675  -0.00000   0.00000  -0.00001  -0.00000   2.06674
   R16        2.07396  -0.00001  -0.00000  -0.00001  -0.00002   2.07395
   R17        2.07075   0.00000   0.00000  -0.00000   0.00000   2.07075
   R18        2.06709  -0.00000   0.00001  -0.00000   0.00000   2.06709
    A1        1.97144  -0.00001  -0.00002  -0.00005  -0.00007   1.97137
    A2        1.95692   0.00001   0.00004   0.00002   0.00006   1.95699
    A3        1.84591  -0.00001  -0.00005   0.00002  -0.00003   1.84588
    A4        1.97257   0.00000  -0.00000  -0.00000  -0.00000   1.97257
    A5        1.85449   0.00001  -0.00004   0.00003  -0.00001   1.85448
    A6        1.85018  -0.00000   0.00007  -0.00002   0.00005   1.85023
    A7        2.08426   0.00001   0.00040   0.00005   0.00045   2.08471
    A8        2.05249  -0.00001   0.00000   0.00004   0.00004   2.05254
    A9        1.95985   0.00001   0.00023   0.00006   0.00029   1.96014
   A10        1.91654  -0.00000   0.00004  -0.00001   0.00003   1.91657
   A11        1.86629  -0.00000  -0.00002  -0.00004  -0.00005   1.86624
   A12        1.85051  -0.00000  -0.00004  -0.00003  -0.00007   1.85043
   A13        1.97035  -0.00000  -0.00001   0.00001   0.00001   1.97036
   A14        1.95186   0.00001   0.00002   0.00005   0.00007   1.95192
   A15        1.90254  -0.00000   0.00000   0.00001   0.00001   1.90254
   A16        1.89448   0.00000  -0.00001   0.00001  -0.00000   1.89448
   A17        1.92886   0.00000   0.00001  -0.00000   0.00000   1.92886
   A18        1.95424  -0.00001   0.00001  -0.00004  -0.00003   1.95421
   A19        1.89570   0.00000  -0.00001   0.00002   0.00001   1.89571
   A20        1.88537   0.00000   0.00001   0.00002   0.00003   1.88539
   A21        1.90382   0.00000  -0.00001  -0.00001  -0.00002   1.90381
   A22        1.95721  -0.00001  -0.00009  -0.00001  -0.00010   1.95711
   A23        1.86632   0.00000   0.00007  -0.00005   0.00002   1.86634
   A24        1.83388   0.00000   0.00010  -0.00003   0.00007   1.83395
   A25        1.96177   0.00000  -0.00001   0.00002   0.00001   1.96178
   A26        1.92849   0.00001  -0.00003   0.00006   0.00003   1.92852
   A27        1.91077  -0.00000  -0.00003   0.00000  -0.00003   1.91075
   A28        1.87083  -0.00001   0.00005  -0.00004   0.00001   1.87084
   A29        1.93649   0.00000  -0.00002  -0.00001  -0.00002   1.93647
   A30        1.95867  -0.00000  -0.00002  -0.00003  -0.00004   1.95863
   A31        1.89534   0.00000   0.00001   0.00003   0.00004   1.89538
   A32        1.89167   0.00001  -0.00001   0.00008   0.00007   1.89174
   A33        1.90897  -0.00000  -0.00001  -0.00003  -0.00004   1.90893
    D1       -2.46400  -0.00000   0.00213  -0.00002   0.00211  -2.46188
    D2        1.34379  -0.00001   0.00107  -0.00029   0.00078   1.34456
    D3        1.71968   0.00001   0.00221   0.00001   0.00221   1.72189
    D4       -0.75573  -0.00000   0.00114  -0.00026   0.00088  -0.75485
    D5       -0.38330   0.00000   0.00219   0.00000   0.00220  -0.38110
    D6       -2.85870  -0.00001   0.00113  -0.00027   0.00086  -2.85784
    D7        2.20563   0.00000  -0.00046  -0.00001  -0.00047   2.20516
    D8       -1.93411   0.00000  -0.00046  -0.00002  -0.00048  -1.93459
    D9        0.09412  -0.00000  -0.00048  -0.00005  -0.00053   0.09359
   D10       -1.56939   0.00001   0.00047   0.00024   0.00070  -1.56868
   D11        0.57406   0.00000   0.00047   0.00023   0.00070   0.57476
   D12        2.60229   0.00000   0.00045   0.00020   0.00065   2.60294
   D13       -1.00600   0.00001   0.00018   0.00003   0.00021  -1.00579
   D14        1.15187   0.00000   0.00016   0.00002   0.00018   1.15205
   D15       -3.10159   0.00000   0.00020  -0.00001   0.00019  -3.10139
   D16        2.75651  -0.00000  -0.00088  -0.00022  -0.00110   2.75541
   D17       -1.36880  -0.00000  -0.00090  -0.00023  -0.00113  -1.36993
   D18        0.66093  -0.00001  -0.00086  -0.00026  -0.00112   0.65981
   D19        3.14003  -0.00000  -0.00002   0.00010   0.00008   3.14011
   D20       -1.06595   0.00000  -0.00003   0.00013   0.00009  -1.06585
   D21        1.06030  -0.00000  -0.00003   0.00009   0.00006   1.06036
   D22        1.05932   0.00000  -0.00002   0.00014   0.00012   1.05944
   D23        3.13653   0.00000  -0.00003   0.00017   0.00014   3.13666
   D24       -1.02041   0.00000  -0.00003   0.00013   0.00010  -1.02031
   D25       -1.09388  -0.00000  -0.00004   0.00009   0.00005  -1.09383
   D26        0.98333   0.00000  -0.00005   0.00012   0.00007   0.98339
   D27        3.10958  -0.00000  -0.00005   0.00008   0.00003   3.10961
   D28       -3.02688  -0.00000  -0.00040   0.00005  -0.00035  -3.02723
   D29       -0.96012   0.00000  -0.00037   0.00006  -0.00030  -0.96042
   D30        1.18138  -0.00000  -0.00041  -0.00000  -0.00041   1.18097
   D31        1.15288   0.00000  -0.00041   0.00010  -0.00031   1.15257
   D32       -3.06354   0.00000  -0.00038   0.00012  -0.00027  -3.06380
   D33       -0.92204  -0.00000  -0.00043   0.00005  -0.00037  -0.92242
   D34       -0.98730  -0.00000  -0.00035   0.00004  -0.00031  -0.98761
   D35        1.07947  -0.00000  -0.00032   0.00005  -0.00027   1.07920
   D36       -3.06222  -0.00001  -0.00036  -0.00001  -0.00037  -3.06259
         Item               Value     Threshold  Converged?
 Maximum Force            0.000014     0.000450     YES
 RMS     Force            0.000005     0.000300     YES
 Maximum Displacement     0.003570     0.001800     NO 
 RMS     Displacement     0.000883     0.001200     YES
 Predicted change in Energy=-2.170052D-08
 GradGradGradGradGradGradGradGradGradGradGradGradGradGradGradGradGradGrad

                          Input orientation:                          
 ---------------------------------------------------------------------
 Center     Atomic      Atomic             Coordinates (Angstroms)
 Number     Number       Type             X           Y           Z
 ---------------------------------------------------------------------
      1          5           0       -1.768438    0.668580   -0.222408
      2          9           0       -1.551229    1.606823   -1.216424
      3          9           0       -2.114301    1.239840    0.995251
      4          9           0       -2.647502   -0.323453   -0.624446
      5          8           0       -0.361262   -0.055362    0.006494
      6          6           0       -0.325717   -1.502641    0.254288
      7          6           0        0.611501   -2.167214   -0.726697
      8          6           0        0.658321    0.667461    0.777715
      9          6           0        0.992177    2.005994    0.164870
     10          1           0       -0.018890   -1.640336    1.297197
     11          1           0       -1.350655   -1.853145    0.136685
     12          1           0        0.623452   -3.245386   -0.522411
     13          1           0        0.266067   -2.009698   -1.755102
     14          1           0        1.638240   -1.792300   -0.631838
     15          1           0        0.278087    0.759990    1.801660
     16          1           0        1.535468    0.014237    0.772068
     17          1           0        1.836835    2.419988    0.730234
     18          1           0        1.294416    1.893034   -0.882344
     19          1           0        0.156970    2.709568    0.227623
 ---------------------------------------------------------------------
                    Distance matrix (angstroms):
                    1          2          3          4          5
     1  B    0.000000
     2  F    1.384033   0.000000
     3  F    1.388759   2.311543   0.000000
     4  F    1.385107   2.297438   2.313354   0.000000
     5  O    1.598947   2.382102   2.393393   2.386809   0.000000
     6  C    2.650072   3.651526   3.356971   2.748334   1.468769
     7  C    3.736327   4.377280   4.690747   3.745799   2.437982
     8  C    2.624768   3.121074   2.839431   3.725109   1.468606
     9  C    3.091869   2.921682   3.305560   4.392791   2.471046
    10  H    3.271271   4.382966   3.574539   3.512334   2.072504
    11  H    2.581199   3.720552   3.299521   2.145015   2.056179
    12  H    4.596768   5.362353   5.469537   4.387168   3.380186
    13  H    3.696151   4.083131   4.877508   3.551153   2.704847
    14  H    4.222442   4.697711   5.091449   4.530469   2.724414
    15  H    2.879838   3.629374   2.569838   3.952077   2.072724
    16  H    3.511829   4.002266   3.856517   4.422842   2.046590
    17  H    4.119823   3.991202   4.132125   5.428711   3.388626
    18  H    3.363907   2.879448   3.946058   4.529685   2.706944
    19  H    2.841716   2.493845   2.812120   4.217856   2.821754
                    6          7          8          9         10
     6  C    0.000000
     7  C    1.510750   0.000000
     8  C    2.439601   3.209491   0.000000
     9  C    3.749048   4.284328   1.509539   0.000000
    10  H    1.095792   2.184293   2.460570   3.949702   0.000000
    11  H    1.089578   2.166592   3.286390   4.514711   1.779234
    12  H    2.131043   1.097421   4.123339   5.308984   2.509932
    13  H    2.155218   1.096245   3.706240   4.509913   3.087743
    14  H    2.173994   1.097156   2.999585   3.934359   2.547616
    15  H    2.806855   3.882302   1.096176   2.177506   2.470676
    16  H    2.456222   2.803344   1.093673   2.151965   2.330107
    17  H    4.504462   4.966539   2.112463   1.097485   4.500155
    18  H    3.930315   4.120220   2.159269   1.095794   4.354294
    19  H    4.239859   4.990023   2.173512   1.093858   4.482921
                   11         12         13         14         15
    11  H    0.000000
    12  H    2.503965   0.000000
    13  H    2.493423   1.781622   0.000000
    14  H    3.086717   1.775733   1.786573   0.000000
    15  H    3.500488   4.643664   4.507979   3.779698   0.000000
    16  H    3.495788   3.623892   3.477683   2.290216   1.788076
    17  H    5.363959   5.927722   5.316609   4.431484   2.516594
    18  H    4.697731   5.194527   4.129229   3.709806   3.085546
    19  H    4.806199   6.020103   5.120017   4.816602   2.508609
                   16         17         18         19
    16  H    0.000000
    17  H    2.424915   0.000000
    18  H    2.514968   1.781097   0.000000
    19  H    3.075953   1.777194   1.786768   0.000000
 Stoichiometry    C4H10BF3O
 Framework group  C1[X(C4H10BF3O)]
 Deg. of freedom    51
 Full point group                 C1      NOp   1
 Largest Abelian subgroup         C1      NOp   1
 Largest concise Abelian subgroup C1      NOp   1
                         Standard orientation:                         
 ---------------------------------------------------------------------
 Center     Atomic      Atomic             Coordinates (Angstroms)
 Number     Number       Type             X           Y           Z
 ---------------------------------------------------------------------
      1          5           0       -0.945135   -0.705869   -0.046117
      2          9           0       -1.575402   -0.262950   -1.195957
      3          9           0       -1.666251   -0.428436    1.107865
      4          9           0       -0.562286   -2.033736   -0.139484
      5          8           0        0.409363    0.137290    0.059003
      6          6           0        1.637417   -0.523722    0.519686
      7          6           0        2.743707   -0.307095   -0.486078
      8          6           0        0.312372    1.524639    0.530873
      9          6           0       -0.609739    2.354708   -0.329014
     10          1           0        1.871618   -0.109592    1.506807
     11          1           0        1.388623   -1.579021    0.627508
     12          1           0        3.649901   -0.807197   -0.121326
     13          1           0        2.471456   -0.739777   -1.455830
     14          1           0        2.973902    0.757229   -0.620148
     15          1           0       -0.015002    1.484173    1.576239
     16          1           0        1.333527    1.913357    0.483314
     17          1           0       -0.531025    3.392571    0.019004
     18          1           0       -0.305922    2.314910   -1.381096
     19          1           0       -1.653392    2.039295   -0.240526
 ---------------------------------------------------------------------
 Rotational constants (GHZ):           1.7511062           1.4165643           1.0065107
 Standard basis: Aug-CC-pVDZ (5D, 7F)
 There are   315 symmetry adapted cartesian basis functions of A   symmetry.
 There are   297 symmetry adapted basis functions of A   symmetry.
   297 basis functions,   497 primitive gaussians,   315 cartesian basis functions
    37 alpha electrons       37 beta electrons
       nuclear repulsion energy       523.8716984092 Hartrees.
 NAtoms=   19 NActive=   19 NUniq=   19 SFac= 1.00D+00 NAtFMM=   60 NAOKFM=F Big=F
 Integral buffers will be    131072 words long.
 Raffenetti 2 integral format.
 Two-electron integral symmetry is turned on.
 Nuclear repulsion after empirical dispersion term =      523.8596211046 Hartrees.
 Force PCM accuracy= 1.00D-12.
 ------------------------------------------------------------------------------
 Polarizable Continuum Model (PCM)
 =================================
 Model                : C-PCM.
 Atomic radii         : UFF (Universal Force Field).
 Polarization charges : Total charges.
 Charge compensation  : None.
 Solution method      : On-the-fly selection.
 Cavity type          : Scaled VdW (van der Waals Surface) (Alpha=1.100).
 Cavity algorithm     : GePol (No added spheres)
                        Default sphere list used, NSphG=   19.
                        Lebedev-Laikov grids with approx.  5.0 points / Ang**2.
                        Smoothing algorithm: York/Karplus (Gamma=1.0000).
                        Polarization charges: spherical gaussians, with
                                              point-specific exponents (IZeta= 3).
                        Self-potential: point-specific (ISelfS= 7).
                        Self-field    : sphere-specific E.n sum rule (ISelfD= 2).
 1st derivatives      : Analytical E(r).r(x)/FMM algorithm (CHGder, D1EAlg=3).
                        Cavity 1st derivative terms included.
 Solvent              : TetraHydroFuran, Eps=   7.425700 Eps(inf)=   1.974025
 ------------------------------------------------------------------------------
 Spheres list:
 ISph  on   Nord     Re0    Alpha      Xe            Ye            Ze
    1   B      1    2.0415  1.100     -0.945135     -0.705869     -0.046117
    2   F      2    1.6820  1.100     -1.575402     -0.262950     -1.195957
    3   F      3    1.6820  1.100     -1.666251     -0.428436      1.107865
    4   F      4    1.6820  1.100     -0.562286     -2.033736     -0.139484
    5   O      5    1.7500  1.100      0.409363      0.137290      0.059003
    6   C      6    1.9255  1.100      1.637417     -0.523722      0.519686
    7   C      7    1.9255  1.100      2.743707     -0.307095     -0.486078
    8   C      8    1.9255  1.100      0.312372      1.524639      0.530873
    9   C      9    1.9255  1.100     -0.609739      2.354708     -0.329014
   10   H     10    1.4430  1.100      1.871618     -0.109592      1.506807
   11   H     11    1.4430  1.100      1.388623     -1.579021      0.627508
   12   H     12    1.4430  1.100      3.649901     -0.807197     -0.121326
   13   H     13    1.4430  1.100      2.471456     -0.739777     -1.455830
   14   H     14    1.4430  1.100      2.973902      0.757229     -0.620148
   15   H     15    1.4430  1.100     -0.015002      1.484173      1.576239
   16   H     16    1.4430  1.100      1.333527      1.913357      0.483314
   17   H     17    1.4430  1.100     -0.531025      3.392571      0.019004
   18   H     18    1.4430  1.100     -0.305922      2.314910     -1.381096
   19   H     19    1.4430  1.100     -1.653392      2.039295     -0.240526
 ------------------------------------------------------------------------------
 One-electron integrals computed using PRISM.
 NBasis=   297 RedAO= T EigKep=  2.72D-05  NBF=   297
 NBsUse=   297 1.00D-06 EigRej= -1.00D+00 NBFU=   297
 Initial guess from the checkpoint file:  "/inspire/hdd/project/materialscienceresearch/lipenghui-253107030018/g16/00-B-DFT-Shift/04-output/BF3OEt2_THF/BF3OEt2_THF.chk"
 B after Tr=    -0.000000   -0.000000    0.000000
         Rot=    1.000000    0.000094    0.000145    0.000307 Ang=   0.04 deg.
 Requested convergence on RMS density matrix=1.00D-08 within 128 cycles.
 Requested convergence on MAX density matrix=1.00D-06.
 Requested convergence on             energy=1.00D-06.
 No special actions if energy rises.
 Inv3:  Mode=1 IEnd=     7004352.
 Iteration    1 A*A^-1 deviation from unit magnitude is 3.44D-15 for   1523.
 Iteration    1 A*A^-1 deviation from orthogonality  is 3.75D-15 for   1523    806.
 Iteration    1 A^-1*A deviation from unit magnitude is 3.44D-15 for   1523.
 Iteration    1 A^-1*A deviation from orthogonality  is 1.32D-15 for    358    219.
 Error on total polarization charges =  0.00990
 SCF Done:  E(RwB97XD) =  -558.150338848     A.U. after    7 cycles
            NFock=  7  Conv=0.92D-08     -V/T= 2.0060
 D1PCM: C-PCM CHGder 1st derivatives, ID1Alg=3 FixD1E=F DoIter=F DoCFld=F I1PDM=0.
 Calling FoFJK, ICntrl=      2127 FMM=F ISym2X=0 I1Cent= 0 IOpClX= 0 NMat=1 NMatS=1 NMatT=0.
 ***** Axes restored to original set *****
 -------------------------------------------------------------------
 Center     Atomic                   Forces (Hartrees/Bohr)
 Number     Number              X              Y              Z
 -------------------------------------------------------------------
      1        5          -0.000005942    0.000002295   -0.000000383
      2        9          -0.000003984    0.000000258    0.000002641
      3        9          -0.000000728   -0.000000988    0.000000608
      4        9           0.000000629   -0.000004472    0.000003159
      5        8          -0.000006766   -0.000012741    0.000004778
      6        6           0.000003279   -0.000002928   -0.000004846
      7        6           0.000000550   -0.000003655    0.000000425
      8        6           0.000017561    0.000014670    0.000001381
      9        6           0.000000957    0.000005250    0.000000015
     10        1           0.000001887    0.000000815    0.000000191
     11        1           0.000000842   -0.000000197    0.000002992
     12        1           0.000001765    0.000001844   -0.000000502
     13        1          -0.000000208    0.000000776    0.000000090
     14        1           0.000000213    0.000003225   -0.000000562
     15        1          -0.000000163   -0.000000740   -0.000001122
     16        1          -0.000001419   -0.000000772   -0.000002397
     17        1          -0.000001729   -0.000001627   -0.000002570
     18        1          -0.000004399    0.000000995   -0.000001865
     19        1          -0.000002346   -0.000002008   -0.000002035
 -------------------------------------------------------------------
 Cartesian Forces:  Max     0.000017561 RMS     0.000004250

 GradGradGradGradGradGradGradGradGradGradGradGradGradGradGradGradGradGrad
 Berny optimization.
 Using GEDIIS/GDIIS optimizer.
 FormGI is forming the generalized inverse of G from B-inverse, IUseBI=4.
 Internal  Forces:  Max     0.000014720 RMS     0.000002419
 Search for a local minimum.
 Step number  28 out of a maximum of   97
 All quantities printed in internal units (Hartrees-Bohrs-Radians)
 Mixed Optimization -- En-DIIS/RFO-DIIS
 Swapping is turned off.
 Update second derivatives using D2CorX and points   10   11   12   13   14
                                                     15   16   17   18   19
                                                     20   21   22   23   24
                                                     25   26   27   28
 DE=  4.94D-08 DEPred=-2.17D-08 R=-2.28D+00
 Trust test=-2.28D+00 RLast= 4.87D-03 DXMaxT set to 1.11D-01
 ITU= -1  0 -1 -1  0  0  0  0  1  1  1  1  1  1  1  1  1  1 -1  1
 ITU=  1  1  1  1  1  1  1  0
     Eigenvalues ---    0.00067   0.00105   0.00259   0.00308   0.00364
     Eigenvalues ---    0.01277   0.04634   0.04760   0.05085   0.05141
     Eigenvalues ---    0.05379   0.05533   0.05773   0.05888   0.07407
     Eigenvalues ---    0.09675   0.09972   0.12734   0.12885   0.13002
     Eigenvalues ---    0.13412   0.15665   0.15991   0.16030   0.16161
     Eigenvalues ---    0.16472   0.16582   0.20727   0.22195   0.23905
     Eigenvalues ---    0.24836   0.25435   0.28246   0.28418   0.28814
     Eigenvalues ---    0.29170   0.30349   0.31734   0.31929   0.32029
     Eigenvalues ---    0.32123   0.32153   0.32183   0.32234   0.32389
     Eigenvalues ---    0.32554   0.33826   0.37080   0.39731   0.41592
     Eigenvalues ---    0.50311
 En-DIIS/RFO-DIIS/Sim-DIIS IScMMF=       -3 using points:    28   27   26   25   24   23   22   21   20   19
 RFO step:  Lambda=-1.73519293D-09.
 DIIS inversion failure, remove point  10.
 DIIS inversion failure, remove point   9.
 DIIS inversion failure, remove point   8.
 DIIS inversion failure, remove point   7.
 DIIS inversion failure, remove point   6.
 DIIS inversion failure, remove point   5.
 DIIS inversion failure, remove point   4.
 RFO-DIIS uses    3 points instead of   10
 DidBck=F Rises=F RFO-DIIS coefs:    1.14671   -0.36147    0.21476    0.00000    0.00000
                  RFO-DIIS coefs:    0.00000    0.00000    0.00000    0.00000    0.00000
 Iteration  1 RMS(Cart)=  0.00017844 RMS(Int)=  0.00000003
 Iteration  2 RMS(Cart)=  0.00000001 RMS(Int)=  0.00000003
 Variable       Old X    -DE/DX   Delta X   Delta X   Delta X     New X
                                 (Linear)    (Quad)   (Total)
    R1        2.61544   0.00000   0.00000  -0.00000  -0.00000   2.61544
    R2        2.62437  -0.00000   0.00000  -0.00001  -0.00001   2.62437
    R3        2.61747   0.00000   0.00000  -0.00000   0.00000   2.61747
    R4        3.02157   0.00001  -0.00001   0.00004   0.00003   3.02161
    R5        2.77557   0.00000   0.00001  -0.00001   0.00001   2.77558
    R6        2.77526   0.00001   0.00003   0.00000   0.00004   2.77530
    R7        2.85490  -0.00000  -0.00000   0.00000  -0.00000   2.85490
    R8        2.07075  -0.00000  -0.00000   0.00000   0.00000   2.07075
    R9        2.05900   0.00000  -0.00000   0.00000   0.00000   2.05901
   R10        2.07382  -0.00000  -0.00000  -0.00000  -0.00001   2.07382
   R11        2.07160  -0.00000  -0.00000   0.00000  -0.00000   2.07160
   R12        2.07332   0.00000  -0.00000   0.00000   0.00000   2.07332
   R13        2.85262  -0.00000  -0.00000   0.00000  -0.00000   2.85261
   R14        2.07147  -0.00000  -0.00000   0.00000  -0.00000   2.07147
   R15        2.06674  -0.00000  -0.00000  -0.00000  -0.00000   2.06674
   R16        2.07395  -0.00000  -0.00000  -0.00000  -0.00001   2.07394
   R17        2.07075  -0.00000  -0.00000  -0.00000  -0.00000   2.07075
   R18        2.06709  -0.00000  -0.00000  -0.00000  -0.00000   2.06709
    A1        1.97137  -0.00000  -0.00000  -0.00001  -0.00001   1.97136
    A2        1.95699   0.00000  -0.00000   0.00002   0.00002   1.95700
    A3        1.84588   0.00000   0.00000   0.00000   0.00001   1.84589
    A4        1.97257   0.00000  -0.00000   0.00001   0.00001   1.97258
    A5        1.85448   0.00000   0.00001   0.00000   0.00001   1.85449
    A6        1.85023  -0.00001  -0.00000  -0.00003  -0.00003   1.85021
    A7        2.08471  -0.00000  -0.00002   0.00001  -0.00001   2.08470
    A8        2.05254   0.00000  -0.00000   0.00001   0.00001   2.05255
    A9        1.96014   0.00000  -0.00002   0.00004   0.00003   1.96017
   A10        1.91657  -0.00000  -0.00000   0.00001   0.00001   1.91658
   A11        1.86624  -0.00000  -0.00000  -0.00001  -0.00001   1.86623
   A12        1.85043  -0.00000   0.00000  -0.00002  -0.00002   1.85041
   A13        1.97036  -0.00000   0.00000   0.00000   0.00001   1.97037
   A14        1.95192   0.00000  -0.00000   0.00001   0.00001   1.95194
   A15        1.90254  -0.00000   0.00000  -0.00000  -0.00000   1.90254
   A16        1.89448   0.00000   0.00000   0.00000   0.00000   1.89448
   A17        1.92886   0.00000  -0.00000  -0.00000  -0.00000   1.92886
   A18        1.95421  -0.00000   0.00000  -0.00001  -0.00001   1.95420
   A19        1.89571   0.00000   0.00000   0.00001   0.00001   1.89572
   A20        1.88539   0.00000  -0.00000   0.00001   0.00001   1.88540
   A21        1.90381   0.00000   0.00000  -0.00001  -0.00000   1.90380
   A22        1.95711   0.00000   0.00000  -0.00000   0.00000   1.95711
   A23        1.86634  -0.00000  -0.00002  -0.00001  -0.00002   1.86632
   A24        1.83395  -0.00000  -0.00001   0.00000  -0.00001   1.83393
   A25        1.96178  -0.00000   0.00001   0.00000   0.00001   1.96179
   A26        1.92852   0.00000   0.00001   0.00001   0.00002   1.92854
   A27        1.91075   0.00000   0.00001  -0.00001  -0.00000   1.91074
   A28        1.87084  -0.00000  -0.00001  -0.00001  -0.00001   1.87083
   A29        1.93647   0.00000   0.00000  -0.00001  -0.00001   1.93646
   A30        1.95863  -0.00000   0.00000  -0.00001  -0.00001   1.95861
   A31        1.89538   0.00000  -0.00000   0.00001   0.00001   1.89540
   A32        1.89174   0.00000  -0.00000   0.00004   0.00004   1.89178
   A33        1.90893  -0.00000   0.00001  -0.00002  -0.00002   1.90891
    D1       -2.46188   0.00000  -0.00008  -0.00008  -0.00017  -2.46205
    D2        1.34456  -0.00000  -0.00002  -0.00020  -0.00022   1.34435
    D3        1.72189   0.00000  -0.00009  -0.00007  -0.00016   1.72173
    D4       -0.75485  -0.00000  -0.00002  -0.00019  -0.00021  -0.75506
    D5       -0.38110   0.00000  -0.00009  -0.00007  -0.00016  -0.38126
    D6       -2.85784  -0.00000  -0.00002  -0.00019  -0.00021  -2.85805
    D7        2.20516  -0.00000   0.00006   0.00010   0.00017   2.20532
    D8       -1.93459  -0.00000   0.00007   0.00011   0.00017  -1.93441
    D9        0.09359  -0.00000   0.00007   0.00009   0.00016   0.09375
   D10       -1.56868   0.00000   0.00001   0.00020   0.00021  -1.56848
   D11        0.57476   0.00000   0.00001   0.00021   0.00022   0.57497
   D12        2.60294   0.00000   0.00001   0.00019   0.00020   2.60314
   D13       -1.00579   0.00000  -0.00008  -0.00005  -0.00013  -1.00592
   D14        1.15205   0.00000  -0.00008  -0.00006  -0.00013   1.15192
   D15       -3.10139  -0.00000  -0.00008  -0.00007  -0.00015  -3.10155
   D16        2.75541  -0.00000  -0.00001  -0.00015  -0.00016   2.75525
   D17       -1.36993   0.00000  -0.00001  -0.00015  -0.00016  -1.37010
   D18        0.65981  -0.00000  -0.00002  -0.00017  -0.00018   0.65962
   D19        3.14011  -0.00000   0.00002   0.00003   0.00005   3.14016
   D20       -1.06585   0.00000   0.00002   0.00003   0.00006  -1.06580
   D21        1.06036  -0.00000   0.00002   0.00002   0.00004   1.06040
   D22        1.05944   0.00000   0.00002   0.00002   0.00004   1.05949
   D23        3.13666   0.00000   0.00002   0.00003   0.00005   3.13672
   D24       -1.02031   0.00000   0.00002   0.00002   0.00004  -1.02027
   D25       -1.09383  -0.00000   0.00002   0.00002   0.00003  -1.09379
   D26        0.98339   0.00000   0.00002   0.00002   0.00004   0.98344
   D27        3.10961  -0.00000   0.00002   0.00001   0.00003   3.10964
   D28       -3.02723   0.00000   0.00009  -0.00006   0.00004  -3.02720
   D29       -0.96042   0.00000   0.00009  -0.00005   0.00004  -0.96038
   D30        1.18097  -0.00000   0.00010  -0.00009   0.00001   1.18098
   D31        1.15257   0.00000   0.00010  -0.00005   0.00006   1.15263
   D32       -3.06380   0.00000   0.00010  -0.00004   0.00006  -3.06374
   D33       -0.92242   0.00000   0.00011  -0.00008   0.00003  -0.92239
   D34       -0.98761  -0.00000   0.00008  -0.00005   0.00003  -0.98757
   D35        1.07920  -0.00000   0.00008  -0.00004   0.00004   1.07924
   D36       -3.06259  -0.00000   0.00009  -0.00008   0.00001  -3.06259
         Item               Value     Threshold  Converged?
 Maximum Force            0.000015     0.000450     YES
 RMS     Force            0.000002     0.000300     YES
 Maximum Displacement     0.000580     0.001800     YES
 RMS     Displacement     0.000178     0.001200     YES
 Predicted change in Energy=-1.725325D-09
 Optimization completed.
    -- Stationary point found.
                           ----------------------------
                           !   Optimized Parameters   !
                           ! (Angstroms and Degrees)  !
 --------------------------                            --------------------------
 ! Name  Definition              Value          Derivative Info.                !
 --------------------------------------------------------------------------------
 ! R1    R(1,2)                  1.384          -DE/DX =    0.0                 !
 ! R2    R(1,3)                  1.3888         -DE/DX =    0.0                 !
 ! R3    R(1,4)                  1.3851         -DE/DX =    0.0                 !
 ! R4    R(1,5)                  1.5989         -DE/DX =    0.0                 !
 ! R5    R(5,6)                  1.4688         -DE/DX =    0.0                 !
 ! R6    R(5,8)                  1.4686         -DE/DX =    0.0                 !
 ! R7    R(6,7)                  1.5107         -DE/DX =    0.0                 !
 ! R8    R(6,10)                 1.0958         -DE/DX =    0.0                 !
 ! R9    R(6,11)                 1.0896         -DE/DX =    0.0                 !
 ! R10   R(7,12)                 1.0974         -DE/DX =    0.0                 !
 ! R11   R(7,13)                 1.0962         -DE/DX =    0.0                 !
 ! R12   R(7,14)                 1.0972         -DE/DX =    0.0                 !
 ! R13   R(8,9)                  1.5095         -DE/DX =    0.0                 !
 ! R14   R(8,15)                 1.0962         -DE/DX =    0.0                 !
 ! R15   R(8,16)                 1.0937         -DE/DX =    0.0                 !
 ! R16   R(9,17)                 1.0975         -DE/DX =    0.0                 !
 ! R17   R(9,18)                 1.0958         -DE/DX =    0.0                 !
 ! R18   R(9,19)                 1.0939         -DE/DX =    0.0                 !
 ! A1    A(2,1,3)              112.9514         -DE/DX =    0.0                 !
 ! A2    A(2,1,4)              112.1272         -DE/DX =    0.0                 !
 ! A3    A(2,1,5)              105.7613         -DE/DX =    0.0                 !
 ! A4    A(3,1,4)              113.0199         -DE/DX =    0.0                 !
 ! A5    A(3,1,5)              106.254          -DE/DX =    0.0                 !
 ! A6    A(4,1,5)              106.0106         -DE/DX =    0.0                 !
 ! A7    A(1,5,6)              119.4449         -DE/DX =    0.0                 !
 ! A8    A(1,5,8)              117.6017         -DE/DX =    0.0                 !
 ! A9    A(6,5,8)              112.308          -DE/DX =    0.0                 !
 ! A10   A(5,6,7)              109.8113         -DE/DX =    0.0                 !
 ! A11   A(5,6,10)             106.9275         -DE/DX =    0.0                 !
 ! A12   A(5,6,11)             106.022          -DE/DX =    0.0                 !
 ! A13   A(7,6,10)             112.8933         -DE/DX =    0.0                 !
 ! A14   A(7,6,11)             111.837          -DE/DX =    0.0                 !
 ! A15   A(10,6,11)            109.0078         -DE/DX =    0.0                 !
 ! A16   A(6,7,12)             108.5457         -DE/DX =    0.0                 !
 ! A17   A(6,7,13)             110.5157         -DE/DX =    0.0                 !
 ! A18   A(6,7,14)             111.9681         -DE/DX =    0.0                 !
 ! A19   A(12,7,13)            108.6163         -DE/DX =    0.0                 !
 ! A20   A(12,7,14)            108.0252         -DE/DX =    0.0                 !
 ! A21   A(13,7,14)            109.0802         -DE/DX =    0.0                 !
 ! A22   A(5,8,9)              112.134          -DE/DX =    0.0                 !
 ! A23   A(5,8,15)             106.9335         -DE/DX =    0.0                 !
 ! A24   A(5,8,16)             105.0774         -DE/DX =    0.0                 !
 ! A25   A(9,8,15)             112.4017         -DE/DX =    0.0                 !
 ! A26   A(9,8,16)             110.4959         -DE/DX =    0.0                 !
 ! A27   A(15,8,16)            109.4776         -DE/DX =    0.0                 !
 ! A28   A(8,9,17)             107.1913         -DE/DX =    0.0                 !
 ! A29   A(8,9,18)             110.9515         -DE/DX =    0.0                 !
 ! A30   A(8,9,19)             112.221          -DE/DX =    0.0                 !
 ! A31   A(17,9,18)            108.5973         -DE/DX =    0.0                 !
 ! A32   A(17,9,19)            108.3887         -DE/DX =    0.0                 !
 ! A33   A(18,9,19)            109.3737         -DE/DX =    0.0                 !
 ! D1    D(2,1,5,6)           -141.0554         -DE/DX =    0.0                 !
 ! D2    D(2,1,5,8)             77.0379         -DE/DX =    0.0                 !
 ! D3    D(3,1,5,6)             98.657          -DE/DX =    0.0                 !
 ! D4    D(3,1,5,8)            -43.2497         -DE/DX =    0.0                 !
 ! D5    D(4,1,5,6)            -21.8356         -DE/DX =    0.0                 !
 ! D6    D(4,1,5,8)           -163.7424         -DE/DX =    0.0                 !
 ! D7    D(1,5,6,7)            126.3462         -DE/DX =    0.0                 !
 ! D8    D(1,5,6,10)          -110.8437         -DE/DX =    0.0                 !
 ! D9    D(1,5,6,11)             5.3625         -DE/DX =    0.0                 !
 ! D10   D(8,5,6,7)            -89.8788         -DE/DX =    0.0                 !
 ! D11   D(8,5,6,10)            32.9312         -DE/DX =    0.0                 !
 ! D12   D(8,5,6,11)           149.1374         -DE/DX =    0.0                 !
 ! D13   D(1,5,8,9)            -57.6273         -DE/DX =    0.0                 !
 ! D14   D(1,5,8,15)            66.0079         -DE/DX =    0.0                 !
 ! D15   D(1,5,8,16)          -177.6968         -DE/DX =    0.0                 !
 ! D16   D(6,5,8,9)            157.8735         -DE/DX =    0.0                 !
 ! D17   D(6,5,8,15)           -78.4913         -DE/DX =    0.0                 !
 ! D18   D(6,5,8,16)            37.804          -DE/DX =    0.0                 !
 ! D19   D(5,6,7,12)           179.915          -DE/DX =    0.0                 !
 ! D20   D(5,6,7,13)           -61.069          -DE/DX =    0.0                 !
 ! D21   D(5,6,7,14)            60.7541         -DE/DX =    0.0                 !
 ! D22   D(10,6,7,12)           60.7015         -DE/DX =    0.0                 !
 ! D23   D(10,6,7,13)          179.7175         -DE/DX =    0.0                 !
 ! D24   D(10,6,7,14)          -58.4594         -DE/DX =    0.0                 !
 ! D25   D(11,6,7,12)          -62.6717         -DE/DX =    0.0                 !
 ! D26   D(11,6,7,13)           56.3443         -DE/DX =    0.0                 !
 ! D27   D(11,6,7,14)          178.1674         -DE/DX =    0.0                 !
 ! D28   D(5,8,9,17)          -173.4476         -DE/DX =    0.0                 !
 ! D29   D(5,8,9,18)           -55.028          -DE/DX =    0.0                 !
 ! D30   D(5,8,9,19)            67.6645         -DE/DX =    0.0                 !
 ! D31   D(15,8,9,17)           66.0374         -DE/DX =    0.0                 !
 ! D32   D(15,8,9,18)         -175.543          -DE/DX =    0.0                 !
 ! D33   D(15,8,9,19)          -52.8505         -DE/DX =    0.0                 !
 ! D34   D(16,8,9,17)          -56.5858         -DE/DX =    0.0                 !
 ! D35   D(16,8,9,18)           61.8338         -DE/DX =    0.0                 !
 ! D36   D(16,8,9,19)         -175.4737         -DE/DX =    0.0                 !
 --------------------------------------------------------------------------------
 GradGradGradGradGradGradGradGradGradGradGradGradGradGradGradGradGradGrad

                          Input orientation:                          
 ---------------------------------------------------------------------
 Center     Atomic      Atomic             Coordinates (Angstroms)
 Number     Number       Type             X           Y           Z
 ---------------------------------------------------------------------
      1          5           0       -1.768438    0.668580   -0.222408
      2          9           0       -1.551229    1.606823   -1.216424
      3          9           0       -2.114301    1.239840    0.995251
      4          9           0       -2.647502   -0.323453   -0.624446
      5          8           0       -0.361262   -0.055362    0.006494
      6          6           0       -0.325717   -1.502641    0.254288
      7          6           0        0.611501   -2.167214   -0.726697
      8          6           0        0.658321    0.667461    0.777715
      9          6           0        0.992177    2.005994    0.164870
     10          1           0       -0.018890   -1.640336    1.297197
     11          1           0       -1.350655   -1.853145    0.136685
     12          1           0        0.623452   -3.245386   -0.522411
     13          1           0        0.266067   -2.009698   -1.755102
     14          1           0        1.638240   -1.792300   -0.631838
     15          1           0        0.278087    0.759990    1.801660
     16          1           0        1.535468    0.014237    0.772068
     17          1           0        1.836835    2.419988    0.730234
     18          1           0        1.294416    1.893034   -0.882344
     19          1           0        0.156970    2.709568    0.227623
 ---------------------------------------------------------------------
                    Distance matrix (angstroms):
                    1          2          3          4          5
     1  B    0.000000
     2  F    1.384033   0.000000
     3  F    1.388759   2.311543   0.000000
     4  F    1.385107   2.297438   2.313354   0.000000
     5  O    1.598947   2.382102   2.393393   2.386809   0.000000
     6  C    2.650072   3.651526   3.356971   2.748334   1.468769
     7  C    3.736327   4.377280   4.690747   3.745799   2.437982
     8  C    2.624768   3.121074   2.839431   3.725109   1.468606
     9  C    3.091869   2.921682   3.305560   4.392791   2.471046
    10  H    3.271271   4.382966   3.574539   3.512334   2.072504
    11  H    2.581199   3.720552   3.299521   2.145015   2.056179
    12  H    4.596768   5.362353   5.469537   4.387168   3.380186
    13  H    3.696151   4.083131   4.877508   3.551153   2.704847
    14  H    4.222442   4.697711   5.091449   4.530469   2.724414
    15  H    2.879838   3.629374   2.569838   3.952077   2.072724
    16  H    3.511829   4.002266   3.856517   4.422842   2.046590
    17  H    4.119823   3.991202   4.132125   5.428711   3.388626
    18  H    3.363907   2.879448   3.946058   4.529685   2.706944
    19  H    2.841716   2.493845   2.812120   4.217856   2.821754
                    6          7          8          9         10
     6  C    0.000000
     7  C    1.510750   0.000000
     8  C    2.439601   3.209491   0.000000
     9  C    3.749048   4.284328   1.509539   0.000000
    10  H    1.095792   2.184293   2.460570   3.949702   0.000000
    11  H    1.089578   2.166592   3.286390   4.514711   1.779234
    12  H    2.131043   1.097421   4.123339   5.308984   2.509932
    13  H    2.155218   1.096245   3.706240   4.509913   3.087743
    14  H    2.173994   1.097156   2.999585   3.934359   2.547616
    15  H    2.806855   3.882302   1.096176   2.177506   2.470676
    16  H    2.456222   2.803344   1.093673   2.151965   2.330107
    17  H    4.504462   4.966539   2.112463   1.097485   4.500155
    18  H    3.930315   4.120220   2.159269   1.095794   4.354294
    19  H    4.239859   4.990023   2.173512   1.093858   4.482921
                   11         12         13         14         15
    11  H    0.000000
    12  H    2.503965   0.000000
    13  H    2.493423   1.781622   0.000000
    14  H    3.086717   1.775733   1.786573   0.000000
    15  H    3.500488   4.643664   4.507979   3.779698   0.000000
    16  H    3.495788   3.623892   3.477683   2.290216   1.788076
    17  H    5.363959   5.927722   5.316609   4.431484   2.516594
    18  H    4.697731   5.194527   4.129229   3.709806   3.085546
    19  H    4.806199   6.020103   5.120017   4.816602   2.508609
                   16         17         18         19
    16  H    0.000000
    17  H    2.424915   0.000000
    18  H    2.514968   1.781097   0.000000
    19  H    3.075953   1.777194   1.786768   0.000000
 Stoichiometry    C4H10BF3O
 Framework group  C1[X(C4H10BF3O)]
 Deg. of freedom    51
 Full point group                 C1      NOp   1
 Largest Abelian subgroup         C1      NOp   1
 Largest concise Abelian subgroup C1      NOp   1
                         Standard orientation:                         
 ---------------------------------------------------------------------
 Center     Atomic      Atomic             Coordinates (Angstroms)
 Number     Number       Type             X           Y           Z
 ---------------------------------------------------------------------
      1          5           0       -0.945135   -0.705869   -0.046117
      2          9           0       -1.575402   -0.262950   -1.195957
      3          9           0       -1.666251   -0.428436    1.107865
      4          9           0       -0.562286   -2.033736   -0.139484
      5          8           0        0.409363    0.137290    0.059003
      6          6           0        1.637417   -0.523722    0.519686
      7          6           0        2.743707   -0.307095   -0.486078
      8          6           0        0.312372    1.524639    0.530873
      9          6           0       -0.609739    2.354708   -0.329014
     10          1           0        1.871618   -0.109592    1.506807
     11          1           0        1.388623   -1.579021    0.627508
     12          1           0        3.649901   -0.807197   -0.121326
     13          1           0        2.471456   -0.739777   -1.455830
     14          1           0        2.973902    0.757229   -0.620148
     15          1           0       -0.015002    1.484173    1.576239
     16          1           0        1.333527    1.913357    0.483314
     17          1           0       -0.531025    3.392571    0.019004
     18          1           0       -0.305922    2.314910   -1.381096
     19          1           0       -1.653392    2.039295   -0.240526
 ---------------------------------------------------------------------
 Rotational constants (GHZ):           1.7511062           1.4165643           1.0065107

 **********************************************************************

            Population analysis using the SCF Density.

 **********************************************************************

 Orbital symmetries:
       Occupied  (A) (A) (A) (A) (A) (A) (A) (A) (A) (A) (A) (A)
                 (A) (A) (A) (A) (A) (A) (A) (A) (A) (A) (A) (A)
                 (A) (A) (A) (A) (A) (A) (A) (A) (A) (A) (A) (A)
                 (A)
       Virtual   (A) (A) (A) (A) (A) (A) (A) (A) (A) (A) (A) (A)
                 (A) (A) (A) (A) (A) (A) (A) (A) (A) (A) (A) (A)
                 (A) (A) (A) (A) (A) (A) (A) (A) (A) (A) (A) (A)
                 (A) (A) (A) (A) (A) (A) (A) (A) (A) (A) (A) (A)
                 (A) (A) (A) (A) (A) (A) (A) (A) (A) (A) (A) (A)
                 (A) (A) (A) (A) (A) (A) (A) (A) (A) (A) (A) (A)
                 (A) (A) (A) (A) (A) (A) (A) (A) (A) (A) (A) (A)
                 (A) (A) (A) (A) (A) (A) (A) (A) (A) (A) (A) (A)
                 (A) (A) (A) (A) (A) (A) (A) (A) (A) (A) (A) (A)
                 (A) (A) (A) (A) (A) (A) (A) (A) (A) (A) (A) (A)
                 (A) (A) (A) (A) (A) (A) (A) (A) (A) (A) (A) (A)
                 (A) (A) (A) (A) (A) (A) (A) (A) (A) (A) (A) (A)
                 (A) (A) (A) (A) (A) (A) (A) (A) (A) (A) (A) (A)
                 (A) (A) (A) (A) (A) (A) (A) (A) (A) (A) (A) (A)
                 (A) (A) (A) (A) (A) (A) (A) (A) (A) (A) (A) (A)
                 (A) (A) (A) (A) (A) (A) (A) (A) (A) (A) (A) (A)
                 (A) (A) (A) (A) (A) (A) (A) (A) (A) (A) (A) (A)
                 (A) (A) (A) (A) (A) (A) (A) (A) (A) (A) (A) (A)
                 (A) (A) (A) (A) (A) (A) (A) (A) (A) (A) (A) (A)
                 (A) (A) (A) (A) (A) (A) (A) (A) (A) (A) (A) (A)
                 (A) (A) (A) (A) (A) (A) (A) (A) (A) (A) (A) (A)
                 (A) (A) (A) (A) (A) (A) (A) (A)
 The electronic state is 1-A.
 Alpha  occ. eigenvalues --  -24.81230 -24.80945 -24.80657 -19.36046 -10.37610
 Alpha  occ. eigenvalues --  -10.37339 -10.30404 -10.30091  -6.99495  -1.31854
 Alpha  occ. eigenvalues --   -1.27542  -1.27188  -1.20739  -0.90349  -0.86424
 Alpha  occ. eigenvalues --   -0.75700  -0.74640  -0.67241  -0.63874  -0.62266
 Alpha  occ. eigenvalues --   -0.60877  -0.59117  -0.57906  -0.55388  -0.52682
 Alpha  occ. eigenvalues --   -0.51613  -0.51199  -0.50769  -0.48820  -0.48611
 Alpha  occ. eigenvalues --   -0.48475  -0.47370  -0.46670  -0.46340  -0.45383
 Alpha  occ. eigenvalues --   -0.44288  -0.41208
 Alpha virt. eigenvalues --    0.03734   0.04779   0.04924   0.04997   0.06822
 Alpha virt. eigenvalues --    0.06975   0.07142   0.07186   0.07615   0.09260
 Alpha virt. eigenvalues --    0.09505   0.09841   0.10941   0.11866   0.12784
 Alpha virt. eigenvalues --    0.13879   0.14450   0.14826   0.15026   0.15591
 Alpha virt. eigenvalues --    0.16390   0.17263   0.17500   0.18038   0.18398
 Alpha virt. eigenvalues --    0.18895   0.19497   0.19678   0.20399   0.20752
 Alpha virt. eigenvalues --    0.22711   0.22809   0.23547   0.24257   0.24779
 Alpha virt. eigenvalues --    0.25202   0.25861   0.26968   0.27757   0.28112
 Alpha virt. eigenvalues --    0.28843   0.29563   0.29870   0.31237   0.31726
 Alpha virt. eigenvalues --    0.32070   0.32753   0.33492   0.34191   0.35350
 Alpha virt. eigenvalues --    0.36392   0.36823   0.37597   0.38659   0.39048
 Alpha virt. eigenvalues --    0.39652   0.40490   0.40818   0.41284   0.41553
 Alpha virt. eigenvalues --    0.42314   0.42711   0.43147   0.43467   0.43945
 Alpha virt. eigenvalues --    0.44888   0.45653   0.46143   0.47401   0.47805
 Alpha virt. eigenvalues --    0.49712   0.50150   0.51036   0.51122   0.52271
 Alpha virt. eigenvalues --    0.53090   0.53469   0.53990   0.55012   0.55463
 Alpha virt. eigenvalues --    0.55621   0.56681   0.57037   0.58365   0.59301
 Alpha virt. eigenvalues --    0.59629   0.60278   0.61040   0.62140   0.63473
 Alpha virt. eigenvalues --    0.64197   0.64685   0.64978   0.65951   0.67039
 Alpha virt. eigenvalues --    0.67903   0.69890   0.70471   0.71342   0.71380
 Alpha virt. eigenvalues --    0.72479   0.72979   0.73946   0.74371   0.75738
 Alpha virt. eigenvalues --    0.76320   0.76764   0.78528   0.79030   0.79495
 Alpha virt. eigenvalues --    0.80575   0.81940   0.82675   0.83252   0.83707
 Alpha virt. eigenvalues --    0.86440   0.87450   0.88113   0.89049   0.91200
 Alpha virt. eigenvalues --    0.92341   0.93878   0.96184   0.97420   0.98632
 Alpha virt. eigenvalues --    1.00069   1.00752   1.04109   1.04857   1.06425
 Alpha virt. eigenvalues --    1.08286   1.09480   1.10650   1.12393   1.14501
 Alpha virt. eigenvalues --    1.15577   1.18101   1.21307   1.22238   1.25164
 Alpha virt. eigenvalues --    1.27082   1.30164   1.32051   1.33662   1.34971
 Alpha virt. eigenvalues --    1.35916   1.38726   1.39086   1.42210   1.42335
 Alpha virt. eigenvalues --    1.43684   1.45049   1.46667   1.47824   1.49447
 Alpha virt. eigenvalues --    1.49988   1.51862   1.53733   1.55269   1.58005
 Alpha virt. eigenvalues --    1.60025   1.61756   1.62067   1.63523   1.65963
 Alpha virt. eigenvalues --    1.66779   1.67732   1.69302   1.69678   1.71209
 Alpha virt. eigenvalues --    1.73505   1.74712   1.74825   1.76697   1.77651
 Alpha virt. eigenvalues --    1.78357   1.80154   1.81729   1.82453   1.83500
 Alpha virt. eigenvalues --    1.85729   1.87514   1.88305   1.90731   1.92297
 Alpha virt. eigenvalues --    1.93547   1.95877   1.97114   1.98433   1.99827
 Alpha virt. eigenvalues --    2.01716   2.02571   2.03622   2.05525   2.07274
 Alpha virt. eigenvalues --    2.07534   2.09579   2.10397   2.11651   2.12514
 Alpha virt. eigenvalues --    2.15240   2.16947   2.20052   2.23539   2.26252
 Alpha virt. eigenvalues --    2.28685   2.30501   2.32047   2.33490   2.35434
 Alpha virt. eigenvalues --    2.37950   2.39454   2.40762   2.41308   2.47087
 Alpha virt. eigenvalues --    2.47336   2.48839   2.52253   2.54996   2.55773
 Alpha virt. eigenvalues --    2.58498   2.61288   2.63866   2.65214   2.67880
 Alpha virt. eigenvalues --    2.72202   2.73154   2.75950   2.82764   2.84384
 Alpha virt. eigenvalues --    2.86376   2.88528   2.94001   2.99126   3.07060
 Alpha virt. eigenvalues --    3.07888   3.15869   3.20500   3.36328   3.62901
 Alpha virt. eigenvalues --    3.67447   3.70138   3.73985   3.89904   3.97720
 Alpha virt. eigenvalues --    4.61683   4.63998   4.66191   4.66508   4.68428
 Alpha virt. eigenvalues --    4.70564   4.72782   4.74690   4.75437   4.79496
 Alpha virt. eigenvalues --    4.81455   4.83982   4.86658   4.92506   4.94546
          Condensed to atoms (all electrons):
               1          2          3          4          5          6
     1  B    3.544504  -0.023882   0.065644   0.135186  -0.348501  -0.094057
     2  F   -0.023882   9.605575  -0.107080  -0.176477   0.294010   0.022269
     3  F    0.065644  -0.107080   9.732128  -0.145465   0.021243  -0.058104
     4  F    0.135186  -0.176477  -0.145465  10.000872  -0.151159  -0.098655
     5  O   -0.348501   0.294010   0.021243  -0.151159  10.078076   0.105589
     6  C   -0.094057   0.022269  -0.058104  -0.098655   0.105589   5.001818
     7  C   -0.026940   0.016965   0.001316   0.001689  -0.025384   0.233441
     8  C    0.042761  -0.112573   0.031720   0.019289  -0.098508  -0.053497
     9  C    0.002323   0.016966  -0.035127   0.019132  -0.070679  -0.081546
    10  H    0.037026  -0.005794  -0.001784  -0.002106  -0.141600   0.000835
    11  H    0.023217   0.020905   0.003343  -0.088098  -0.316012   0.175148
    12  H    0.004456   0.001836   0.000558  -0.001687   0.132746   0.099690
    13  H    0.010288  -0.000894  -0.000318  -0.000794  -0.094786  -0.070246
    14  H   -0.016302   0.001709  -0.001028  -0.006842  -0.183105  -0.084216
    15  H    0.045261   0.007746   0.033065   0.016052  -0.057666   0.010411
    16  H    0.009718  -0.007490  -0.001892  -0.000776  -0.168083  -0.103304
    17  H    0.005764   0.001971   0.002408   0.000083   0.062605   0.002802
    18  H    0.016617   0.007045  -0.002078   0.006937  -0.111053  -0.044167
    19  H    0.045520  -0.027855   0.033645   0.010732  -0.120742  -0.017449
               7          8          9         10         11         12
     1  B   -0.026940   0.042761   0.002323   0.037026   0.023217   0.004456
     2  F    0.016965  -0.112573   0.016966  -0.005794   0.020905   0.001836
     3  F    0.001316   0.031720  -0.035127  -0.001784   0.003343   0.000558
     4  F    0.001689   0.019289   0.019132  -0.002106  -0.088098  -0.001687
     5  O   -0.025384  -0.098508  -0.070679  -0.141600  -0.316012   0.132746
     6  C    0.233441  -0.053497  -0.081546   0.000835   0.175148   0.099690
     7  C    4.468064  -0.026917   0.013696  -0.101474  -0.064597   0.264674
     8  C   -0.026917   5.040429   0.184615   0.028993  -0.026312  -0.029373
     9  C    0.013696   0.184615   4.659044   0.076494  -0.034748  -0.000155
    10  H   -0.101474   0.028993   0.076494   1.671273  -0.366183  -0.111787
    11  H   -0.064597  -0.026312  -0.034748  -0.366183   2.208134  -0.085832
    12  H    0.264674  -0.029373  -0.000155  -0.111787  -0.085832   1.410221
    13  H    0.306045   0.028316   0.012633   0.118144  -0.126172  -0.259590
    14  H    0.362113   0.007814  -0.024425  -0.077251   0.137806  -0.275127
    15  H    0.004862  -0.166494  -0.096255  -0.027441  -0.012189  -0.001699
    16  H    0.031828  -0.002368  -0.068352   0.031641   0.006849  -0.000031
    17  H   -0.001756   0.106253   0.229635  -0.003853   0.000167  -0.000240
    18  H    0.008827  -0.117292   0.387282   0.007594  -0.011011  -0.000826
    19  H   -0.000149   0.011393   0.275715   0.007838  -0.001243  -0.000458
              13         14         15         16         17         18
     1  B    0.010288  -0.016302   0.045261   0.009718   0.005764   0.016617
     2  F   -0.000894   0.001709   0.007746  -0.007490   0.001971   0.007045
     3  F   -0.000318  -0.001028   0.033065  -0.001892   0.002408  -0.002078
     4  F   -0.000794  -0.006842   0.016052  -0.000776   0.000083   0.006937
     5  O   -0.094786  -0.183105  -0.057666  -0.168083   0.062605  -0.111053
     6  C   -0.070246  -0.084216   0.010411  -0.103304   0.002802  -0.044167
     7  C    0.306045   0.362113   0.004862   0.031828  -0.001756   0.008827
     8  C    0.028316   0.007814  -0.166494  -0.002368   0.106253  -0.117292
     9  C    0.012633  -0.024425  -0.096255  -0.068352   0.229635   0.387282
    10  H    0.118144  -0.077251  -0.027441   0.031641  -0.003853   0.007594
    11  H   -0.126172   0.137806  -0.012189   0.006849   0.000167  -0.011011
    12  H   -0.259590  -0.275127  -0.001699  -0.000031  -0.000240  -0.000826
    13  H    1.417005  -0.200149   0.001081  -0.009642  -0.000564   0.007500
    14  H   -0.200149   1.530397  -0.001005   0.039408   0.001216  -0.007913
    15  H    0.001081  -0.001005   2.100156  -0.388443  -0.098152   0.140394
    16  H   -0.009642   0.039408  -0.388443   2.204532  -0.071173  -0.150571
    17  H   -0.000564   0.001216  -0.098152  -0.071173   1.411449  -0.246861
    18  H    0.007500  -0.007913   0.140394  -0.150571  -0.246861   1.530229
    19  H    0.000298   0.000390  -0.128083   0.109886  -0.262404  -0.290941
              19
     1  B    0.045520
     2  F   -0.027855
     3  F    0.033645
     4  F    0.010732
     5  O   -0.120742
     6  C   -0.017449
     7  C   -0.000149
     8  C    0.011393
     9  C    0.275715
    10  H    0.007838
    11  H   -0.001243
    12  H   -0.000458
    13  H    0.000298
    14  H    0.000390
    15  H   -0.128083
    16  H    0.109886
    17  H   -0.262404
    18  H   -0.290941
    19  H    1.490535
 Mulliken charges:
               1
     1  B    1.521399
     2  F   -0.534953
     3  F   -0.572194
     4  F   -0.537915
     5  O   -0.806989
     6  C    1.053239
     7  C    0.533696
     8  C    1.131752
     9  C    0.533753
    10  H   -0.140564
    11  H   -0.443173
    12  H   -0.147377
    13  H   -0.138155
    14  H   -0.203489
    15  H   -0.381602
    16  H   -0.461739
    17  H   -0.139350
    18  H   -0.129712
    19  H   -0.136628
 Sum of Mulliken charges =  -0.00000
 Mulliken charges with hydrogens summed into heavy atoms:
               1
     1  B    1.521399
     2  F   -0.534953
     3  F   -0.572194
     4  F   -0.537915
     5  O   -0.806989
     6  C    0.469502
     7  C    0.044676
     8  C    0.288411
     9  C    0.128063
 Electronic spatial extent (au):  <R**2>=           1263.1569
 Charge=              0.0000 electrons
 Dipole moment (field-independent basis, Debye):
    X=              6.3535    Y=              4.0784    Z=              1.5584  Tot=              7.7090
 Quadrupole moment (field-independent basis, Debye-Ang):
   XX=            -52.0774   YY=            -51.2781   ZZ=            -54.9841
   XY=             -3.2679   XZ=              1.1556   YZ=              0.5137
 Traceless Quadrupole moment (field-independent basis, Debye-Ang):
   XX=              0.7024   YY=              1.5018   ZZ=             -2.2042
   XY=             -3.2679   XZ=              1.1556   YZ=              0.5137
 Octapole moment (field-independent basis, Debye-Ang**2):
  XXX=              7.4675  YYY=              8.7243  ZZZ=              1.8523  XYY=             -0.3025
  XXY=             -4.8487  XXZ=              1.4350  XZZ=              2.9483  YZZ=             -2.0545
  YYZ=              2.7166  XYZ=             -0.6156
 Hexadecapole moment (field-independent basis, Debye-Ang**3):
 XXXX=           -718.1654 YYYY=           -571.4937 ZZZZ=           -200.2229 XXXY=              0.0482
 XXXZ=              7.6041 YYYX=              4.5931 YYYZ=              2.8881 ZZZX=              1.7762
 ZZZY=              3.2298 XXYY=           -214.1814 XXZZ=           -167.5153 YYZZ=           -129.3767
 XXYZ=              0.0781 YYXZ=              1.4947 ZZXY=              0.4219
 N-N= 5.238596211046D+02 E-N=-2.364241220137D+03  KE= 5.548016463628D+02
 Unable to Open any file for archive entry.
 1\1\GINC-B-DFT-5--8CA45D19513E-OUNGKHDAJN\FOpt\RwB97XD\Aug-CC-pVDZ\C4H
 10B1F3O1\ROOT\24-May-2026\0\\# nmr=giao wb97xd/aug-cc-pvdz opt freq in
 tegral=(acc2e=12,grid=ultrafine) scrf=(cpcm,solvent=thf)\\BF3OEt2_THF 
 | solvent model: THF\\0,1\B,-1.7684375518,0.6685804186,-0.2224081674\F
 ,-1.5512291627,1.606822845,-1.2164242042\F,-2.114300563,1.2398397236,0
 .9952505501\F,-2.6475023972,-0.3234534402,-0.6244455964\O,-0.361261560
 6,-0.0553615979,0.006494345\C,-0.3257172382,-1.5026408922,0.2542881273
 \C,0.611500664,-2.1672135959,-0.7266966462\C,0.6583213242,0.6674613946
 ,0.7777152729\C,0.9921771653,2.0059942427,0.164870023\H,-0.0188896293,
 -1.6403358814,1.2971966066\H,-1.3506552033,-1.8531446692,0.1366850484\
 H,0.6234518695,-3.2453863722,-0.5224105726\H,0.2660665637,-2.009698268
 7,-1.755102219\H,1.6382396231,-1.7923002723,-0.6318383233\H,0.27808669
 68,0.7599897009,1.801660063\H,1.5354683577,0.0142368661,0.7720677267\H
 ,1.8368347367,2.4199882726,0.7302335847\H,1.2944156087,1.8930343593,-0
 .8823440356\H,0.1569696965,2.7095681668,0.2276234171\\Version=ES64L-G1
 6RevC.01\State=1-A\HF=-558.1503388\RMSD=9.191e-09\RMSF=4.250e-06\Dipol
 e=2.568431,-1.3762039,0.8414824\Quadrupole=-1.5399705,2.901146,-1.3611
 755,1.1891907,1.0039973,0.3832338\PG=C01 [X(C4H10B1F3O1)]\\@
 The archive entry for this job was punched.


 THE UNDERLYING PHYSICAL LAWS NECESSARY FOR THE 
 MATHEMATICAL THEORY OF A LARGE PART OF PHYSICS AND THE
 WHOLE OF CHEMISTRY ARE THUS COMPLETELY KNOWN, AND THE
 DIFFICULTY IS ONLY THAT THE EXACT APPLICATION OF THESE
 LAWS LEADS TO EQUATIONS MUCH TOO COMPLICATED 
 TO BE SOLUBLE.

                                        -- P. A. M. DIRAC, 1929
 Job cpu time:       0 days  5 hours 30 minutes  9.4 seconds.
 Elapsed time:       0 days  0 hours 16 minutes 58.7 seconds.
 File lengths (MBytes):  RWF=    304 Int=      0 D2E=      0 Chk=     32 Scr=     32
 Normal termination of Gaussian 16 at Sun May 24 17:29:41 2026.
 Link1:  Proceeding to internal job step number  2.
 ----------------------------------------------------------------------
 #N Geom=AllCheck Guess=TCheck SCRF=Check GenChk RwB97XD/Aug-CC-pVDZ Fr
 eq
 ----------------------------------------------------------------------
 1/10=4,29=7,30=1,38=1,40=1/1,3;
 2/12=2,40=1/2;
 3/5=16,7=10,11=2,14=-4,25=1,27=12,30=1,36=2,70=2,71=2,74=-58,75=-5,116=1,140=1/1,2,3;
 4/5=101/1;
 5/5=2,38=6,87=12,98=1/2;
 8/6=4,10=90,11=11,87=12/1;
 10/15=4,46=1,87=12/2;
 11/6=1,8=1,9=11,15=111,16=1,87=12/1,2,10;
 10/6=1,46=1,87=12/2;
 6/7=2,8=2,9=2,10=2,28=1,87=12/1;
 7/8=1,10=1,25=1,87=12/1,2,3,16;
 1/10=4,30=1/3;
 99//99;
 Structure from the checkpoint file:  "/inspire/hdd/project/materialscienceresearch/lipenghui-253107030018/g16/00-B-DFT-Shift/04-output/BF3OEt2_THF/BF3OEt2_THF.chk"
 --------------------------------
 BF3OEt2_THF | solvent model: THF
 --------------------------------
 Charge =  0 Multiplicity = 1
 Redundant internal coordinates found in file.  (old form).
 B,0,-1.7684375518,0.6685804186,-0.2224081674
 F,0,-1.5512291627,1.606822845,-1.2164242042
 F,0,-2.114300563,1.2398397236,0.9952505501
 F,0,-2.6475023972,-0.3234534402,-0.6244455964
 O,0,-0.3612615606,-0.0553615979,0.006494345
 C,0,-0.3257172382,-1.5026408922,0.2542881273
 C,0,0.611500664,-2.1672135959,-0.7266966462
 C,0,0.6583213242,0.6674613946,0.7777152729
 C,0,0.9921771653,2.0059942427,0.164870023
 H,0,-0.0188896293,-1.6403358814,1.2971966066
 H,0,-1.3506552033,-1.8531446692,0.1366850484
 H,0,0.6234518695,-3.2453863722,-0.5224105726
 H,0,0.2660665637,-2.0096982687,-1.755102219
 H,0,1.6382396231,-1.7923002723,-0.6318383233
 H,0,0.2780866968,0.7599897009,1.801660063
 H,0,1.5354683577,0.0142368661,0.7720677267
 H,0,1.8368347367,2.4199882726,0.7302335847
 H,0,1.2944156087,1.8930343593,-0.8823440356
 H,0,0.1569696965,2.7095681668,0.2276234171
 Recover connectivity data from disk.

 GradGradGradGradGradGradGradGradGradGradGradGradGradGradGradGradGradGrad
 Berny optimization.
 Initialization pass.
                           ----------------------------
                           !    Initial Parameters    !
                           ! (Angstroms and Degrees)  !
 --------------------------                            --------------------------
 ! Name  Definition              Value          Derivative Info.                !
 --------------------------------------------------------------------------------
 ! R1    R(1,2)                  1.384          calculate D2E/DX2 analytically  !
 ! R2    R(1,3)                  1.3888         calculate D2E/DX2 analytically  !
 ! R3    R(1,4)                  1.3851         calculate D2E/DX2 analytically  !
 ! R4    R(1,5)                  1.5989         calculate D2E/DX2 analytically  !
 ! R5    R(5,6)                  1.4688         calculate D2E/DX2 analytically  !
 ! R6    R(5,8)                  1.4686         calculate D2E/DX2 analytically  !
 ! R7    R(6,7)                  1.5107         calculate D2E/DX2 analytically  !
 ! R8    R(6,10)                 1.0958         calculate D2E/DX2 analytically  !
 ! R9    R(6,11)                 1.0896         calculate D2E/DX2 analytically  !
 ! R10   R(7,12)                 1.0974         calculate D2E/DX2 analytically  !
 ! R11   R(7,13)                 1.0962         calculate D2E/DX2 analytically  !
 ! R12   R(7,14)                 1.0972         calculate D2E/DX2 analytically  !
 ! R13   R(8,9)                  1.5095         calculate D2E/DX2 analytically  !
 ! R14   R(8,15)                 1.0962         calculate D2E/DX2 analytically  !
 ! R15   R(8,16)                 1.0937         calculate D2E/DX2 analytically  !
 ! R16   R(9,17)                 1.0975         calculate D2E/DX2 analytically  !
 ! R17   R(9,18)                 1.0958         calculate D2E/DX2 analytically  !
 ! R18   R(9,19)                 1.0939         calculate D2E/DX2 analytically  !
 ! A1    A(2,1,3)              112.9514         calculate D2E/DX2 analytically  !
 ! A2    A(2,1,4)              112.1272         calculate D2E/DX2 analytically  !
 ! A3    A(2,1,5)              105.7613         calculate D2E/DX2 analytically  !
 ! A4    A(3,1,4)              113.0199         calculate D2E/DX2 analytically  !
 ! A5    A(3,1,5)              106.254          calculate D2E/DX2 analytically  !
 ! A6    A(4,1,5)              106.0106         calculate D2E/DX2 analytically  !
 ! A7    A(1,5,6)              119.4449         calculate D2E/DX2 analytically  !
 ! A8    A(1,5,8)              117.6017         calculate D2E/DX2 analytically  !
 ! A9    A(6,5,8)              112.308          calculate D2E/DX2 analytically  !
 ! A10   A(5,6,7)              109.8113         calculate D2E/DX2 analytically  !
 ! A11   A(5,6,10)             106.9275         calculate D2E/DX2 analytically  !
 ! A12   A(5,6,11)             106.022          calculate D2E/DX2 analytically  !
 ! A13   A(7,6,10)             112.8933         calculate D2E/DX2 analytically  !
 ! A14   A(7,6,11)             111.837          calculate D2E/DX2 analytically  !
 ! A15   A(10,6,11)            109.0078         calculate D2E/DX2 analytically  !
 ! A16   A(6,7,12)             108.5457         calculate D2E/DX2 analytically  !
 ! A17   A(6,7,13)             110.5157         calculate D2E/DX2 analytically  !
 ! A18   A(6,7,14)             111.9681         calculate D2E/DX2 analytically  !
 ! A19   A(12,7,13)            108.6163         calculate D2E/DX2 analytically  !
 ! A20   A(12,7,14)            108.0252         calculate D2E/DX2 analytically  !
 ! A21   A(13,7,14)            109.0802         calculate D2E/DX2 analytically  !
 ! A22   A(5,8,9)              112.134          calculate D2E/DX2 analytically  !
 ! A23   A(5,8,15)             106.9335         calculate D2E/DX2 analytically  !
 ! A24   A(5,8,16)             105.0774         calculate D2E/DX2 analytically  !
 ! A25   A(9,8,15)             112.4017         calculate D2E/DX2 analytically  !
 ! A26   A(9,8,16)             110.4959         calculate D2E/DX2 analytically  !
 ! A27   A(15,8,16)            109.4776         calculate D2E/DX2 analytically  !
 ! A28   A(8,9,17)             107.1913         calculate D2E/DX2 analytically  !
 ! A29   A(8,9,18)             110.9515         calculate D2E/DX2 analytically  !
 ! A30   A(8,9,19)             112.221          calculate D2E/DX2 analytically  !
 ! A31   A(17,9,18)            108.5973         calculate D2E/DX2 analytically  !
 ! A32   A(17,9,19)            108.3887         calculate D2E/DX2 analytically  !
 ! A33   A(18,9,19)            109.3737         calculate D2E/DX2 analytically  !
 ! D1    D(2,1,5,6)           -141.0554         calculate D2E/DX2 analytically  !
 ! D2    D(2,1,5,8)             77.0379         calculate D2E/DX2 analytically  !
 ! D3    D(3,1,5,6)             98.657          calculate D2E/DX2 analytically  !
 ! D4    D(3,1,5,8)            -43.2497         calculate D2E/DX2 analytically  !
 ! D5    D(4,1,5,6)            -21.8356         calculate D2E/DX2 analytically  !
 ! D6    D(4,1,5,8)           -163.7424         calculate D2E/DX2 analytically  !
 ! D7    D(1,5,6,7)            126.3462         calculate D2E/DX2 analytically  !
 ! D8    D(1,5,6,10)          -110.8437         calculate D2E/DX2 analytically  !
 ! D9    D(1,5,6,11)             5.3625         calculate D2E/DX2 analytically  !
 ! D10   D(8,5,6,7)            -89.8788         calculate D2E/DX2 analytically  !
 ! D11   D(8,5,6,10)            32.9312         calculate D2E/DX2 analytically  !
 ! D12   D(8,5,6,11)           149.1374         calculate D2E/DX2 analytically  !
 ! D13   D(1,5,8,9)            -57.6273         calculate D2E/DX2 analytically  !
 ! D14   D(1,5,8,15)            66.0079         calculate D2E/DX2 analytically  !
 ! D15   D(1,5,8,16)          -177.6968         calculate D2E/DX2 analytically  !
 ! D16   D(6,5,8,9)            157.8735         calculate D2E/DX2 analytically  !
 ! D17   D(6,5,8,15)           -78.4913         calculate D2E/DX2 analytically  !
 ! D18   D(6,5,8,16)            37.804          calculate D2E/DX2 analytically  !
 ! D19   D(5,6,7,12)           179.915          calculate D2E/DX2 analytically  !
 ! D20   D(5,6,7,13)           -61.069          calculate D2E/DX2 analytically  !
 ! D21   D(5,6,7,14)            60.7541         calculate D2E/DX2 analytically  !
 ! D22   D(10,6,7,12)           60.7015         calculate D2E/DX2 analytically  !
 ! D23   D(10,6,7,13)          179.7175         calculate D2E/DX2 analytically  !
 ! D24   D(10,6,7,14)          -58.4594         calculate D2E/DX2 analytically  !
 ! D25   D(11,6,7,12)          -62.6717         calculate D2E/DX2 analytically  !
 ! D26   D(11,6,7,13)           56.3443         calculate D2E/DX2 analytically  !
 ! D27   D(11,6,7,14)          178.1674         calculate D2E/DX2 analytically  !
 ! D28   D(5,8,9,17)          -173.4476         calculate D2E/DX2 analytically  !
 ! D29   D(5,8,9,18)           -55.028          calculate D2E/DX2 analytically  !
 ! D30   D(5,8,9,19)            67.6645         calculate D2E/DX2 analytically  !
 ! D31   D(15,8,9,17)           66.0374         calculate D2E/DX2 analytically  !
 ! D32   D(15,8,9,18)         -175.543          calculate D2E/DX2 analytically  !
 ! D33   D(15,8,9,19)          -52.8505         calculate D2E/DX2 analytically  !
 ! D34   D(16,8,9,17)          -56.5858         calculate D2E/DX2 analytically  !
 ! D35   D(16,8,9,18)           61.8338         calculate D2E/DX2 analytically  !
 ! D36   D(16,8,9,19)         -175.4737         calculate D2E/DX2 analytically  !
 --------------------------------------------------------------------------------
 Trust Radius=3.00D-01 FncErr=1.00D-07 GrdErr=1.00D-07 EigMax=2.50D+02 EigMin=1.00D-04
 Number of steps in this run=      2 maximum allowed number of steps=      2.
 GradGradGradGradGradGradGradGradGradGradGradGradGradGradGradGradGradGrad

                          Input orientation:                          
 ---------------------------------------------------------------------
 Center     Atomic      Atomic             Coordinates (Angstroms)
 Number     Number       Type             X           Y           Z
 ---------------------------------------------------------------------
      1          5           0       -1.768438    0.668580   -0.222408
      2          9           0       -1.551229    1.606823   -1.216424
      3          9           0       -2.114301    1.239840    0.995251
      4          9           0       -2.647502   -0.323453   -0.624446
      5          8           0       -0.361262   -0.055362    0.006494
      6          6           0       -0.325717   -1.502641    0.254288
      7          6           0        0.611501   -2.167214   -0.726697
      8          6           0        0.658321    0.667461    0.777715
      9          6           0        0.992177    2.005994    0.164870
     10          1           0       -0.018890   -1.640336    1.297197
     11          1           0       -1.350655   -1.853145    0.136685
     12          1           0        0.623452   -3.245386   -0.522411
     13          1           0        0.266067   -2.009698   -1.755102
     14          1           0        1.638240   -1.792300   -0.631838
     15          1           0        0.278087    0.759990    1.801660
     16          1           0        1.535468    0.014237    0.772068
     17          1           0        1.836835    2.419988    0.730234
     18          1           0        1.294416    1.893034   -0.882344
     19          1           0        0.156970    2.709568    0.227623
 ---------------------------------------------------------------------
                    Distance matrix (angstroms):
                    1          2          3          4          5
     1  B    0.000000
     2  F    1.384033   0.000000
     3  F    1.388759   2.311543   0.000000
     4  F    1.385107   2.297438   2.313354   0.000000
     5  O    1.598947   2.382102   2.393393   2.386809   0.000000
     6  C    2.650072   3.651526   3.356971   2.748334   1.468769
     7  C    3.736327   4.377280   4.690747   3.745799   2.437982
     8  C    2.624768   3.121074   2.839431   3.725109   1.468606
     9  C    3.091869   2.921682   3.305560   4.392791   2.471046
    10  H    3.271271   4.382966   3.574539   3.512334   2.072504
    11  H    2.581199   3.720552   3.299521   2.145015   2.056179
    12  H    4.596768   5.362353   5.469537   4.387168   3.380186
    13  H    3.696151   4.083131   4.877508   3.551153   2.704847
    14  H    4.222442   4.697711   5.091449   4.530469   2.724414
    15  H    2.879838   3.629374   2.569838   3.952077   2.072724
    16  H    3.511829   4.002266   3.856517   4.422842   2.046590
    17  H    4.119823   3.991202   4.132125   5.428711   3.388626
    18  H    3.363907   2.879448   3.946058   4.529685   2.706944
    19  H    2.841716   2.493845   2.812120   4.217856   2.821754
                    6          7          8          9         10
     6  C    0.000000
     7  C    1.510750   0.000000
     8  C    2.439601   3.209491   0.000000
     9  C    3.749048   4.284328   1.509539   0.000000
    10  H    1.095792   2.184293   2.460570   3.949702   0.000000
    11  H    1.089578   2.166592   3.286390   4.514711   1.779234
    12  H    2.131043   1.097421   4.123339   5.308984   2.509932
    13  H    2.155218   1.096245   3.706240   4.509913   3.087743
    14  H    2.173994   1.097156   2.999585   3.934359   2.547616
    15  H    2.806855   3.882302   1.096176   2.177506   2.470676
    16  H    2.456222   2.803344   1.093673   2.151965   2.330107
    17  H    4.504462   4.966539   2.112463   1.097485   4.500155
    18  H    3.930315   4.120220   2.159269   1.095794   4.354294
    19  H    4.239859   4.990023   2.173512   1.093858   4.482921
                   11         12         13         14         15
    11  H    0.000000
    12  H    2.503965   0.000000
    13  H    2.493423   1.781622   0.000000
    14  H    3.086717   1.775733   1.786573   0.000000
    15  H    3.500488   4.643664   4.507979   3.779698   0.000000
    16  H    3.495788   3.623892   3.477683   2.290216   1.788076
    17  H    5.363959   5.927722   5.316609   4.431484   2.516594
    18  H    4.697731   5.194527   4.129229   3.709806   3.085546
    19  H    4.806199   6.020103   5.120017   4.816602   2.508609
                   16         17         18         19
    16  H    0.000000
    17  H    2.424915   0.000000
    18  H    2.514968   1.781097   0.000000
    19  H    3.075953   1.777194   1.786768   0.000000
 Stoichiometry    C4H10BF3O
 Framework group  C1[X(C4H10BF3O)]
 Deg. of freedom    51
 Full point group                 C1      NOp   1
 Largest Abelian subgroup         C1      NOp   1
 Largest concise Abelian subgroup C1      NOp   1
                         Standard orientation:                         
 ---------------------------------------------------------------------
 Center     Atomic      Atomic             Coordinates (Angstroms)
 Number     Number       Type             X           Y           Z
 ---------------------------------------------------------------------
      1          5           0       -0.945135   -0.705869   -0.046117
      2          9           0       -1.575402   -0.262950   -1.195957
      3          9           0       -1.666251   -0.428436    1.107865
      4          9           0       -0.562286   -2.033736   -0.139484
      5          8           0        0.409363    0.137290    0.059003
      6          6           0        1.637417   -0.523722    0.519686
      7          6           0        2.743707   -0.307095   -0.486078
      8          6           0        0.312372    1.524639    0.530873
      9          6           0       -0.609739    2.354708   -0.329014
     10          1           0        1.871618   -0.109592    1.506807
     11          1           0        1.388623   -1.579021    0.627508
     12          1           0        3.649901   -0.807197   -0.121326
     13          1           0        2.471456   -0.739777   -1.455830
     14          1           0        2.973902    0.757229   -0.620148
     15          1           0       -0.015002    1.484173    1.576239
     16          1           0        1.333527    1.913357    0.483314
     17          1           0       -0.531025    3.392571    0.019004
     18          1           0       -0.305922    2.314910   -1.381096
     19          1           0       -1.653392    2.039295   -0.240526
 ---------------------------------------------------------------------
 Rotational constants (GHZ):           1.7511062           1.4165643           1.0065107
 Standard basis: Aug-CC-pVDZ (5D, 7F)
 There are   315 symmetry adapted cartesian basis functions of A   symmetry.
 There are   297 symmetry adapted basis functions of A   symmetry.
   297 basis functions,   497 primitive gaussians,   315 cartesian basis functions
    37 alpha electrons       37 beta electrons
       nuclear repulsion energy       523.8716984092 Hartrees.
 NAtoms=   19 NActive=   19 NUniq=   19 SFac= 1.00D+00 NAtFMM=   60 NAOKFM=F Big=F
 Integral buffers will be    131072 words long.
 Raffenetti 2 integral format.
 Two-electron integral symmetry is turned on.
 Nuclear repulsion after empirical dispersion term =      523.8596211046 Hartrees.
 Force inversion solution in PCM.
 Force PCM accuracy= 1.00D-12.
 ------------------------------------------------------------------------------
 Polarizable Continuum Model (PCM)
 =================================
 Model                : C-PCM.
 Atomic radii         : UFF (Universal Force Field).
 Polarization charges : Total charges.
 Charge compensation  : None.
 Solution method      : Matrix inversion.
 Cavity type          : Scaled VdW (van der Waals Surface) (Alpha=1.100).
 Cavity algorithm     : GePol (No added spheres)
                        Default sphere list used, NSphG=   19.
                        Lebedev-Laikov grids with approx.  5.0 points / Ang**2.
                        Smoothing algorithm: York/Karplus (Gamma=1.0000).
                        Polarization charges: spherical gaussians, with
                                              point-specific exponents (IZeta= 3).
                        Self-potential: point-specific (ISelfS= 7).
                        Self-field    : sphere-specific E.n sum rule (ISelfD= 2).
 1st derivatives      : Analytical E(r).r(x)/FMM algorithm (CHGder, D1EAlg=3).
                        Cavity 1st derivative terms included.
 2nd derivatives      : Analytical E(r).r(xy)/FMM algorithm (CHGder, D2EAlg=3).
                        Cavity 2nd derivative terms included.
 Solvent              : TetraHydroFuran, Eps=   7.425700 Eps(inf)=   1.974025
 ------------------------------------------------------------------------------
 Spheres list:
 ISph  on   Nord     Re0    Alpha      Xe            Ye            Ze
    1   B      1    2.0415  1.100     -0.945135     -0.705869     -0.046117
    2   F      2    1.6820  1.100     -1.575402     -0.262950     -1.195957
    3   F      3    1.6820  1.100     -1.666251     -0.428436      1.107865
    4   F      4    1.6820  1.100     -0.562286     -2.033736     -0.139484
    5   O      5    1.7500  1.100      0.409363      0.137290      0.059003
    6   C      6    1.9255  1.100      1.637417     -0.523722      0.519686
    7   C      7    1.9255  1.100      2.743707     -0.307095     -0.486078
    8   C      8    1.9255  1.100      0.312372      1.524639      0.530873
    9   C      9    1.9255  1.100     -0.609739      2.354708     -0.329014
   10   H     10    1.4430  1.100      1.871618     -0.109592      1.506807
   11   H     11    1.4430  1.100      1.388623     -1.579021      0.627508
   12   H     12    1.4430  1.100      3.649901     -0.807197     -0.121326
   13   H     13    1.4430  1.100      2.471456     -0.739777     -1.455830
   14   H     14    1.4430  1.100      2.973902      0.757229     -0.620148
   15   H     15    1.4430  1.100     -0.015002      1.484173      1.576239
   16   H     16    1.4430  1.100      1.333527      1.913357      0.483314
   17   H     17    1.4430  1.100     -0.531025      3.392571      0.019004
   18   H     18    1.4430  1.100     -0.305922      2.314910     -1.381096
   19   H     19    1.4430  1.100     -1.653392      2.039295     -0.240526
 ------------------------------------------------------------------------------
 One-electron integrals computed using PRISM.
 NBasis=   297 RedAO= T EigKep=  2.72D-05  NBF=   297
 NBsUse=   297 1.00D-06 EigRej= -1.00D+00 NBFU=   297
 Initial guess from the checkpoint file:  "/inspire/hdd/project/materialscienceresearch/lipenghui-253107030018/g16/00-B-DFT-Shift/04-output/BF3OEt2_THF/BF3OEt2_THF.chk"
 B after Tr=    -0.000000   -0.000000   -0.000000
         Rot=    1.000000   -0.000000   -0.000000    0.000000 Ang=   0.00 deg.
 Requested convergence on RMS density matrix=1.00D-08 within 128 cycles.
 Requested convergence on MAX density matrix=1.00D-06.
 Requested convergence on             energy=1.00D-06.
 No special actions if energy rises.
 Inv3:  Mode=1 IEnd=     7004352.
 Iteration    1 A*A^-1 deviation from unit magnitude is 3.00D-15 for   1523.
 Iteration    1 A*A^-1 deviation from orthogonality  is 2.98D-15 for   1523    806.
 Iteration    1 A^-1*A deviation from unit magnitude is 3.00D-15 for   1523.
 Iteration    1 A^-1*A deviation from orthogonality  is 1.18D-15 for   1490    712.
 Error on total polarization charges =  0.00990
 SCF Done:  E(RwB97XD) =  -558.150338848     A.U. after    1 cycles
            NFock=  1  Conv=0.27D-08     -V/T= 2.0060
 DoSCS=F DFT=T ScalE2(SS,OS)=  1.000000  1.000000
 Range of M.O.s used for correlation:     1   297
 NBasis=   297 NAE=    37 NBE=    37 NFC=     0 NFV=     0
 NROrb=    297 NOA=    37 NOB=    37 NVA=   260 NVB=   260

 **** Warning!!: The largest alpha MO coefficient is  0.28397426D+02

 NEqPCM:  Using equilibrium solvation (IEInf=0, Eps=   7.4257, EpsInf=   1.9740)
          Differentiating once with respect to magnetic field using GIAOs.
          Electric field/nuclear overlap derivatives assumed to be zero.
 FoFJK:  IHMeth= 1 ICntrl=    6127 DoSepK=T KAlg= 0 I1Cent=           0 FoldK=F
 IRaf=         1 NMat=       1 IRICut=       1 DoRegI=T DoRafI=F ISym2E= 0 IDoP0=0 IntGTp=1.
          There are     3 degrees of freedom in the 1st order CPHF.  IDoFFX=0 NUNeed=     3.
      3 vectors produced by pass  0 Test12= 3.21D-13 3.33D-08 XBig12= 1.51D+01 6.38D-01.
 AX will form     3 AO Fock derivatives at one time.
      3 vectors produced by pass  1 Test12= 3.21D-13 3.33D-08 XBig12= 1.14D-01 4.44D-02.
      3 vectors produced by pass  2 Test12= 3.21D-13 3.33D-08 XBig12= 7.67D-04 4.37D-03.
      3 vectors produced by pass  3 Test12= 3.21D-13 3.33D-08 XBig12= 5.68D-06 3.81D-04.
      3 vectors produced by pass  4 Test12= 3.21D-13 3.33D-08 XBig12= 5.11D-08 5.25D-05.
      3 vectors produced by pass  5 Test12= 3.21D-13 3.33D-08 XBig12= 5.03D-10 5.22D-06.
      3 vectors produced by pass  6 Test12= 3.21D-13 3.33D-08 XBig12= 3.79D-12 3.89D-07.
 InvSVY:  IOpt=1 It=  1 EMax= 8.88D-16
 Solved reduced A of dimension    21 with     3 vectors.
 Calculating GIAO nuclear magnetic shielding tensors.
 SCF GIAO Magnetic shielding tensor (ppm):
      1  B    Isotropic =   111.4666   Anisotropy =     8.0496
   XX=   105.5625   YX=    -5.3846   ZX=    -1.0317
   XY=    -5.3152   YY=   112.8613   ZY=    -1.2691
   XZ=     0.0150   YZ=    -1.3993   ZZ=   115.9761
   Eigenvalues:   102.6490   114.9179   116.8330
      2  F    Isotropic =   339.8475   Anisotropy =    51.6353
   XX=   341.7620   YX=     8.9348   ZX=    25.6718
   XY=     4.9319   YY=   324.2839   ZY=   -12.7411
   XZ=    24.8140   YZ=   -13.1166   ZZ=   353.4965
   Eigenvalues:   309.2272   336.0443   374.2710
      3  F    Isotropic =   355.7598   Anisotropy =    50.9749
   XX=   353.2792   YX=     2.4308   ZX=   -13.3689
   XY=     2.1536   YY=   334.9065   ZY=     4.1547
   XZ=   -25.7345   YZ=     4.3260   ZZ=   379.0937
   Eigenvalues:   333.1023   344.4341   389.7431
      4  F    Isotropic =   347.7673   Anisotropy =    41.3329
   XX=   347.5203   YX=    -7.8287   ZX=     1.2186
   XY=    -3.5746   YY=   372.5189   ZY=     6.3538
   XZ=    -2.5943   YZ=    11.8093   ZZ=   323.2626
   Eigenvalues:   321.6374   346.3419   375.3226
      5  O    Isotropic =   264.9144   Anisotropy =    43.1110
   XX=   289.7669   YX=     9.9076   ZX=    12.6314
   XY=    -9.4704   YY=   267.8444   ZY=    -1.6173
   XZ=    17.0005   YZ=     2.5638   ZZ=   237.1320
   Eigenvalues:   233.2434   267.8448   293.6551
      6  C    Isotropic =   123.5024   Anisotropy =    91.4750
   XX=   154.9674   YX=   -39.9537   ZX=    24.1273
   XY=   -32.4846   YY=   109.6644   ZY=   -19.5461
   XZ=    19.2395   YZ=   -14.5193   ZZ=   105.8753
   Eigenvalues:    87.6249    98.3965   184.4857
      7  C    Isotropic =   182.1303   Anisotropy =    20.0841
   XX=   191.6263   YX=    -6.5066   ZX=    -3.7775
   XY=    -2.3020   YY=   168.4855   ZY=    -7.2968
   XZ=    -8.1968   YZ=    -4.5233   ZZ=   186.2791
   Eigenvalues:   165.3114   185.5598   195.5197
      8  C    Isotropic =   123.0869   Anisotropy =    82.7269
   XX=    93.3648   YX=   -12.6361   ZX=    20.8920
   XY=   -10.0921   YY=   169.5595   ZY=    25.7952
   XZ=    16.5381   YZ=    23.2651   ZZ=   106.3365
   Eigenvalues:    74.0236   116.9990   178.2382
      9  C    Isotropic =   180.0341   Anisotropy =    17.9145
   XX=   173.5684   YX=    -8.1941   ZX=     7.8052
   XY=    -5.8487   YY=   187.3116   ZY=     0.0035
   XZ=     6.9654   YZ=    -3.1926   ZZ=   179.2224
   Eigenvalues:   167.1981   180.9272   191.9771
     10  H    Isotropic =    27.8705   Anisotropy =     7.3882
   XX=    29.2865   YX=    -1.1701   ZX=     3.1516
   XY=    -2.7970   YY=    23.8924   ZY=    -1.9684
   XZ=     1.7098   YZ=     0.1156   ZZ=    30.4325
   Eigenvalues:    23.2391    27.5764    32.7959
     11  H    Isotropic =    26.5922   Anisotropy =     5.4831
   XX=    29.5512   YX=    -1.7162   ZX=     1.1111
   XY=     0.4871   YY=    28.0426   ZY=    -2.1158
   XZ=     0.6611   YZ=    -3.1134   ZZ=    22.1829
   Eigenvalues:    21.1413    28.3878    30.2476
     12  H    Isotropic =    30.4111   Anisotropy =    11.3398
   XX=    36.4125   YX=    -3.8281   ZX=     1.0202
   XY=    -3.6822   YY=    27.9116   ZY=    -0.7333
   XZ=     1.0318   YZ=    -0.8040   ZZ=    26.9092
   Eigenvalues:    26.2506    27.0117    37.9709
     13  H    Isotropic =    30.1655   Anisotropy =     7.8210
   XX=    29.0277   YX=     0.2317   ZX=    -1.7341
   XY=    -0.0267   YY=    27.6124   ZY=     2.8243
   XZ=    -0.6891   YZ=     3.5497   ZZ=    33.8565
   Eigenvalues:    26.1571    28.9600    35.3795
     14  H    Isotropic =    29.9955   Anisotropy =     7.0250
   XX=    30.6044   YX=     2.5979   ZX=    -2.2981
   XY=     1.7980   YY=    32.7208   ZY=    -0.5189
   XZ=    -2.1926   YZ=    -1.6354   ZZ=    26.6612
   Eigenvalues:    25.6438    29.6638    34.6788
     15  H    Isotropic =    27.2329   Anisotropy =     6.7269
   XX=    23.7297   YX=    -0.5102   ZX=     0.8947
   XY=    -0.7116   YY=    28.2340   ZY=     3.7755
   XZ=    -0.3239   YZ=     1.4752   ZZ=    29.7349
   Eigenvalues:    23.5655    26.4157    31.7175
     16  H    Isotropic =    27.4874   Anisotropy =     6.0877
   XX=    28.7374   YX=    -0.5192   ZX=     1.0823
   XY=     1.7186   YY=    31.0250   ZY=     1.0827
   XZ=     2.3111   YZ=     1.6986   ZZ=    22.7000
   Eigenvalues:    22.0941    28.8223    31.5459
     17  H    Isotropic =    30.3578   Anisotropy =    11.1310
   XX=    27.0232   YX=    -1.3659   ZX=     0.3515
   XY=    -0.9736   YY=    37.5068   ZY=     1.3289
   XZ=     0.3089   YZ=     1.2891   ZZ=    26.5433
   Eigenvalues:    26.1179    27.1771    37.7784
     18  H    Isotropic =    30.1375   Anisotropy =     7.3510
   XX=    27.2745   YX=    -0.4168   ZX=    -0.0363
   XY=    -0.3387   YY=    29.0600   ZY=    -2.5941
   XZ=    -1.2309   YZ=    -2.1213   ZZ=    34.0780
   Eigenvalues:    26.9571    28.4173    35.0381
     19  H    Isotropic =    29.7279   Anisotropy =     5.9327
   XX=    33.6348   YX=     0.1698   ZX=     0.1036
   XY=    -0.5780   YY=    30.2048   ZY=    -0.7866
   XZ=     0.9100   YZ=    -0.5394   ZZ=    25.3442
   Eigenvalues:    25.2284    30.2723    33.6830
 End of Minotr F.D. properties file   721 does not exist.
 End of Minotr F.D. properties file   722 does not exist.
 End of Minotr F.D. properties file   788 does not exist.
 Symmetrizing basis deriv contribution to polar:
 IMax=3 JMax=2 DiffMx= 0.00D+00
 G2DrvN: will do    20 centers at a time, making    1 passes.
 Calling FoFCou, ICntrl=  3107 FMM=F I1Cent=   0 AccDes= 1.00D-12.
 NEqPCM:  Using equilibrium solvation (IEInf=0, Eps=   7.4257, EpsInf=   1.9740)
 G2PCM: DoFxE=T DoFxN=T DoGrad=T DoDP/DQ/DG/TGxP=FFFF NFrqRd=   0 IEInf=0 SqF1=F DoCFld=F IF1Alg=4.
 End of G2Drv F.D. properties file   721 does not exist.
 End of G2Drv F.D. properties file   722 does not exist.
 End of G2Drv F.D. properties file   788 does not exist.
          IDoAtm=1111111111111111111
 NEqPCM:  Using equilibrium solvation (IEInf=0, Eps=   7.4257, EpsInf=   1.9740)
          Differentiating once with respect to electric field.
                with respect to dipole field.
          Differentiating once with respect to nuclear coordinates.
 Keep R1 ints in memory in canonical form, NReq=1994496423.
          There are    60 degrees of freedom in the 1st order CPHF.  IDoFFX=5 NUNeed=    60.
     57 vectors produced by pass  0 Test12= 1.60D-14 1.67D-09 XBig12= 2.31D+01 9.13D-01.
 AX will form    57 AO Fock derivatives at one time.
     57 vectors produced by pass  1 Test12= 1.60D-14 1.67D-09 XBig12= 1.64D+00 1.71D-01.
     57 vectors produced by pass  2 Test12= 1.60D-14 1.67D-09 XBig12= 6.83D-02 2.18D-02.
     57 vectors produced by pass  3 Test12= 1.60D-14 1.67D-09 XBig12= 6.61D-04 2.51D-03.
     57 vectors produced by pass  4 Test12= 1.60D-14 1.67D-09 XBig12= 5.46D-06 2.19D-04.
     57 vectors produced by pass  5 Test12= 1.60D-14 1.67D-09 XBig12= 3.03D-08 1.53D-05.
     46 vectors produced by pass  6 Test12= 1.60D-14 1.67D-09 XBig12= 1.64D-10 1.04D-06.
      7 vectors produced by pass  7 Test12= 1.60D-14 1.67D-09 XBig12= 8.46D-13 7.91D-08.
      3 vectors produced by pass  8 Test12= 1.60D-14 1.67D-09 XBig12= 3.89D-15 5.96D-09.
 InvSVY:  IOpt=1 It=  1 EMax= 6.22D-15
 Solved reduced A of dimension   398 with    60 vectors.
 Isotropic polarizability for W=    0.000000       85.89 Bohr**3.
 Dipole-magnetic dipole polarizability for W=    0.000000:
                 1             2             3 
      1  -0.306260D+01  0.280581D+01 -0.298416D+02
      2  -0.511758D+01  0.181135D+01  0.384575D+02
      3   0.311268D+02 -0.412184D+02  0.175264D+01
 DQ contribution to OR G for W=    0.000000:
                 1             2             3 
      1  -0.342149D+01 -0.191031D+01 -0.971598D+02
      2   0.208388D+01  0.256564D+00  0.127652D+03
      3   0.107943D+03 -0.137478D+03  0.316492D+01
 Optical Rotation G' tensor for W=    0.000000:
                 1             2             3 
      1   0.926625D+00  0.599637D+00  0.102657D+01
      2   0.599637D+00 -0.590839D+00 -0.538002D+00
      3   0.102657D+01 -0.538002D+00  0.165604D+00
 OR G Eigenvalues:    -1.3600     0.2031     1.6583  Iso=    -0.1671
 Eigenvectors:
   (1)  -0.432869   0.718361   0.544594
   (2)   0.337862   0.689375  -0.640789
   (3)   0.835747   0.093380   0.541116
 w=    0.000000 a.u., Optical Rotation Beta=     -0.1671 au.
 Molar Mass =    141.9276 grams/mole, [Alpha]D (static) =      -45.52 deg.
 AAT (total):
 -0.0382 -0.0408  0.9688
  0.0813  0.0199 -1.1880
 -0.8377  1.0476  0.0157
  0.0738  0.2764 -0.1695
 -0.4967  0.0853  0.6164
  0.2474 -0.6628 -0.1775
 -0.0716 -0.2422 -0.2031
  0.4182 -0.0691  0.5780
  0.2799 -0.7072  0.1566
  0.0450  0.0401 -0.8561
 -0.0429 -0.0240  0.4619
  0.5996 -0.1536 -0.0146
 -0.1108 -0.0957 -0.0275
  0.0803  0.1387 -0.2598
  0.0711 -0.0250 -0.0292
  0.1168  0.1039 -0.1106
  0.0585 -0.0863  0.0891
  0.0321 -0.1588 -0.0132
  0.0094  0.0551  0.0684
 -0.0687 -0.0806 -0.0244
  0.0166  0.1893  0.0572
  0.0200 -0.0326 -0.1889
 -0.0930 -0.1016  0.2431
  0.0917 -0.0401  0.0660
 -0.0635  0.0527  0.1126
 -0.0864 -0.0028  0.0802
 -0.1409 -0.0871  0.0809
 -0.0514  0.0434  0.0051
 -0.0483  0.1252  0.0456
  0.1173  0.0225 -0.0391
  0.0299 -0.0309  0.0966
  0.0054 -0.0298  0.0248
 -0.1374 -0.0385 -0.0168
  0.0240  0.1400  0.1747
 -0.0644 -0.0812  0.1975
 -0.0696 -0.1676  0.0540
 -0.0152 -0.0767  0.0141
  0.1164  0.1224 -0.0047
 -0.0797  0.2060 -0.0939
 -0.0291 -0.0533 -0.2044
 -0.0624 -0.0166 -0.1955
  0.1268 -0.0910  0.0373
  0.0505  0.1270 -0.0345
  0.0285 -0.0378 -0.0357
 -0.0943  0.1189 -0.0134
  0.0030 -0.1025  0.0263
  0.0013  0.0319  0.0563
  0.1048 -0.0777 -0.0558
 -0.0369  0.0375 -0.2334
 -0.1579 -0.0151  0.0771
  0.1984  0.0014  0.0551
  0.0591 -0.1118 -0.0267
  0.1517  0.0018  0.0004
 -0.1558 -0.1231 -0.0458
 -0.0145  0.0660  0.1944
  0.0265  0.0224 -0.1380
  0.0248  0.1268 -0.0215
 End of Minotr F.D. properties file   721 does not exist.
 End of Minotr F.D. properties file   722 does not exist.
 End of Minotr F.D. properties file   788 does not exist.

 **********************************************************************

            Population analysis using the SCF Density.

 **********************************************************************

 Orbital symmetries:
       Occupied  (A) (A) (A) (A) (A) (A) (A) (A) (A) (A) (A) (A)
                 (A) (A) (A) (A) (A) (A) (A) (A) (A) (A) (A) (A)
                 (A) (A) (A) (A) (A) (A) (A) (A) (A) (A) (A) (A)
                 (A)
       Virtual   (A) (A) (A) (A) (A) (A) (A) (A) (A) (A) (A) (A)
                 (A) (A) (A) (A) (A) (A) (A) (A) (A) (A) (A) (A)
                 (A) (A) (A) (A) (A) (A) (A) (A) (A) (A) (A) (A)
                 (A) (A) (A) (A) (A) (A) (A) (A) (A) (A) (A) (A)
                 (A) (A) (A) (A) (A) (A) (A) (A) (A) (A) (A) (A)
                 (A) (A) (A) (A) (A) (A) (A) (A) (A) (A) (A) (A)
                 (A) (A) (A) (A) (A) (A) (A) (A) (A) (A) (A) (A)
                 (A) (A) (A) (A) (A) (A) (A) (A) (A) (A) (A) (A)
                 (A) (A) (A) (A) (A) (A) (A) (A) (A) (A) (A) (A)
                 (A) (A) (A) (A) (A) (A) (A) (A) (A) (A) (A) (A)
                 (A) (A) (A) (A) (A) (A) (A) (A) (A) (A) (A) (A)
                 (A) (A) (A) (A) (A) (A) (A) (A) (A) (A) (A) (A)
                 (A) (A) (A) (A) (A) (A) (A) (A) (A) (A) (A) (A)
                 (A) (A) (A) (A) (A) (A) (A) (A) (A) (A) (A) (A)
                 (A) (A) (A) (A) (A) (A) (A) (A) (A) (A) (A) (A)
                 (A) (A) (A) (A) (A) (A) (A) (A) (A) (A) (A) (A)
                 (A) (A) (A) (A) (A) (A) (A) (A) (A) (A) (A) (A)
                 (A) (A) (A) (A) (A) (A) (A) (A) (A) (A) (A) (A)
                 (A) (A) (A) (A) (A) (A) (A) (A) (A) (A) (A) (A)
                 (A) (A) (A) (A) (A) (A) (A) (A) (A) (A) (A) (A)
                 (A) (A) (A) (A) (A) (A) (A) (A) (A) (A) (A) (A)
                 (A) (A) (A) (A) (A) (A) (A) (A)
 The electronic state is 1-A.
 Alpha  occ. eigenvalues --  -24.81230 -24.80945 -24.80657 -19.36046 -10.37610
 Alpha  occ. eigenvalues --  -10.37339 -10.30404 -10.30091  -6.99495  -1.31854
 Alpha  occ. eigenvalues --   -1.27542  -1.27188  -1.20739  -0.90349  -0.86424
 Alpha  occ. eigenvalues --   -0.75700  -0.74640  -0.67241  -0.63874  -0.62266
 Alpha  occ. eigenvalues --   -0.60877  -0.59117  -0.57906  -0.55388  -0.52682
 Alpha  occ. eigenvalues --   -0.51613  -0.51199  -0.50769  -0.48820  -0.48611
 Alpha  occ. eigenvalues --   -0.48474  -0.47370  -0.46670  -0.46340  -0.45383
 Alpha  occ. eigenvalues --   -0.44288  -0.41208
 Alpha virt. eigenvalues --    0.03734   0.04779   0.04924   0.04997   0.06822
 Alpha virt. eigenvalues --    0.06975   0.07142   0.07186   0.07615   0.09260
 Alpha virt. eigenvalues --    0.09505   0.09841   0.10941   0.11866   0.12784
 Alpha virt. eigenvalues --    0.13879   0.14450   0.14826   0.15026   0.15591
 Alpha virt. eigenvalues --    0.16390   0.17263   0.17500   0.18038   0.18398
 Alpha virt. eigenvalues --    0.18895   0.19497   0.19678   0.20399   0.20752
 Alpha virt. eigenvalues --    0.22711   0.22809   0.23547   0.24257   0.24779
 Alpha virt. eigenvalues --    0.25202   0.25861   0.26968   0.27757   0.28112
 Alpha virt. eigenvalues --    0.28843   0.29563   0.29870   0.31237   0.31726
 Alpha virt. eigenvalues --    0.32070   0.32753   0.33492   0.34191   0.35350
 Alpha virt. eigenvalues --    0.36392   0.36823   0.37597   0.38659   0.39048
 Alpha virt. eigenvalues --    0.39652   0.40490   0.40818   0.41284   0.41553
 Alpha virt. eigenvalues --    0.42314   0.42711   0.43147   0.43467   0.43945
 Alpha virt. eigenvalues --    0.44888   0.45653   0.46143   0.47401   0.47805
 Alpha virt. eigenvalues --    0.49712   0.50150   0.51036   0.51122   0.52271
 Alpha virt. eigenvalues --    0.53090   0.53469   0.53990   0.55012   0.55463
 Alpha virt. eigenvalues --    0.55621   0.56681   0.57037   0.58365   0.59301
 Alpha virt. eigenvalues --    0.59629   0.60278   0.61040   0.62140   0.63473
 Alpha virt. eigenvalues --    0.64197   0.64685   0.64978   0.65951   0.67039
 Alpha virt. eigenvalues --    0.67903   0.69890   0.70471   0.71342   0.71380
 Alpha virt. eigenvalues --    0.72479   0.72979   0.73946   0.74371   0.75738
 Alpha virt. eigenvalues --    0.76320   0.76764   0.78528   0.79030   0.79495
 Alpha virt. eigenvalues --    0.80575   0.81940   0.82675   0.83252   0.83707
 Alpha virt. eigenvalues --    0.86440   0.87450   0.88113   0.89049   0.91200
 Alpha virt. eigenvalues --    0.92341   0.93878   0.96184   0.97420   0.98632
 Alpha virt. eigenvalues --    1.00069   1.00752   1.04109   1.04857   1.06425
 Alpha virt. eigenvalues --    1.08286   1.09480   1.10650   1.12393   1.14501
 Alpha virt. eigenvalues --    1.15577   1.18101   1.21307   1.22238   1.25164
 Alpha virt. eigenvalues --    1.27082   1.30164   1.32051   1.33662   1.34971
 Alpha virt. eigenvalues --    1.35916   1.38726   1.39086   1.42210   1.42335
 Alpha virt. eigenvalues --    1.43684   1.45049   1.46667   1.47824   1.49447
 Alpha virt. eigenvalues --    1.49988   1.51862   1.53733   1.55269   1.58005
 Alpha virt. eigenvalues --    1.60025   1.61756   1.62067   1.63523   1.65963
 Alpha virt. eigenvalues --    1.66779   1.67732   1.69302   1.69678   1.71209
 Alpha virt. eigenvalues --    1.73505   1.74712   1.74825   1.76697   1.77651
 Alpha virt. eigenvalues --    1.78357   1.80154   1.81729   1.82453   1.83500
 Alpha virt. eigenvalues --    1.85729   1.87514   1.88305   1.90731   1.92297
 Alpha virt. eigenvalues --    1.93547   1.95877   1.97114   1.98433   1.99827
 Alpha virt. eigenvalues --    2.01716   2.02571   2.03622   2.05525   2.07274
 Alpha virt. eigenvalues --    2.07534   2.09579   2.10397   2.11651   2.12514
 Alpha virt. eigenvalues --    2.15240   2.16947   2.20052   2.23539   2.26252
 Alpha virt. eigenvalues --    2.28685   2.30501   2.32047   2.33490   2.35434
 Alpha virt. eigenvalues --    2.37950   2.39455   2.40762   2.41308   2.47087
 Alpha virt. eigenvalues --    2.47336   2.48839   2.52253   2.54996   2.55773
 Alpha virt. eigenvalues --    2.58498   2.61288   2.63866   2.65214   2.67880
 Alpha virt. eigenvalues --    2.72202   2.73154   2.75950   2.82764   2.84384
 Alpha virt. eigenvalues --    2.86376   2.88528   2.94001   2.99126   3.07060
 Alpha virt. eigenvalues --    3.07888   3.15869   3.20500   3.36328   3.62901
 Alpha virt. eigenvalues --    3.67447   3.70138   3.73985   3.89904   3.97720
 Alpha virt. eigenvalues --    4.61683   4.63998   4.66191   4.66508   4.68428
 Alpha virt. eigenvalues --    4.70564   4.72782   4.74690   4.75437   4.79496
 Alpha virt. eigenvalues --    4.81455   4.83982   4.86658   4.92506   4.94546
          Condensed to atoms (all electrons):
               1          2          3          4          5          6
     1  B    3.544504  -0.023882   0.065644   0.135186  -0.348501  -0.094057
     2  F   -0.023882   9.605575  -0.107080  -0.176477   0.294010   0.022269
     3  F    0.065644  -0.107080   9.732128  -0.145465   0.021243  -0.058104
     4  F    0.135186  -0.176477  -0.145465  10.000872  -0.151159  -0.098655
     5  O   -0.348501   0.294010   0.021243  -0.151159  10.078075   0.105589
     6  C   -0.094057   0.022269  -0.058104  -0.098655   0.105589   5.001818
     7  C   -0.026940   0.016965   0.001316   0.001689  -0.025384   0.233441
     8  C    0.042761  -0.112573   0.031720   0.019289  -0.098508  -0.053497
     9  C    0.002323   0.016966  -0.035127   0.019132  -0.070679  -0.081546
    10  H    0.037026  -0.005794  -0.001784  -0.002106  -0.141600   0.000835
    11  H    0.023217   0.020905   0.003343  -0.088098  -0.316012   0.175148
    12  H    0.004456   0.001836   0.000558  -0.001687   0.132746   0.099690
    13  H    0.010288  -0.000894  -0.000318  -0.000794  -0.094786  -0.070246
    14  H   -0.016302   0.001709  -0.001028  -0.006842  -0.183105  -0.084216
    15  H    0.045261   0.007746   0.033065   0.016052  -0.057666   0.010411
    16  H    0.009718  -0.007490  -0.001892  -0.000776  -0.168083  -0.103304
    17  H    0.005764   0.001971   0.002408   0.000083   0.062605   0.002802
    18  H    0.016617   0.007045  -0.002078   0.006937  -0.111053  -0.044167
    19  H    0.045520  -0.027855   0.033645   0.010732  -0.120742  -0.017449
               7          8          9         10         11         12
     1  B   -0.026940   0.042761   0.002323   0.037026   0.023217   0.004456
     2  F    0.016965  -0.112573   0.016966  -0.005794   0.020905   0.001836
     3  F    0.001316   0.031720  -0.035127  -0.001784   0.003343   0.000558
     4  F    0.001689   0.019289   0.019132  -0.002106  -0.088098  -0.001687
     5  O   -0.025384  -0.098508  -0.070679  -0.141600  -0.316012   0.132746
     6  C    0.233441  -0.053497  -0.081546   0.000835   0.175148   0.099690
     7  C    4.468065  -0.026917   0.013696  -0.101474  -0.064597   0.264674
     8  C   -0.026917   5.040429   0.184615   0.028993  -0.026312  -0.029373
     9  C    0.013696   0.184615   4.659044   0.076494  -0.034747  -0.000155
    10  H   -0.101474   0.028993   0.076494   1.671273  -0.366183  -0.111787
    11  H   -0.064597  -0.026312  -0.034747  -0.366183   2.208134  -0.085832
    12  H    0.264674  -0.029373  -0.000155  -0.111787  -0.085832   1.410221
    13  H    0.306045   0.028316   0.012633   0.118144  -0.126172  -0.259590
    14  H    0.362114   0.007814  -0.024425  -0.077251   0.137806  -0.275127
    15  H    0.004862  -0.166494  -0.096255  -0.027441  -0.012189  -0.001699
    16  H    0.031828  -0.002368  -0.068352   0.031641   0.006849  -0.000031
    17  H   -0.001756   0.106253   0.229635  -0.003853   0.000167  -0.000240
    18  H    0.008827  -0.117292   0.387282   0.007594  -0.011011  -0.000826
    19  H   -0.000149   0.011393   0.275715   0.007838  -0.001243  -0.000458
              13         14         15         16         17         18
     1  B    0.010288  -0.016302   0.045261   0.009718   0.005764   0.016617
     2  F   -0.000894   0.001709   0.007746  -0.007490   0.001971   0.007045
     3  F   -0.000318  -0.001028   0.033065  -0.001892   0.002408  -0.002078
     4  F   -0.000794  -0.006842   0.016052  -0.000776   0.000083   0.006937
     5  O   -0.094786  -0.183105  -0.057666  -0.168083   0.062605  -0.111053
     6  C   -0.070246  -0.084216   0.010411  -0.103304   0.002802  -0.044167
     7  C    0.306045   0.362114   0.004862   0.031828  -0.001756   0.008827
     8  C    0.028316   0.007814  -0.166494  -0.002368   0.106253  -0.117292
     9  C    0.012633  -0.024425  -0.096255  -0.068352   0.229635   0.387282
    10  H    0.118144  -0.077251  -0.027441   0.031641  -0.003853   0.007594
    11  H   -0.126172   0.137806  -0.012189   0.006849   0.000167  -0.011011
    12  H   -0.259590  -0.275127  -0.001699  -0.000031  -0.000240  -0.000826
    13  H    1.417005  -0.200149   0.001081  -0.009642  -0.000564   0.007500
    14  H   -0.200149   1.530397  -0.001005   0.039408   0.001216  -0.007913
    15  H    0.001081  -0.001005   2.100156  -0.388443  -0.098152   0.140394
    16  H   -0.009642   0.039408  -0.388443   2.204533  -0.071173  -0.150571
    17  H   -0.000564   0.001216  -0.098152  -0.071173   1.411449  -0.246861
    18  H    0.007500  -0.007913   0.140394  -0.150571  -0.246861   1.530229
    19  H    0.000298   0.000390  -0.128083   0.109886  -0.262404  -0.290941
              19
     1  B    0.045520
     2  F   -0.027855
     3  F    0.033645
     4  F    0.010732
     5  O   -0.120742
     6  C   -0.017449
     7  C   -0.000149
     8  C    0.011393
     9  C    0.275715
    10  H    0.007838
    11  H   -0.001243
    12  H   -0.000458
    13  H    0.000298
    14  H    0.000390
    15  H   -0.128083
    16  H    0.109886
    17  H   -0.262404
    18  H   -0.290941
    19  H    1.490535
 Mulliken charges:
               1
     1  B    1.521398
     2  F   -0.534952
     3  F   -0.572194
     4  F   -0.537915
     5  O   -0.806988
     6  C    1.053239
     7  C    0.533696
     8  C    1.131752
     9  C    0.533753
    10  H   -0.140564
    11  H   -0.443173
    12  H   -0.147377
    13  H   -0.138155
    14  H   -0.203489
    15  H   -0.381602
    16  H   -0.461739
    17  H   -0.139350
    18  H   -0.129712
    19  H   -0.136628
 Sum of Mulliken charges =  -0.00000
 Mulliken charges with hydrogens summed into heavy atoms:
               1
     1  B    1.521398
     2  F   -0.534952
     3  F   -0.572194
     4  F   -0.537915
     5  O   -0.806988
     6  C    0.469502
     7  C    0.044675
     8  C    0.288411
     9  C    0.128063
 APT charges:
               1
     1  B    2.188481
     2  F   -0.774442
     3  F   -0.773783
     4  F   -0.777572
     5  O   -1.139904
     6  C    0.600040
     7  C   -0.001358
     8  C    0.614795
     9  C    0.000316
    10  H   -0.018176
    11  H    0.040406
    12  H    0.012851
    13  H    0.003975
    14  H    0.001173
    15  H   -0.016536
    16  H   -0.005259
    17  H    0.011163
    18  H    0.007805
    19  H    0.026024
 Sum of APT charges =  -0.00000
 APT charges with hydrogens summed into heavy atoms:
               1
     1  B    2.188481
     2  F   -0.774442
     3  F   -0.773783
     4  F   -0.777572
     5  O   -1.139904
     6  C    0.622270
     7  C    0.016641
     8  C    0.593000
     9  C    0.045308
 Electronic spatial extent (au):  <R**2>=           1263.1569
 Charge=              0.0000 electrons
 Dipole moment (field-independent basis, Debye):
    X=              6.3535    Y=              4.0784    Z=              1.5584  Tot=              7.7090
 Quadrupole moment (field-independent basis, Debye-Ang):
   XX=            -52.0774   YY=            -51.2781   ZZ=            -54.9841
   XY=             -3.2679   XZ=              1.1556   YZ=              0.5137
 Traceless Quadrupole moment (field-independent basis, Debye-Ang):
   XX=              0.7024   YY=              1.5018   ZZ=             -2.2042
   XY=             -3.2679   XZ=              1.1556   YZ=              0.5137
 Octapole moment (field-independent basis, Debye-Ang**2):
  XXX=              7.4675  YYY=              8.7243  ZZZ=              1.8523  XYY=             -0.3025
  XXY=             -4.8487  XXZ=              1.4350  XZZ=              2.9483  YZZ=             -2.0545
  YYZ=              2.7166  XYZ=             -0.6156
 Hexadecapole moment (field-independent basis, Debye-Ang**3):
 XXXX=           -718.1654 YYYY=           -571.4938 ZZZZ=           -200.2229 XXXY=              0.0482
 XXXZ=              7.6041 YYYX=              4.5931 YYYZ=              2.8881 ZZZX=              1.7762
 ZZZY=              3.2298 XXYY=           -214.1814 XXZZ=           -167.5153 YYZZ=           -129.3768
 XXYZ=              0.0781 YYXZ=              1.4947 ZZXY=              0.4219
 N-N= 5.238596211046D+02 E-N=-2.364241204304D+03  KE= 5.548016392287D+02
  Exact polarizability:      88.946      -3.897      87.981       0.416      -0.260      80.739
 Approx polarizability:      72.893      -1.580      73.666       0.685       0.360      70.522
 D2PCM: C-PCM CHGder 2nd derivatives, FixD1E=F FixD2E=F DoIter=F DoCFld=F I1PDM=0
 Calling FoFJK, ICntrl=    100127 FMM=F ISym2X=0 I1Cent= 0 IOpClX= 0 NMat=1 NMatS=1 NMatT=0.
 Full mass-weighted force constant matrix:
 Low frequencies ---  -13.8807   -0.0010   -0.0006    0.0009    4.3024   12.0334
 Low frequencies ---   23.5436   50.4976   74.9334
 Diagonal vibrational polarizability:
       51.0688386      42.7120749      23.1695644
 Harmonic frequencies (cm**-1), IR intensities (KM/Mole), Raman scattering
 activities (A**4/AMU), depolarization ratios for plane and unpolarized
 incident light, reduced masses (AMU), force constants (mDyne/A),
 Dipole strengths (10**-40 esu**2-cm**2),
 Rotational strengths (10**-44 esu**2-cm**2),
 E-M angle = Angle between electric and magnetic dipole transition moments (deg),
 and normal coordinates:
                      1                      2                      3
                      A                      A                      A
 Frequencies --     23.3948                50.4693                74.9277
 Red. masses --      7.0225                 2.3534                 2.7720
 Frc consts  --      0.0023                 0.0035                 0.0092
 IR Inten    --      0.3337                 1.2374                 0.8885
 Dip. str.   --     56.9024                97.8128                47.3065
 Rot. str.   --      0.7139                 9.6932                -1.5782
 E-M angle   --     84.5583                41.2714               104.7913
  Atom  AN      X      Y      Z        X      Y      Z        X      Y      Z
     1   5     0.00   0.00  -0.00    -0.03  -0.02   0.02     0.01  -0.02   0.02
     2   9     0.20  -0.13  -0.16    -0.05  -0.02   0.03     0.04   0.01   0.02
     3   9    -0.17   0.19  -0.16    -0.00   0.01   0.03    -0.06  -0.10   0.00
     4   9    -0.04  -0.03   0.25    -0.07  -0.03   0.03     0.07   0.01  -0.03
     5   8     0.01  -0.02   0.09    -0.01  -0.04  -0.02    -0.04   0.02   0.12
     6   6     0.07  -0.03  -0.11     0.00  -0.05  -0.08     0.01   0.05   0.04
     7   6    -0.05   0.08  -0.23     0.06   0.22   0.04    -0.13  -0.05  -0.14
     8   6     0.02  -0.05   0.15    -0.02  -0.06   0.03    -0.07   0.03   0.09
     9   6    -0.02  -0.03   0.21     0.16   0.01  -0.09     0.16   0.06  -0.12
    10   1     0.18  -0.10  -0.11    -0.09  -0.25   0.02     0.14   0.15  -0.04
    11   1     0.11  -0.04  -0.16     0.06  -0.09  -0.32     0.01   0.06   0.18
    12   1     0.00   0.07  -0.38     0.05   0.18  -0.01    -0.07   0.02  -0.22
    13   1    -0.16   0.15  -0.23     0.14   0.41  -0.07    -0.26  -0.15  -0.05
    14   1    -0.09   0.09  -0.17     0.03   0.25   0.28    -0.19  -0.05  -0.28
    15   1     0.05  -0.09   0.16    -0.19  -0.10  -0.02    -0.29   0.06   0.03
    16   1     0.01  -0.03   0.13     0.00  -0.10   0.22    -0.04  -0.02   0.30
    17   1    -0.06  -0.05   0.26     0.14  -0.00  -0.04     0.12   0.06  -0.13
    18   1    -0.03   0.04   0.20     0.33   0.03  -0.04     0.39   0.02  -0.05
    19   1    -0.01  -0.08   0.20     0.13   0.05  -0.27     0.12   0.10  -0.35
                      4                      5                      6
                      A                      A                      A
 Frequencies --    167.9717               204.1072               218.2776
 Red. masses --      2.5211                 2.8750                 1.1390
 Frc consts  --      0.0419                 0.0706                 0.0320
 IR Inten    --      3.2424                 2.7858                 1.1961
 Dip. str.   --     77.0085                54.4508                21.8604
 Rot. str.   --    -10.2839                18.0229               -11.0265
 E-M angle   --    113.1047                58.3866               121.7449
  Atom  AN      X      Y      Z        X      Y      Z        X      Y      Z
     1   5    -0.01   0.00   0.04     0.04   0.03   0.00    -0.02  -0.01  -0.00
     2   9     0.08   0.11   0.03     0.08   0.13   0.02    -0.02  -0.00  -0.00
     3   9    -0.09  -0.06   0.00     0.09   0.09   0.03    -0.03  -0.01  -0.01
     4   9    -0.04   0.00  -0.03    -0.10  -0.01  -0.03    -0.02  -0.01  -0.00
     5   8     0.00  -0.05   0.14     0.04  -0.05   0.01    -0.00  -0.02  -0.01
     6   6     0.04  -0.03   0.02     0.06  -0.00   0.01     0.01   0.02   0.00
     7   6    -0.02   0.10  -0.02     0.02  -0.01  -0.03     0.01   0.04   0.00
     8   6     0.09   0.02  -0.08    -0.14  -0.08   0.06     0.04  -0.01  -0.01
     9   6    -0.04  -0.11  -0.07    -0.10  -0.16  -0.07     0.04   0.02   0.03
    10   1     0.08  -0.10   0.04     0.08   0.05  -0.01     0.00   0.06  -0.01
    11   1     0.09  -0.05  -0.06     0.08  -0.01   0.07     0.05   0.01   0.05
    12   1     0.00   0.03  -0.16     0.12   0.23   0.05     0.17   0.52   0.26
    13   1    -0.09   0.24  -0.07     0.10  -0.23   0.05     0.25  -0.41   0.14
    14   1     0.00   0.11   0.11    -0.18   0.02  -0.22    -0.38   0.08  -0.37
    15   1     0.26   0.20  -0.02    -0.30  -0.15   0.00     0.09  -0.00   0.00
    16   1     0.09   0.00  -0.31    -0.17   0.02   0.22     0.05  -0.04  -0.05
    17   1     0.16  -0.03  -0.37    -0.36  -0.18   0.03     0.15   0.03  -0.01
    18   1    -0.30  -0.43  -0.14     0.14  -0.03  -0.01    -0.05  -0.03   0.01
    19   1    -0.05   0.02   0.27    -0.06  -0.36  -0.34     0.02   0.11   0.12
                      7                      8                      9
                      A                      A                      A
 Frequencies --    265.7008               277.0040               302.7117
 Red. masses --      1.4675                 6.4212                 3.2854
 Frc consts  --      0.0610                 0.2903                 0.1774
 IR Inten    --      0.7342                 5.9300                 1.5627
 Dip. str.   --     11.0238                85.4030                20.5951
 Rot. str.   --     -7.3141                 8.2238                -2.5277
 E-M angle   --    126.9271                29.6511               103.5153
  Atom  AN      X      Y      Z        X      Y      Z        X      Y      Z
     1   5    -0.02  -0.01   0.03     0.05  -0.09   0.01    -0.03  -0.00   0.03
     2   9     0.02   0.04   0.02     0.28   0.05  -0.06    -0.00   0.10   0.06
     3   9    -0.08  -0.07   0.00     0.15  -0.13   0.08    -0.15  -0.10  -0.03
     4   9    -0.02  -0.01   0.03    -0.24  -0.19   0.07     0.02   0.01   0.10
     5   8     0.01  -0.00  -0.00    -0.04   0.02  -0.09     0.03   0.03  -0.08
     6   6     0.02   0.01  -0.01    -0.08   0.07   0.01     0.09   0.04  -0.12
     7   6     0.03   0.00  -0.00    -0.07   0.02   0.00     0.22  -0.10  -0.02
     8   6     0.07   0.03  -0.08    -0.09   0.05  -0.08    -0.12  -0.02   0.04
     9   6    -0.01   0.03  -0.00    -0.02   0.25   0.02    -0.04   0.03  -0.01
    10   1     0.02   0.01  -0.01    -0.10   0.12  -0.01     0.08   0.07  -0.13
    11   1     0.02   0.01  -0.01    -0.08   0.07   0.06     0.06   0.05  -0.08
    12   1     0.02   0.00   0.03    -0.10  -0.08  -0.05     0.09  -0.20   0.17
    13   1     0.05  -0.01  -0.00    -0.14   0.08  -0.01     0.35  -0.13  -0.04
    14   1     0.04  -0.00  -0.01     0.01   0.00   0.04     0.39  -0.13  -0.03
    15   1     0.16   0.09  -0.05    -0.09   0.00  -0.08    -0.26  -0.14  -0.01
    16   1     0.07   0.02  -0.19    -0.07   0.00  -0.05    -0.13   0.04   0.22
    17   1    -0.42  -0.08   0.40     0.32   0.22   0.03     0.22   0.08  -0.20
    18   1     0.22   0.51   0.05    -0.19   0.20  -0.02    -0.13  -0.21  -0.03
    19   1     0.08  -0.34  -0.33    -0.10   0.53   0.18    -0.10   0.27   0.12
                     10                     11                     12
                      A                      A                      A
 Frequencies --    324.0066               375.3830               414.9052
 Red. masses --      4.0951                 3.2854                 4.9556
 Frc consts  --      0.2533                 0.2728                 0.5026
 IR Inten    --      1.0190                 3.0014                 8.0258
 Dip. str.   --     12.5471                31.8974                77.1700
 Rot. str.   --      1.1965                -4.5809                 8.6479
 E-M angle   --     64.5854               125.8979                40.1568
  Atom  AN      X      Y      Z        X      Y      Z        X      Y      Z
     1   5     0.07   0.07   0.03    -0.02   0.04   0.03     0.07  -0.06   0.09
     2   9     0.12   0.11   0.01     0.05  -0.12  -0.07     0.04  -0.06   0.13
     3   9     0.00  -0.03   0.03     0.03  -0.05   0.08    -0.06   0.19  -0.02
     4   9     0.20   0.09   0.11    -0.08   0.04  -0.06     0.07  -0.08  -0.17
     5   8    -0.08  -0.02  -0.08    -0.02   0.14   0.13    -0.05  -0.13   0.16
     6   6    -0.18  -0.21  -0.10    -0.04  -0.07  -0.14     0.07  -0.11  -0.03
     7   6    -0.12  -0.01   0.03     0.09  -0.06  -0.01     0.08  -0.03  -0.02
     8   6    -0.04  -0.04  -0.05     0.02   0.18   0.10    -0.14   0.01  -0.11
     9   6    -0.04   0.00  -0.03    -0.03  -0.01  -0.04    -0.10   0.22  -0.03
    10   1    -0.26  -0.45   0.02     0.03  -0.36  -0.04     0.11  -0.21   0.00
    11   1    -0.24  -0.22  -0.38    -0.17  -0.07  -0.40     0.08  -0.13  -0.13
    12   1    -0.04   0.23   0.16     0.05   0.06   0.27     0.08   0.01   0.05
    13   1     0.10  -0.11   0.01     0.37  -0.20  -0.02     0.18  -0.05  -0.04
    14   1    -0.36   0.04   0.02     0.05  -0.06  -0.06     0.05  -0.02   0.01
    15   1    -0.05  -0.06  -0.05     0.02   0.25   0.10    -0.12   0.14  -0.10
    16   1    -0.03  -0.06  -0.03     0.02   0.17   0.06    -0.12  -0.04  -0.15
    17   1    -0.02  -0.01   0.01    -0.22   0.06  -0.21     0.12   0.13   0.22
    18   1    -0.05   0.04  -0.03     0.02  -0.15  -0.02    -0.15   0.44  -0.06
    19   1    -0.04   0.02  -0.03     0.01  -0.16  -0.05    -0.15   0.41  -0.04
                     13                     14                     15
                      A                      A                      A
 Frequencies --    471.9181               491.7463               532.5592
 Red. masses --      8.4236                 6.7846                 4.0678
 Frc consts  --      1.1053                 0.9666                 0.6797
 IR Inten    --      7.8833                 9.0984                19.4015
 Dip. str.   --     66.6420                73.8127               145.3365
 Rot. str.   --    -10.9870                21.1965                20.0766
 E-M angle   --    115.9208                38.4030                38.5928
  Atom  AN      X      Y      Z        X      Y      Z        X      Y      Z
     1   5    -0.14   0.04   0.21     0.08  -0.16   0.08     0.10   0.10   0.06
     2   9     0.24  -0.16  -0.03     0.08   0.03   0.26     0.01  -0.11   0.07
     3   9    -0.18   0.07   0.29    -0.09   0.13  -0.13    -0.10  -0.06  -0.02
     4   9     0.02   0.17  -0.22     0.02  -0.25  -0.10    -0.10   0.08  -0.04
     5   8    -0.07  -0.04  -0.19     0.02   0.17  -0.15     0.22   0.06  -0.14
     6   6    -0.05   0.16  -0.03    -0.17   0.09  -0.09     0.11  -0.17   0.13
     7   6     0.02   0.02   0.00    -0.08  -0.00   0.03    -0.06  -0.00   0.01
     8   6     0.01  -0.18  -0.04     0.10   0.13   0.11    -0.01   0.06  -0.01
     9   6     0.08  -0.10   0.04     0.05  -0.10   0.02    -0.06   0.06  -0.03
    10   1    -0.11   0.41  -0.12    -0.19  -0.03  -0.03     0.04  -0.24   0.18
    11   1     0.07   0.16   0.21    -0.24   0.10  -0.16    -0.05  -0.15  -0.02
    12   1    -0.10  -0.13   0.08    -0.14  -0.02   0.14     0.18   0.17  -0.37
    13   1     0.01   0.02   0.00    -0.01  -0.04   0.02    -0.31   0.08   0.04
    14   1     0.21  -0.02  -0.02    -0.03  -0.02  -0.01    -0.38   0.07   0.05
    15   1     0.03  -0.27  -0.03     0.11  -0.00   0.11    -0.21  -0.13  -0.08
    16   1     0.02  -0.18  -0.01     0.11   0.12   0.12    -0.05   0.20   0.24
    17   1     0.14  -0.12   0.08    -0.20   0.01  -0.26    -0.03   0.07  -0.05
    18   1     0.08  -0.09   0.04     0.11  -0.35   0.05    -0.13   0.05  -0.04
    19   1     0.05  -0.03   0.03     0.13  -0.34   0.03    -0.06   0.08   0.05
                     16                     17                     18
                      A                      A                      A
 Frequencies --    629.1228               779.2112               812.9017
 Red. masses --      7.0572                 2.1955                 1.3055
 Frc consts  --      1.6457                 0.7854                 0.5083
 IR Inten    --    265.7355               281.4173                79.7634
 Dip. str.   --   1685.0842              1440.7978               391.4470
 Rot. str.   --    -38.1280               -88.3860                 4.1941
 E-M angle   --    145.1132               109.2146                87.3246
  Atom  AN      X      Y      Z        X      Y      Z        X      Y      Z
     1   5     0.43   0.26   0.03     0.13   0.08   0.01    -0.07  -0.04  -0.01
     2   9     0.01  -0.13   0.17    -0.03   0.03  -0.07     0.02  -0.01   0.04
     3   9     0.04  -0.10  -0.19    -0.05   0.01   0.07     0.03  -0.01  -0.04
     4   9    -0.16   0.15   0.00     0.02  -0.08  -0.01    -0.01   0.04   0.00
     5   8    -0.17  -0.08   0.05    -0.09  -0.06  -0.07     0.02   0.00   0.03
     6   6    -0.07   0.10  -0.08     0.04  -0.10   0.01    -0.04  -0.03  -0.05
     7   6    -0.01   0.02  -0.01     0.02  -0.02  -0.02    -0.03  -0.03  -0.01
     8   6    -0.03  -0.08  -0.02    -0.00   0.10   0.08     0.03   0.00  -0.03
     9   6     0.05  -0.06   0.03    -0.01   0.04   0.01     0.01   0.00  -0.02
    10   1    -0.09   0.27  -0.15     0.11   0.35  -0.20     0.22   0.27  -0.24
    11   1     0.03   0.10   0.09     0.04  -0.05   0.47    -0.09   0.02   0.39
    12   1    -0.19  -0.11   0.28     0.11   0.13  -0.04     0.00   0.12   0.13
    13   1     0.19  -0.04  -0.03     0.19   0.20  -0.15     0.30   0.20  -0.20
    14   1     0.24  -0.03  -0.01    -0.17   0.06   0.29    -0.17   0.05   0.35
    15   1     0.15  -0.01   0.03     0.20   0.02   0.13    -0.25   0.00  -0.11
    16   1     0.02  -0.24  -0.24     0.03  -0.01  -0.15     0.04   0.01   0.27
    17   1     0.13  -0.09   0.10    -0.15   0.13  -0.23    -0.06  -0.02   0.07
    18   1     0.11  -0.01   0.04     0.17  -0.19   0.07    -0.22   0.11  -0.09
    19   1     0.02   0.01  -0.03     0.01  -0.07  -0.12     0.06  -0.10   0.20
                     19                     20                     21
                      A                      A                      A
 Frequencies --    822.7194               874.9819               925.9216
 Red. masses --      1.4528                 2.6971                 2.6452
 Frc consts  --      0.5794                 1.2166                 1.3362
 IR Inten    --     98.5982                34.5167                30.7569
 Dip. str.   --    478.1065               157.3755               132.5183
 Rot. str.   --     42.8803                34.4838                -9.0099
 E-M angle   --     60.9427                57.1841                96.2266
  Atom  AN      X      Y      Z        X      Y      Z        X      Y      Z
     1   5     0.10   0.06   0.00     0.13   0.09   0.00     0.02  -0.02  -0.00
     2   9    -0.03   0.02  -0.05    -0.05   0.02  -0.07    -0.02   0.00  -0.02
     3   9    -0.03   0.01   0.05    -0.06   0.01   0.07    -0.02  -0.00   0.02
     4   9     0.01  -0.05  -0.00     0.01  -0.10  -0.01    -0.00   0.02   0.00
     5   8    -0.03  -0.03   0.01     0.12   0.13   0.06     0.17  -0.17   0.01
     6   6     0.01   0.03   0.01    -0.02   0.03  -0.05    -0.02   0.06  -0.10
     7   6    -0.00   0.02   0.00    -0.08  -0.02   0.00    -0.16   0.04   0.04
     8   6     0.05   0.04  -0.03    -0.04  -0.09  -0.07     0.05   0.05   0.06
     9   6     0.04   0.00  -0.02     0.01  -0.11   0.00    -0.07   0.09  -0.02
    10   1    -0.10  -0.05   0.06     0.20   0.02  -0.10     0.14  -0.00  -0.11
    11   1     0.07  -0.00  -0.12    -0.21   0.08   0.01     0.27  -0.01  -0.09
    12   1    -0.06  -0.08   0.03    -0.14   0.04   0.24    -0.45  -0.17   0.49
    13   1    -0.08  -0.09   0.07     0.20   0.06  -0.10     0.10  -0.14   0.05
    14   1     0.12  -0.03  -0.14    -0.07   0.01   0.22     0.20  -0.05   0.00
    15   1    -0.42  -0.02  -0.18     0.01   0.03  -0.05     0.11  -0.20   0.07
    16   1     0.13  -0.14   0.43    -0.14   0.16  -0.15     0.03   0.08   0.04
    17   1    -0.17  -0.01   0.08     0.43  -0.25   0.35    -0.14   0.17  -0.24
    18   1    -0.37   0.11  -0.13     0.06   0.20   0.01     0.08  -0.08   0.03
    19   1     0.15  -0.27   0.38    -0.11   0.30  -0.05    -0.07   0.03  -0.17
                     22                     23                     24
                      A                      A                      A
 Frequencies --   1029.9026              1047.4482              1115.7323
 Red. masses --      2.9902                 2.3157                 2.2612
 Frc consts  --      1.8687                 1.4969                 1.6585
 IR Inten    --    140.1141                34.1807                27.4828
 Dip. str.   --    542.7418               130.1833                98.2671
 Rot. str.   --    -20.4772               -10.4581               -96.5465
 E-M angle   --    101.0392               114.8221               130.1252
  Atom  AN      X      Y      Z        X      Y      Z        X      Y      Z
     1   5    -0.05   0.02   0.02    -0.04  -0.04   0.00    -0.06   0.08  -0.02
     2   9     0.02  -0.00   0.01     0.01   0.00   0.01     0.02  -0.01   0.02
     3   9     0.02  -0.00  -0.02     0.01  -0.00  -0.01     0.01  -0.00  -0.01
     4   9    -0.00  -0.02  -0.00    -0.00   0.03   0.00     0.01  -0.03  -0.00
     5   8    -0.12   0.14  -0.04    -0.03  -0.07  -0.07     0.01   0.01  -0.03
     6   6     0.27  -0.08   0.02     0.07  -0.05  -0.02    -0.08  -0.09   0.18
     7   6    -0.16   0.03   0.03    -0.05   0.03   0.03     0.01   0.10  -0.17
     8   6    -0.01  -0.11  -0.03    -0.08   0.23   0.00     0.05   0.00   0.05
     9   6     0.02   0.04   0.01     0.06  -0.15   0.03    -0.04  -0.02  -0.05
    10   1     0.40  -0.07  -0.02     0.03   0.04  -0.06    -0.09  -0.04   0.17
    11   1     0.21  -0.07  -0.15     0.32  -0.11   0.01    -0.04  -0.11   0.21
    12   1    -0.39  -0.11   0.46    -0.14  -0.10   0.11    -0.23  -0.08   0.25
    13   1     0.10  -0.16   0.06    -0.05  -0.10   0.09     0.46  -0.12  -0.20
    14   1     0.13  -0.03   0.16     0.08  -0.02  -0.04     0.53  -0.01  -0.18
    15   1     0.04   0.04  -0.00    -0.18   0.37  -0.03     0.02  -0.02   0.05
    16   1     0.01  -0.15  -0.03    -0.09   0.26  -0.09     0.05   0.02   0.07
    17   1    -0.19   0.10  -0.13     0.37  -0.28   0.37     0.08  -0.06   0.07
    18   1    -0.07  -0.12  -0.01     0.10   0.16   0.04    -0.04   0.15  -0.05
    19   1     0.08  -0.17   0.02    -0.00   0.14   0.17    -0.10   0.17  -0.04
                     25                     26                     27
                      A                      A                      A
 Frequencies --   1123.9780              1135.5030              1157.3317
 Red. masses --      2.2044                10.2976                 3.5604
 Frc consts  --      1.6408                 7.8228                 2.8097
 IR Inten    --     27.2194               461.5262               335.6268
 Dip. str.   --     96.6113              1621.4945              1156.9278
 Rot. str.   --     21.8548                17.8230                85.8226
 E-M angle   --     80.5938                88.6479                82.1244
  Atom  AN      X      Y      Z        X      Y      Z        X      Y      Z
     1   5    -0.05   0.09   0.03    -0.09   0.08   0.82    -0.19   0.33  -0.09
     2   9     0.01  -0.01   0.01    -0.09   0.06  -0.20     0.04  -0.04   0.07
     3   9     0.01  -0.01  -0.02     0.12  -0.05  -0.22     0.02  -0.02  -0.02
     4   9     0.01  -0.04  -0.00     0.02  -0.05  -0.04     0.04  -0.12  -0.00
     5   8    -0.03   0.02  -0.02     0.02  -0.03  -0.01    -0.01  -0.04   0.05
     6   6     0.03  -0.02  -0.10    -0.03   0.02   0.03     0.01  -0.01  -0.07
     7   6     0.01   0.00   0.09     0.01  -0.01  -0.03     0.01   0.01   0.06
     8   6     0.10  -0.05   0.17     0.02   0.03  -0.06     0.04   0.04  -0.14
     9   6    -0.08  -0.02  -0.16    -0.02  -0.01   0.05    -0.03  -0.01   0.11
    10   1    -0.06   0.19  -0.17    -0.00  -0.04   0.05    -0.01   0.14  -0.13
    11   1     0.16  -0.03   0.08    -0.09   0.03  -0.04     0.03  -0.00   0.04
    12   1     0.05  -0.06  -0.13     0.02   0.04   0.01     0.02  -0.06  -0.09
    13   1    -0.29  -0.04   0.19     0.08   0.04  -0.07    -0.20  -0.04   0.14
    14   1    -0.11   0.00  -0.08     0.00   0.00   0.04    -0.06   0.01  -0.08
    15   1     0.19   0.06   0.21    -0.10  -0.12  -0.10    -0.26  -0.27  -0.25
    16   1     0.12  -0.10   0.08    -0.01   0.11   0.17    -0.02   0.26   0.24
    17   1     0.08  -0.13   0.20     0.09   0.01  -0.04     0.08   0.07  -0.18
    18   1    -0.28   0.43  -0.23     0.12  -0.12   0.09     0.34  -0.23   0.22
    19   1    -0.17   0.32   0.00    -0.03   0.00  -0.13    -0.07   0.03  -0.22
                     28                     29                     30
                      A                      A                      A
 Frequencies --   1190.4801              1207.0387              1323.6804
 Red. masses --      2.1905                 1.8344                 1.1004
 Frc consts  --      1.8291                 1.5747                 1.1360
 IR Inten    --    238.9725                23.7113                10.1987
 Dip. str.   --    800.8170                78.3685                30.7374
 Rot. str.   --     -5.7713                12.1627                 7.5893
 E-M angle   --     92.1341                83.5394                76.8258
  Atom  AN      X      Y      Z        X      Y      Z        X      Y      Z
     1   5    -0.10   0.17  -0.01     0.00  -0.00  -0.03     0.00  -0.00  -0.00
     2   9     0.01  -0.02   0.02     0.01  -0.00   0.01     0.00   0.00   0.00
     3   9     0.01  -0.01  -0.01     0.00   0.00   0.00     0.00   0.00   0.00
     4   9     0.02  -0.05  -0.00     0.00   0.00   0.00     0.00   0.00   0.00
     5   8     0.06  -0.07  -0.03    -0.08  -0.05  -0.03    -0.02  -0.03  -0.02
     6   6     0.00   0.09   0.03     0.07   0.13   0.06    -0.01   0.00   0.01
     7   6    -0.02  -0.06  -0.03    -0.04  -0.11  -0.04     0.01   0.04   0.04
     8   6    -0.14   0.00   0.07     0.10   0.05   0.02    -0.00   0.04   0.00
     9   6     0.11   0.02  -0.04    -0.08  -0.04  -0.01    -0.01  -0.02  -0.01
    10   1     0.06  -0.17   0.12     0.04  -0.27   0.24     0.71  -0.16  -0.08
    11   1    -0.12   0.10  -0.23    -0.00   0.11  -0.38    -0.54   0.13   0.02
    12   1     0.05   0.13   0.05     0.09   0.23   0.10     0.01  -0.04  -0.07
    13   1     0.11   0.12  -0.14     0.18   0.19  -0.22    -0.08  -0.03   0.10
    14   1    -0.11  -0.01   0.18    -0.19  -0.02   0.36     0.10   0.00  -0.18
    15   1     0.20   0.28   0.19    -0.05  -0.19  -0.04     0.03  -0.11   0.00
    16   1    -0.10  -0.17  -0.37     0.14  -0.01   0.25     0.09  -0.21   0.02
    17   1    -0.24  -0.00   0.11     0.18  -0.06   0.00     0.04  -0.03   0.02
    18   1    -0.25   0.02  -0.13     0.12   0.13   0.03     0.05   0.04   0.01
    19   1     0.20  -0.19   0.32    -0.16   0.23  -0.15    -0.02   0.03   0.03
                     31                     32                     33
                      A                      A                      A
 Frequencies --   1330.4031              1383.6568              1394.9725
 Red. masses --      1.1002                 1.2022                 1.2254
 Frc consts  --      1.1474                 1.3561                 1.4050
 IR Inten    --      3.9252                 1.2811                 8.8324
 Dip. str.   --     11.7702                 3.6936                25.2594
 Rot. str.   --     10.1766                 0.2047                -7.8781
 E-M angle   --     71.0719                88.3521               108.7295
  Atom  AN      X      Y      Z        X      Y      Z        X      Y      Z
     1   5    -0.00   0.01  -0.00    -0.00   0.01   0.00    -0.01   0.00  -0.00
     2   9    -0.00  -0.00  -0.00    -0.00  -0.00   0.00     0.00  -0.00   0.00
     3   9    -0.00  -0.00   0.00    -0.00  -0.00  -0.00     0.00  -0.00  -0.00
     4   9     0.00  -0.00  -0.00    -0.00  -0.01  -0.00     0.00  -0.00   0.00
     5   8     0.04  -0.00  -0.02     0.00   0.04  -0.00     0.01   0.01   0.01
     6   6    -0.00   0.01  -0.01    -0.07   0.01   0.02     0.02  -0.01  -0.01
     7   6    -0.01  -0.00   0.00    -0.05  -0.03   0.07     0.03   0.01  -0.04
     8   6     0.02  -0.03  -0.00    -0.01   0.01  -0.01    -0.01   0.02  -0.01
     9   6    -0.05  -0.00   0.05    -0.03   0.02  -0.02    -0.08   0.06  -0.07
    10   1    -0.06   0.01  -0.00     0.29  -0.02  -0.06    -0.16  -0.02   0.04
    11   1    -0.03   0.02   0.03     0.55  -0.15  -0.10    -0.06   0.02   0.09
    12   1     0.00   0.02   0.01     0.20   0.12  -0.34    -0.10  -0.05   0.21
    13   1     0.00   0.03  -0.01     0.32   0.15  -0.12    -0.19  -0.03   0.05
    14   1     0.01  -0.01  -0.01     0.19  -0.11  -0.23    -0.13   0.06   0.12
    15   1    -0.25   0.74  -0.05     0.03  -0.11  -0.00     0.14  -0.11   0.04
    16   1     0.19  -0.50   0.06     0.07  -0.22  -0.01     0.10  -0.25   0.11
    17   1     0.04   0.03  -0.08     0.11  -0.05   0.14     0.31  -0.14   0.42
    18   1     0.11  -0.07   0.09     0.12  -0.13   0.03     0.33  -0.34   0.06
    19   1    -0.09   0.06  -0.18     0.03  -0.11   0.09     0.07  -0.31   0.26
                     34                     35                     36
                      A                      A                      A
 Frequencies --   1415.2201              1437.1474              1458.1931
 Red. masses --      1.2838                 1.2651                 1.0405
 Frc consts  --      1.5149                 1.5395                 1.3036
 IR Inten    --     31.7095                10.9907                 6.8902
 Dip. str.   --     89.3866                30.5093                18.8505
 Rot. str.   --      6.7433                -2.2047                10.8764
 E-M angle   --     77.4138                99.4214                65.8297
  Atom  AN      X      Y      Z        X      Y      Z        X      Y      Z
     1   5     0.00   0.01   0.00     0.02   0.00  -0.00     0.00  -0.00   0.00
     2   9    -0.00  -0.00  -0.00    -0.00  -0.00  -0.00    -0.00   0.00  -0.00
     3   9    -0.00  -0.00   0.00    -0.00   0.00   0.00    -0.00   0.00  -0.00
     4   9    -0.00  -0.00  -0.00    -0.00  -0.00   0.00    -0.00   0.00   0.00
     5   8     0.00   0.03  -0.01    -0.03  -0.03  -0.03    -0.00   0.00   0.00
     6   6    -0.09  -0.00   0.04    -0.03   0.01   0.03    -0.01  -0.02  -0.01
     7   6     0.10  -0.02  -0.05     0.02   0.00   0.00    -0.01  -0.03  -0.02
     8   6    -0.01   0.00  -0.01     0.07  -0.07   0.04     0.02  -0.00   0.01
     9   6     0.02  -0.02   0.02    -0.02   0.07  -0.01     0.01   0.01  -0.01
    10   1     0.37  -0.10  -0.02     0.27   0.05  -0.06     0.03   0.06  -0.06
    11   1     0.47  -0.14  -0.03    -0.01  -0.01  -0.19    -0.01  -0.02  -0.01
    12   1    -0.15  -0.11   0.42    -0.02  -0.07   0.00     0.20   0.54   0.24
    13   1    -0.39   0.18   0.00    -0.00   0.03  -0.01    -0.41   0.08   0.05
    14   1    -0.35   0.09  -0.01    -0.09   0.02  -0.05     0.48  -0.11   0.09
    15   1     0.01  -0.03  -0.01    -0.19   0.36  -0.02    -0.15  -0.03  -0.05
    16   1     0.03  -0.13  -0.01    -0.17   0.57  -0.04    -0.00   0.04  -0.13
    17   1    -0.07   0.03  -0.12     0.21  -0.04   0.25    -0.19  -0.03   0.16
    18   1    -0.06   0.10  -0.01    -0.15  -0.30  -0.04     0.02  -0.19   0.00
    19   1    -0.02   0.08  -0.06     0.06  -0.25  -0.20    -0.04   0.17   0.02
                     37                     38                     39
                      A                      A                      A
 Frequencies --   1459.4993              1470.1121              1472.2011
 Red. masses --      1.0370                 1.0925                 1.0775
 Frc consts  --      1.3015                 1.3912                 1.3759
 IR Inten    --      9.9798                 1.7492                 1.9201
 Dip. str.   --     27.2788                 4.7468                 5.2032
 Rot. str.   --    -12.8250                 1.1913                 0.0841
 E-M angle   --    124.8531                36.2785                88.4534
  Atom  AN      X      Y      Z        X      Y      Z        X      Y      Z
     1   5    -0.00   0.00  -0.00     0.00  -0.00   0.01     0.00   0.00  -0.00
     2   9     0.00  -0.00   0.00    -0.00   0.00  -0.00    -0.00  -0.00  -0.00
     3   9     0.00  -0.00  -0.00    -0.00  -0.00  -0.00    -0.00  -0.00   0.00
     4   9     0.00  -0.00   0.00    -0.00   0.00  -0.00    -0.00  -0.00   0.00
     5   8     0.00   0.00   0.00    -0.00  -0.00  -0.00     0.00   0.00  -0.00
     6   6    -0.00  -0.01  -0.00    -0.01  -0.00   0.02    -0.05   0.01   0.02
     7   6    -0.01  -0.01  -0.01     0.01   0.00  -0.00     0.01   0.03  -0.05
     8   6    -0.02  -0.00   0.02     0.04  -0.05   0.03    -0.01   0.00  -0.01
     9   6    -0.03   0.00   0.02    -0.04  -0.00  -0.04     0.00  -0.00   0.00
    10   1     0.00   0.03  -0.02     0.05   0.13  -0.05     0.17   0.12  -0.08
    11   1    -0.00  -0.01  -0.00    -0.02  -0.02  -0.16     0.14  -0.06  -0.19
    12   1     0.09   0.22   0.08    -0.02  -0.07  -0.01     0.09  -0.00  -0.25
    13   1    -0.16   0.01   0.03     0.03  -0.02   0.00    -0.01  -0.60   0.25
    14   1     0.20  -0.04   0.06    -0.07   0.02   0.00     0.06   0.09   0.60
    15   1     0.01  -0.01   0.03    -0.28   0.07  -0.07     0.07   0.03   0.02
    16   1    -0.03   0.00  -0.06    -0.06   0.15  -0.26     0.02  -0.06   0.08
    17   1     0.52   0.09  -0.37    -0.14   0.07  -0.20    -0.03  -0.00   0.00
    18   1    -0.06   0.42  -0.01     0.53   0.23   0.12    -0.01  -0.01  -0.00
    19   1     0.12  -0.49  -0.04     0.00   0.06   0.57    -0.01   0.03  -0.02
                     40                     41                     42
                      A                      A                      A
 Frequencies --   1495.3797              1503.7128              3064.4290
 Red. masses --      1.0817                 1.0958                 1.0362
 Frc consts  --      1.4252                 1.4599                 5.7330
 IR Inten    --     17.3547                21.2643                12.6299
 Dip. str.   --     46.2993                56.4150                16.4422
 Rot. str.   --     28.0162               -12.8128                -3.2382
 E-M angle   --     35.7670               111.1178                96.9844
  Atom  AN      X      Y      Z        X      Y      Z        X      Y      Z
     1   5     0.01   0.00  -0.00    -0.01  -0.01  -0.00     0.00   0.00   0.00
     2   9    -0.00   0.00  -0.00     0.00   0.00   0.00    -0.00   0.00  -0.00
     3   9    -0.00   0.00   0.00     0.00   0.00  -0.00    -0.00  -0.00   0.00
     4   9    -0.00   0.00   0.00    -0.00   0.00   0.00    -0.00  -0.00  -0.00
     5   8    -0.01  -0.02  -0.01     0.02  -0.00   0.01    -0.00   0.00   0.00
     6   6    -0.01  -0.01   0.01     0.01  -0.04   0.06     0.00   0.00  -0.00
     7   6    -0.00  -0.01   0.01     0.00  -0.01   0.00    -0.04  -0.01   0.03
     8   6    -0.04  -0.03  -0.06    -0.01   0.03  -0.00     0.00   0.00   0.00
     9   6    -0.00  -0.01  -0.01     0.01  -0.01   0.01    -0.00   0.00  -0.00
    10   1     0.05   0.08  -0.04    -0.08   0.64  -0.22    -0.00  -0.00  -0.00
    11   1    -0.01  -0.01  -0.08    -0.18  -0.06  -0.60    -0.00  -0.00   0.00
    12   1     0.04   0.11   0.06    -0.05  -0.04   0.08     0.46  -0.26   0.19
    13   1    -0.06   0.10  -0.03     0.01   0.13  -0.06    -0.14  -0.22  -0.48
    14   1     0.11  -0.04  -0.08    -0.06  -0.00  -0.12     0.12   0.59  -0.07
    15   1     0.52   0.32   0.15     0.03  -0.13   0.01     0.01   0.00  -0.01
    16   1    -0.08   0.22   0.62     0.07  -0.19  -0.01    -0.02  -0.01   0.00
    17   1    -0.09   0.02  -0.08     0.03  -0.02   0.03    -0.00  -0.00  -0.00
    18   1     0.17   0.08   0.04    -0.10  -0.02  -0.02    -0.00   0.00   0.00
    19   1    -0.00   0.06   0.19    -0.01   0.00  -0.11     0.00   0.00  -0.00
                     43                     44                     45
                      A                      A                      A
 Frequencies --   3072.5446              3103.7782              3112.0366
 Red. masses --      1.0371                 1.0603                 1.0691
 Frc consts  --      5.7685                 6.0182                 6.1004
 IR Inten    --     13.5375                14.3401                30.2757
 Dip. str.   --     17.5771                18.4319                38.8112
 Rot. str.   --      0.0019                 3.1249                 2.4554
 E-M angle   --     89.9908                83.6045                86.4477
  Atom  AN      X      Y      Z        X      Y      Z        X      Y      Z
     1   5     0.00   0.00   0.00     0.00   0.00  -0.00     0.00   0.00  -0.00
     2   9    -0.00   0.00  -0.00    -0.00  -0.00  -0.00    -0.00  -0.00  -0.00
     3   9    -0.00   0.00  -0.00    -0.00   0.00   0.00    -0.00   0.00   0.00
     4   9    -0.00  -0.00  -0.00    -0.00  -0.00  -0.00     0.00  -0.00   0.00
     5   8     0.00   0.00   0.00     0.00  -0.00  -0.00    -0.00   0.00  -0.00
     6   6    -0.00  -0.00  -0.00     0.00   0.00   0.01    -0.01  -0.00  -0.07
     7   6    -0.00  -0.00   0.00    -0.00   0.00  -0.00     0.01   0.00   0.01
     8   6     0.00   0.00  -0.00    -0.02  -0.01  -0.06    -0.00  -0.00  -0.01
     9   6     0.02  -0.04   0.03     0.00   0.00   0.01    -0.00   0.00   0.00
    10   1    -0.00   0.00   0.00    -0.03  -0.07  -0.16     0.19   0.36   0.82
    11   1     0.00   0.00  -0.00     0.02   0.06  -0.00    -0.08  -0.32   0.02
    12   1     0.00  -0.00   0.00     0.03  -0.02   0.01    -0.06   0.04  -0.03
    13   1    -0.00  -0.00  -0.00    -0.00  -0.00  -0.00    -0.03  -0.04  -0.09
    14   1     0.00   0.00  -0.00     0.00   0.01  -0.00    -0.00  -0.01   0.01
    15   1     0.01  -0.00  -0.01    -0.25  -0.04   0.75    -0.06  -0.00   0.17
    16   1    -0.02  -0.01   0.00     0.53   0.20  -0.04     0.07   0.03  -0.01
    17   1     0.05   0.63   0.21    -0.01  -0.05  -0.02    -0.00  -0.01  -0.00
    18   1     0.16  -0.03  -0.55     0.02  -0.00  -0.07     0.01  -0.00  -0.02
    19   1    -0.45  -0.14   0.04    -0.03  -0.01   0.01    -0.00  -0.00   0.00
                     46                     47                     48
                      A                      A                      A
 Frequencies --   3149.1725              3156.7785              3159.1917
 Red. masses --      1.1027                 1.1009                 1.1027
 Frc consts  --      6.4432                 6.4636                 6.4840
 IR Inten    --     22.5291                19.7748                28.2713
 Dip. str.   --     28.5400                24.9905                35.7007
 Rot. str.   --    -13.1872                 7.8152                13.8223
 E-M angle   --     97.8778                83.0675                82.0769
  Atom  AN      X      Y      Z        X      Y      Z        X      Y      Z
     1   5    -0.00  -0.00  -0.00    -0.00   0.00  -0.00     0.00   0.00  -0.00
     2   9    -0.00   0.00  -0.00    -0.00  -0.00   0.00    -0.00  -0.00  -0.00
     3   9     0.00   0.00   0.00    -0.00  -0.00   0.00    -0.00  -0.00   0.00
     4   9     0.00   0.00   0.00     0.00  -0.00   0.00     0.00  -0.00   0.00
     5   8    -0.00   0.00   0.00    -0.00   0.00   0.00     0.00  -0.00   0.00
     6   6     0.00   0.01   0.00     0.00   0.00   0.00    -0.00   0.01  -0.01
     7   6     0.02  -0.09   0.01     0.00  -0.00   0.00    -0.06  -0.02  -0.07
     8   6     0.00   0.00  -0.00    -0.01  -0.01  -0.00     0.00   0.00  -0.00
     9   6    -0.00   0.00   0.00    -0.01  -0.06  -0.07    -0.00  -0.00  -0.00
    10   1    -0.01  -0.02  -0.05     0.00  -0.00  -0.00     0.02   0.04   0.09
    11   1    -0.02  -0.10   0.01    -0.00  -0.00   0.00    -0.03  -0.12   0.01
    12   1    -0.51   0.26  -0.20    -0.04   0.02  -0.02     0.45  -0.26   0.17
    13   1     0.06   0.07   0.20    -0.01  -0.02  -0.04     0.19   0.31   0.70
    14   1     0.16   0.73  -0.09     0.00   0.01  -0.00     0.03   0.20  -0.04
    15   1    -0.01  -0.00   0.04    -0.01  -0.00   0.03    -0.01  -0.00   0.03
    16   1    -0.03  -0.01   0.00     0.13   0.05  -0.01    -0.02  -0.01   0.00
    17   1    -0.00  -0.02  -0.01     0.05   0.67   0.22     0.00   0.04   0.01
    18   1     0.01  -0.00  -0.02    -0.19   0.01   0.62    -0.01   0.00   0.03
    19   1     0.01   0.00  -0.00     0.20   0.05  -0.03     0.03   0.01  -0.00
                     49                     50                     51
                      A                      A                      A
 Frequencies --   3166.8087              3186.6330              3218.3198
 Red. masses --      1.1061                 1.1066                 1.1013
 Frc consts  --      6.5354                 6.6207                 6.7204
 IR Inten    --      0.6010                26.7540                 4.9912
 Dip. str.   --      0.7572                33.4938                 6.1871
 Rot. str.   --     -2.5963                -1.0956                 0.9824
 E-M angle   --    107.5011                90.9163                80.4757
  Atom  AN      X      Y      Z        X      Y      Z        X      Y      Z
     1   5     0.00   0.00   0.00    -0.00   0.00   0.00     0.00  -0.00   0.00
     2   9    -0.00   0.00   0.00     0.00  -0.00  -0.00     0.00   0.00   0.00
     3   9    -0.00  -0.00  -0.00     0.00  -0.00  -0.00     0.00   0.00  -0.00
     4   9     0.00   0.00   0.00     0.00  -0.00   0.00    -0.00  -0.00  -0.00
     5   8     0.00  -0.00   0.00     0.00   0.00  -0.00     0.00   0.00   0.00
     6   6     0.00   0.00  -0.00     0.00   0.00  -0.00    -0.02  -0.09  -0.02
     7   6    -0.00  -0.01  -0.00    -0.00  -0.00   0.00    -0.00  -0.01  -0.01
     8   6    -0.06  -0.02   0.04    -0.05  -0.02   0.03    -0.00  -0.00   0.00
     9   6     0.05   0.02  -0.02    -0.06  -0.02   0.03    -0.00  -0.00   0.00
    10   1     0.01   0.01   0.03     0.00   0.01   0.01     0.06   0.12   0.29
    11   1    -0.01  -0.04   0.00    -0.01  -0.03   0.00     0.22   0.90  -0.09
    12   1     0.00  -0.00  -0.00    -0.00   0.00  -0.00    -0.02   0.01  -0.01
    13   1     0.01   0.02   0.04     0.00   0.00   0.00     0.02   0.03   0.08
    14   1     0.01   0.05  -0.01     0.00   0.01  -0.00     0.02   0.10  -0.02
    15   1     0.13   0.02  -0.43     0.10   0.02  -0.33     0.00   0.00  -0.02
    16   1     0.60   0.22  -0.03     0.46   0.16  -0.02     0.03   0.01  -0.00
    17   1    -0.00  -0.15  -0.06     0.00   0.11   0.04    -0.00   0.00  -0.00
    18   1    -0.06   0.02   0.22     0.11  -0.02  -0.40     0.00  -0.00  -0.00
    19   1    -0.51  -0.16   0.04     0.64   0.19  -0.05     0.01   0.00  -0.00

 -------------------
 - Thermochemistry -
 -------------------
 Temperature   298.150 Kelvin.  Pressure   1.00000 Atm.
 Atom     1 has atomic number  5 and mass  11.00931
 Atom     2 has atomic number  9 and mass  18.99840
 Atom     3 has atomic number  9 and mass  18.99840
 Atom     4 has atomic number  9 and mass  18.99840
 Atom     5 has atomic number  8 and mass  15.99491
 Atom     6 has atomic number  6 and mass  12.00000
 Atom     7 has atomic number  6 and mass  12.00000
 Atom     8 has atomic number  6 and mass  12.00000
 Atom     9 has atomic number  6 and mass  12.00000
 Atom    10 has atomic number  1 and mass   1.00783
 Atom    11 has atomic number  1 and mass   1.00783
 Atom    12 has atomic number  1 and mass   1.00783
 Atom    13 has atomic number  1 and mass   1.00783
 Atom    14 has atomic number  1 and mass   1.00783
 Atom    15 has atomic number  1 and mass   1.00783
 Atom    16 has atomic number  1 and mass   1.00783
 Atom    17 has atomic number  1 and mass   1.00783
 Atom    18 has atomic number  1 and mass   1.00783
 Atom    19 has atomic number  1 and mass   1.00783
 Molecular mass:   142.07768 amu.
 Principal axes and moments of inertia in atomic units:
                           1         2         3
     Eigenvalues --  1030.629211274.027001793.06711
           X            0.98935  -0.14550  -0.00370
           Y            0.14548   0.98934  -0.00591
           Z            0.00452   0.00530   0.99998
 This molecule is an asymmetric top.
 Rotational symmetry number  1.
 Warning -- assumption of classical behavior for rotation
           may cause significant error
 Rotational temperatures (Kelvin)      0.08404     0.06798     0.04830
 Rotational constants (GHZ):           1.75111     1.41656     1.00651
 Zero-point vibrational energy     398244.2 (Joules/Mol)
                                   95.18264 (Kcal/Mol)
 Warning -- explicit consideration of  15 degrees of freedom as
           vibrations may cause significant error
 Vibrational temperatures:     33.66    72.61   107.80   241.67   293.66
          (Kelvin)            314.05   382.28   398.55   435.53   466.17
                              540.09   596.96   678.98   707.51   766.23
                              905.17  1121.11  1169.58  1183.71  1258.90
                             1332.19  1481.80  1507.04  1605.29  1617.15
                             1633.74  1665.14  1712.84  1736.66  1904.48
                             1914.15  1990.77  2007.05  2036.19  2067.73
                             2098.01  2099.89  2115.16  2118.17  2151.52
                             2163.51  4409.03  4420.71  4465.64  4477.53
                             4530.96  4541.90  4545.37  4556.33  4584.85
                             4630.44
 
 Zero-point correction=                           0.151683 (Hartree/Particle)
 Thermal correction to Energy=                    0.162504
 Thermal correction to Enthalpy=                  0.163448
 Thermal correction to Gibbs Free Energy=         0.114292
 Sum of electronic and zero-point Energies=           -557.998656
 Sum of electronic and thermal Energies=              -557.987835
 Sum of electronic and thermal Enthalpies=            -557.986890
 Sum of electronic and thermal Free Energies=         -558.036047
 
                     E (Thermal)             CV                S
                      KCal/Mol        Cal/Mol-Kelvin    Cal/Mol-Kelvin
 Total                  101.973             38.058            103.458
 Electronic               0.000              0.000              0.000
 Translational            0.889              2.981             40.765
 Rotational               0.889              2.981             29.244
 Vibrational            100.196             32.096             33.448
 Vibration     1          0.593              1.985              6.323
 Vibration     2          0.595              1.977              4.799
 Vibration     3          0.599              1.966              4.020
 Vibration     4          0.625              1.882              2.458
 Vibration     5          0.640              1.834              2.096
 Vibration     6          0.646              1.813              1.973
 Vibration     7          0.672              1.736              1.624
 Vibration     8          0.678              1.716              1.552
 Vibration     9          0.694              1.669              1.402
 Vibration    10          0.709              1.627              1.290
 Vibration    11          0.746              1.523              1.058
 Vibration    12          0.778              1.438              0.909
 Vibration    13          0.829              1.312              0.732
 Vibration    14          0.847              1.268              0.679
 Vibration    15          0.888              1.178              0.582
                       Q            Log10(Q)             Ln(Q)
 Total Bot       0.268675D-52        -52.570773       -121.048678
 Total V=0       0.157977D+18         17.198593         39.601223
 Vib (Bot)       0.734852D-66        -66.133800       -152.278702
 Vib (Bot)    1  0.885303D+01          0.947092          2.180760
 Vib (Bot)    2  0.409582D+01          0.612341          1.409967
 Vib (Bot)    3  0.275065D+01          0.439436          1.011838
 Vib (Bot)    4  0.120055D+01          0.079380          0.182780
 Vib (Bot)    5  0.975366D+00         -0.010832         -0.024943
 Vib (Bot)    6  0.906853D+00         -0.042463         -0.097774
 Vib (Bot)    7  0.728948D+00         -0.137304         -0.316153
 Vib (Bot)    8  0.695167D+00         -0.157911         -0.363603
 Vib (Bot)    9  0.627281D+00         -0.202538         -0.466361
 Vib (Bot)   10  0.578785D+00         -0.237483         -0.546825
 Vib (Bot)   11  0.483204D+00         -0.315869         -0.727315
 Vib (Bot)   12  0.424845D+00         -0.371769         -0.856031
 Vib (Bot)   13  0.356844D+00         -0.447522         -1.030456
 Vib (Bot)   14  0.336663D+00         -0.472804         -1.088673
 Vib (Bot)   15  0.299586D+00         -0.523479         -1.205354
 Vib (V=0)       0.432082D+04          3.635566          8.371199
 Vib (V=0)    1  0.936714D+01          0.971607          2.237207
 Vib (V=0)    2  0.462623D+01          0.665227          1.531741
 Vib (V=0)    3  0.329573D+01          0.517951          1.192627
 Vib (V=0)    4  0.180051D+01          0.255395          0.588069
 Vib (V=0)    5  0.159606D+01          0.203048          0.467535
 Vib (V=0)    6  0.153556D+01          0.186267          0.428895
 Vib (V=0)    7  0.138395D+01          0.141120          0.324941
 Vib (V=0)    8  0.135630D+01          0.132357          0.304764
 Vib (V=0)    9  0.130217D+01          0.114669          0.264034
 Vib (V=0)   10  0.126485D+01          0.102038          0.234951
 Vib (V=0)   11  0.119533D+01          0.077489          0.178424
 Vib (V=0)   12  0.115612D+01          0.063003          0.145069
 Vib (V=0)   13  0.111428D+01          0.046994          0.108207
 Vib (V=0)   14  0.110278D+01          0.042488          0.097833
 Vib (V=0)   15  0.108288D+01          0.034581          0.079626
 Electronic      0.100000D+01          0.000000          0.000000
 Translational   0.665645D+08          7.823243         18.013682
 Rotational      0.549268D+06          5.739784         13.216342
 ***** Axes restored to original set *****
 -------------------------------------------------------------------
 Center     Atomic                   Forces (Hartrees/Bohr)
 Number     Number              X              Y              Z
 -------------------------------------------------------------------
      1        5          -0.000005821    0.000002259   -0.000000356
      2        9          -0.000003993    0.000000270    0.000002643
      3        9          -0.000000742   -0.000000985    0.000000632
      4        9           0.000000610   -0.000004486    0.000003145
      5        8          -0.000006776   -0.000012758    0.000004808
      6        6           0.000003248   -0.000002806   -0.000004815
      7        6           0.000000552   -0.000003636    0.000000418
      8        6           0.000017511    0.000014676    0.000001329
      9        6           0.000000943    0.000005231    0.000000006
     10        1           0.000001895    0.000000797    0.000000182
     11        1           0.000000840   -0.000000215    0.000002968
     12        1           0.000001773    0.000001820   -0.000000510
     13        1          -0.000000201    0.000000780    0.000000091
     14        1           0.000000210    0.000003224   -0.000000567
     15        1          -0.000000170   -0.000000744   -0.000001109
     16        1          -0.000001396   -0.000000787   -0.000002390
     17        1          -0.000001727   -0.000001621   -0.000002569
     18        1          -0.000004405    0.000000989   -0.000001864
     19        1          -0.000002351   -0.000002010   -0.000002040
 -------------------------------------------------------------------
 Cartesian Forces:  Max     0.000017511 RMS     0.000004241
 FormGI is forming the generalized inverse of G from B-inverse, IUseBI=4.

 GradGradGradGradGradGradGradGradGradGradGradGradGradGradGradGradGradGrad
 Berny optimization.
 Internal  Forces:  Max     0.000014640 RMS     0.000002407
 Search for a local minimum.
 Step number   1 out of a maximum of    2
 All quantities printed in internal units (Hartrees-Bohrs-Radians)
 Second derivative matrix not updated -- analytic derivatives used.
 ITU=  0
     Eigenvalues ---    0.00071   0.00142   0.00244   0.00295   0.00369
     Eigenvalues ---    0.00964   0.04087   0.04139   0.04152   0.04270
     Eigenvalues ---    0.04356   0.04372   0.05021   0.05409   0.07049
     Eigenvalues ---    0.07820   0.08951   0.09910   0.10093   0.11868
     Eigenvalues ---    0.12213   0.12394   0.12463   0.12943   0.13580
     Eigenvalues ---    0.15419   0.16168   0.16405   0.18647   0.19787
     Eigenvalues ---    0.22713   0.24906   0.26656   0.29742   0.30464
     Eigenvalues ---    0.31176   0.31833   0.33742   0.34239   0.34471
     Eigenvalues ---    0.34584   0.34691   0.34882   0.34917   0.35067
     Eigenvalues ---    0.35097   0.35466   0.35719   0.37235   0.39201
     Eigenvalues ---    0.41735
 Angle between quadratic step and forces=  70.95 degrees.
 Linear search not attempted -- first point.
 Iteration  1 RMS(Cart)=  0.00015373 RMS(Int)=  0.00000001
 Iteration  2 RMS(Cart)=  0.00000001 RMS(Int)=  0.00000000
 Variable       Old X    -DE/DX   Delta X   Delta X   Delta X     New X
                                 (Linear)    (Quad)   (Total)
    R1        2.61544   0.00000   0.00000  -0.00000  -0.00000   2.61544
    R2        2.62437  -0.00000   0.00000  -0.00001  -0.00001   2.62437
    R3        2.61747   0.00000   0.00000   0.00000   0.00000   2.61747
    R4        3.02157   0.00001   0.00000   0.00004   0.00004   3.02161
    R5        2.77557   0.00000   0.00000  -0.00001  -0.00001   2.77556
    R6        2.77526   0.00001   0.00000   0.00006   0.00006   2.77532
    R7        2.85490  -0.00000   0.00000  -0.00000  -0.00000   2.85490
    R8        2.07075  -0.00000   0.00000   0.00000   0.00000   2.07075
    R9        2.05900   0.00000   0.00000   0.00000   0.00000   2.05901
   R10        2.07382  -0.00000   0.00000  -0.00001  -0.00001   2.07382
   R11        2.07160  -0.00000   0.00000   0.00000   0.00000   2.07160
   R12        2.07332   0.00000   0.00000   0.00000   0.00000   2.07333
   R13        2.85262  -0.00000   0.00000  -0.00001  -0.00001   2.85261
   R14        2.07147  -0.00000   0.00000   0.00000   0.00000   2.07147
   R15        2.06674  -0.00000   0.00000  -0.00000  -0.00000   2.06674
   R16        2.07395  -0.00000   0.00000  -0.00001  -0.00001   2.07394
   R17        2.07075  -0.00000   0.00000  -0.00000  -0.00000   2.07075
   R18        2.06709  -0.00000   0.00000  -0.00000  -0.00000   2.06709
    A1        1.97137  -0.00000   0.00000  -0.00002  -0.00002   1.97136
    A2        1.95699   0.00000   0.00000   0.00001   0.00001   1.95700
    A3        1.84588   0.00000   0.00000   0.00002   0.00002   1.84590
    A4        1.97257   0.00000   0.00000   0.00002   0.00002   1.97258
    A5        1.85448   0.00000   0.00000   0.00000   0.00000   1.85448
    A6        1.85023  -0.00001   0.00000  -0.00004  -0.00004   1.85020
    A7        2.08471  -0.00000   0.00000   0.00001   0.00001   2.08472
    A8        2.05254   0.00000   0.00000   0.00005   0.00005   2.05258
    A9        1.96014   0.00000   0.00000   0.00003   0.00003   1.96017
   A10        1.91657  -0.00000   0.00000   0.00001   0.00001   1.91658
   A11        1.86624  -0.00000   0.00000  -0.00000  -0.00000   1.86623
   A12        1.85043  -0.00000   0.00000  -0.00001  -0.00001   1.85042
   A13        1.97036  -0.00000   0.00000   0.00000   0.00000   1.97036
   A14        1.95192   0.00000   0.00000   0.00001   0.00001   1.95194
   A15        1.90254  -0.00000   0.00000  -0.00001  -0.00001   1.90253
   A16        1.89448   0.00000   0.00000   0.00001   0.00001   1.89449
   A17        1.92886   0.00000   0.00000  -0.00000  -0.00000   1.92886
   A18        1.95421  -0.00000   0.00000  -0.00002  -0.00002   1.95420
   A19        1.89571   0.00000   0.00000   0.00001   0.00001   1.89572
   A20        1.88539   0.00000   0.00000   0.00001   0.00001   1.88540
   A21        1.90381   0.00000   0.00000  -0.00001  -0.00001   1.90380
   A22        1.95711   0.00000   0.00000   0.00001   0.00001   1.95712
   A23        1.86634  -0.00000   0.00000  -0.00004  -0.00004   1.86630
   A24        1.83395  -0.00000   0.00000  -0.00003  -0.00003   1.83392
   A25        1.96178   0.00000   0.00000   0.00001   0.00001   1.96179
   A26        1.92852   0.00000   0.00000   0.00003   0.00003   1.92855
   A27        1.91075   0.00000   0.00000   0.00000   0.00000   1.91075
   A28        1.87084  -0.00000   0.00000  -0.00002  -0.00002   1.87082
   A29        1.93647   0.00000   0.00000  -0.00000  -0.00000   1.93647
   A30        1.95863  -0.00000   0.00000  -0.00001  -0.00001   1.95862
   A31        1.89538   0.00000   0.00000   0.00001   0.00001   1.89540
   A32        1.89174   0.00000   0.00000   0.00003   0.00003   1.89177
   A33        1.90893  -0.00000   0.00000  -0.00001  -0.00001   1.90892
    D1       -2.46188   0.00000   0.00000  -0.00010  -0.00010  -2.46198
    D2        1.34456  -0.00000   0.00000  -0.00024  -0.00024   1.34433
    D3        1.72189   0.00000   0.00000  -0.00009  -0.00009   1.72180
    D4       -0.75485  -0.00000   0.00000  -0.00023  -0.00023  -0.75508
    D5       -0.38110   0.00000   0.00000  -0.00009  -0.00009  -0.38119
    D6       -2.85784  -0.00000   0.00000  -0.00023  -0.00023  -2.85807
    D7        2.20516  -0.00000   0.00000   0.00007   0.00007   2.20523
    D8       -1.93459  -0.00000   0.00000   0.00008   0.00008  -1.93451
    D9        0.09359  -0.00000   0.00000   0.00006   0.00006   0.09365
   D10       -1.56868   0.00000   0.00000   0.00021   0.00021  -1.56847
   D11        0.57476   0.00000   0.00000   0.00022   0.00022   0.57498
   D12        2.60294   0.00000   0.00000   0.00020   0.00020   2.60314
   D13       -1.00579   0.00000   0.00000  -0.00004  -0.00004  -1.00583
   D14        1.15205   0.00000   0.00000  -0.00004  -0.00004   1.15201
   D15       -3.10139  -0.00000   0.00000  -0.00007  -0.00007  -3.10147
   D16        2.75541  -0.00000   0.00000  -0.00017  -0.00017   2.75524
   D17       -1.36993   0.00000   0.00000  -0.00017  -0.00017  -1.37010
   D18        0.65981  -0.00000   0.00000  -0.00020  -0.00020   0.65961
   D19        3.14011  -0.00000   0.00000   0.00003   0.00003   3.14014
   D20       -1.06585   0.00000   0.00000   0.00005   0.00005  -1.06581
   D21        1.06036  -0.00000   0.00000   0.00003   0.00003   1.06039
   D22        1.05944   0.00000   0.00000   0.00003   0.00003   1.05947
   D23        3.13666   0.00000   0.00000   0.00004   0.00004   3.13671
   D24       -1.02031   0.00000   0.00000   0.00002   0.00002  -1.02029
   D25       -1.09383  -0.00000   0.00000   0.00003   0.00003  -1.09380
   D26        0.98339   0.00000   0.00000   0.00005   0.00005   0.98344
   D27        3.10961  -0.00000   0.00000   0.00003   0.00003   3.10963
   D28       -3.02723   0.00000   0.00000   0.00005   0.00005  -3.02718
   D29       -0.96042   0.00000   0.00000   0.00006   0.00006  -0.96036
   D30        1.18097  -0.00000   0.00000   0.00003   0.00003   1.18100
   D31        1.15257   0.00000   0.00000   0.00008   0.00008   1.15265
   D32       -3.06380   0.00000   0.00000   0.00009   0.00009  -3.06372
   D33       -0.92242   0.00000   0.00000   0.00006   0.00006  -0.92235
   D34       -0.98761  -0.00000   0.00000   0.00005   0.00005  -0.98756
   D35        1.07920  -0.00000   0.00000   0.00005   0.00005   1.07926
   D36       -3.06259  -0.00000   0.00000   0.00003   0.00003  -3.06257
         Item               Value     Threshold  Converged?
 Maximum Force            0.000015     0.000450     YES
 RMS     Force            0.000002     0.000300     YES
 Maximum Displacement     0.000431     0.001800     YES
 RMS     Displacement     0.000154     0.001200     YES
 Predicted change in Energy=-2.585803D-09
 Optimization completed.
    -- Stationary point found.
                           ----------------------------
                           !   Optimized Parameters   !
                           ! (Angstroms and Degrees)  !
 --------------------------                            --------------------------
 ! Name  Definition              Value          Derivative Info.                !
 --------------------------------------------------------------------------------
 ! R1    R(1,2)                  1.384          -DE/DX =    0.0                 !
 ! R2    R(1,3)                  1.3888         -DE/DX =    0.0                 !
 ! R3    R(1,4)                  1.3851         -DE/DX =    0.0                 !
 ! R4    R(1,5)                  1.5989         -DE/DX =    0.0                 !
 ! R5    R(5,6)                  1.4688         -DE/DX =    0.0                 !
 ! R6    R(5,8)                  1.4686         -DE/DX =    0.0                 !
 ! R7    R(6,7)                  1.5107         -DE/DX =    0.0                 !
 ! R8    R(6,10)                 1.0958         -DE/DX =    0.0                 !
 ! R9    R(6,11)                 1.0896         -DE/DX =    0.0                 !
 ! R10   R(7,12)                 1.0974         -DE/DX =    0.0                 !
 ! R11   R(7,13)                 1.0962         -DE/DX =    0.0                 !
 ! R12   R(7,14)                 1.0972         -DE/DX =    0.0                 !
 ! R13   R(8,9)                  1.5095         -DE/DX =    0.0                 !
 ! R14   R(8,15)                 1.0962         -DE/DX =    0.0                 !
 ! R15   R(8,16)                 1.0937         -DE/DX =    0.0                 !
 ! R16   R(9,17)                 1.0975         -DE/DX =    0.0                 !
 ! R17   R(9,18)                 1.0958         -DE/DX =    0.0                 !
 ! R18   R(9,19)                 1.0939         -DE/DX =    0.0                 !
 ! A1    A(2,1,3)              112.9514         -DE/DX =    0.0                 !
 ! A2    A(2,1,4)              112.1272         -DE/DX =    0.0                 !
 ! A3    A(2,1,5)              105.7613         -DE/DX =    0.0                 !
 ! A4    A(3,1,4)              113.0199         -DE/DX =    0.0                 !
 ! A5    A(3,1,5)              106.254          -DE/DX =    0.0                 !
 ! A6    A(4,1,5)              106.0106         -DE/DX =    0.0                 !
 ! A7    A(1,5,6)              119.4449         -DE/DX =    0.0                 !
 ! A8    A(1,5,8)              117.6017         -DE/DX =    0.0                 !
 ! A9    A(6,5,8)              112.308          -DE/DX =    0.0                 !
 ! A10   A(5,6,7)              109.8113         -DE/DX =    0.0                 !
 ! A11   A(5,6,10)             106.9275         -DE/DX =    0.0                 !
 ! A12   A(5,6,11)             106.022          -DE/DX =    0.0                 !
 ! A13   A(7,6,10)             112.8933         -DE/DX =    0.0                 !
 ! A14   A(7,6,11)             111.837          -DE/DX =    0.0                 !
 ! A15   A(10,6,11)            109.0078         -DE/DX =    0.0                 !
 ! A16   A(6,7,12)             108.5457         -DE/DX =    0.0                 !
 ! A17   A(6,7,13)             110.5157         -DE/DX =    0.0                 !
 ! A18   A(6,7,14)             111.9681         -DE/DX =    0.0                 !
 ! A19   A(12,7,13)            108.6163         -DE/DX =    0.0                 !
 ! A20   A(12,7,14)            108.0252         -DE/DX =    0.0                 !
 ! A21   A(13,7,14)            109.0802         -DE/DX =    0.0                 !
 ! A22   A(5,8,9)              112.134          -DE/DX =    0.0                 !
 ! A23   A(5,8,15)             106.9335         -DE/DX =    0.0                 !
 ! A24   A(5,8,16)             105.0774         -DE/DX =    0.0                 !
 ! A25   A(9,8,15)             112.4017         -DE/DX =    0.0                 !
 ! A26   A(9,8,16)             110.4959         -DE/DX =    0.0                 !
 ! A27   A(15,8,16)            109.4776         -DE/DX =    0.0                 !
 ! A28   A(8,9,17)             107.1913         -DE/DX =    0.0                 !
 ! A29   A(8,9,18)             110.9515         -DE/DX =    0.0                 !
 ! A30   A(8,9,19)             112.221          -DE/DX =    0.0                 !
 ! A31   A(17,9,18)            108.5973         -DE/DX =    0.0                 !
 ! A32   A(17,9,19)            108.3887         -DE/DX =    0.0                 !
 ! A33   A(18,9,19)            109.3737         -DE/DX =    0.0                 !
 ! D1    D(2,1,5,6)           -141.0554         -DE/DX =    0.0                 !
 ! D2    D(2,1,5,8)             77.0379         -DE/DX =    0.0                 !
 ! D3    D(3,1,5,6)             98.657          -DE/DX =    0.0                 !
 ! D4    D(3,1,5,8)            -43.2497         -DE/DX =    0.0                 !
 ! D5    D(4,1,5,6)            -21.8356         -DE/DX =    0.0                 !
 ! D6    D(4,1,5,8)           -163.7424         -DE/DX =    0.0                 !
 ! D7    D(1,5,6,7)            126.3462         -DE/DX =    0.0                 !
 ! D8    D(1,5,6,10)          -110.8437         -DE/DX =    0.0                 !
 ! D9    D(1,5,6,11)             5.3625         -DE/DX =    0.0                 !
 ! D10   D(8,5,6,7)            -89.8788         -DE/DX =    0.0                 !
 ! D11   D(8,5,6,10)            32.9312         -DE/DX =    0.0                 !
 ! D12   D(8,5,6,11)           149.1374         -DE/DX =    0.0                 !
 ! D13   D(1,5,8,9)            -57.6273         -DE/DX =    0.0                 !
 ! D14   D(1,5,8,15)            66.0079         -DE/DX =    0.0                 !
 ! D15   D(1,5,8,16)          -177.6968         -DE/DX =    0.0                 !
 ! D16   D(6,5,8,9)            157.8735         -DE/DX =    0.0                 !
 ! D17   D(6,5,8,15)           -78.4913         -DE/DX =    0.0                 !
 ! D18   D(6,5,8,16)            37.804          -DE/DX =    0.0                 !
 ! D19   D(5,6,7,12)           179.915          -DE/DX =    0.0                 !
 ! D20   D(5,6,7,13)           -61.069          -DE/DX =    0.0                 !
 ! D21   D(5,6,7,14)            60.7541         -DE/DX =    0.0                 !
 ! D22   D(10,6,7,12)           60.7015         -DE/DX =    0.0                 !
 ! D23   D(10,6,7,13)          179.7175         -DE/DX =    0.0                 !
 ! D24   D(10,6,7,14)          -58.4594         -DE/DX =    0.0                 !
 ! D25   D(11,6,7,12)          -62.6717         -DE/DX =    0.0                 !
 ! D26   D(11,6,7,13)           56.3443         -DE/DX =    0.0                 !
 ! D27   D(11,6,7,14)          178.1674         -DE/DX =    0.0                 !
 ! D28   D(5,8,9,17)          -173.4476         -DE/DX =    0.0                 !
 ! D29   D(5,8,9,18)           -55.028          -DE/DX =    0.0                 !
 ! D30   D(5,8,9,19)            67.6645         -DE/DX =    0.0                 !
 ! D31   D(15,8,9,17)           66.0374         -DE/DX =    0.0                 !
 ! D32   D(15,8,9,18)         -175.543          -DE/DX =    0.0                 !
 ! D33   D(15,8,9,19)          -52.8505         -DE/DX =    0.0                 !
 ! D34   D(16,8,9,17)          -56.5858         -DE/DX =    0.0                 !
 ! D35   D(16,8,9,18)           61.8338         -DE/DX =    0.0                 !
 ! D36   D(16,8,9,19)         -175.4737         -DE/DX =    0.0                 !
 --------------------------------------------------------------------------------
 GradGradGradGradGradGradGradGradGradGradGradGradGradGradGradGradGradGrad


 ----------------------------------------------------------------------

 Electric dipole moment (input orientation):
 (Debye = 10**-18 statcoulomb cm , SI units = C m)
                  (au)            (Debye)         (10**-30 SI)
   Tot        0.303296D+01      0.770902D+01      0.257145D+02
   x          0.256843D+01      0.652830D+01      0.217761D+02
   y         -0.137620D+01     -0.349796D+01     -0.116679D+02
   z          0.841482D+00      0.213883D+01      0.713438D+01

 Dipole polarizability, Alpha (input orientation).
 (esu units = cm**3 , SI units = C**2 m**2 J**-1)
 Alpha(0;0):
               (au)            (10**-24 esu)      (10**-40 SI)
   iso        0.858887D+02      0.127274D+02      0.141611D+02
   aniso      0.103264D+02      0.153022D+01      0.170260D+01
   xx         0.846015D+02      0.125367D+02      0.139489D+02
   yx         0.110168D+01      0.163253D+00      0.181643D+00
   yy         0.920254D+02      0.136368D+02      0.151729D+02
   zx         0.832917D+00      0.123426D+00      0.137329D+00
   zy         0.148998D+01      0.220793D+00      0.245665D+00
   zz         0.810391D+02      0.120088D+02      0.133615D+02

 ----------------------------------------------------------------------

 Dipole orientation:
     5         -0.72984292         -0.13612548         -3.51990829
     9          1.57423103          0.62227131         -4.49797641
     9         -2.64041053          1.61690756         -3.92480943
     9         -1.37898888         -2.55306713         -4.28682605
     8         -0.34129936         -0.28753802         -0.52724908
     6         -1.53104959         -2.34902332          0.90053539
     6          0.43788295         -3.71089331          2.45587767
     6         -0.31951064          2.09909688          0.88893812
     6          1.69879830          3.88516076         -0.04584697
     1         -3.02395912         -1.49862947          2.05641059
     1         -2.39162188         -3.58806631         -0.50078144
     1         -0.49198854         -5.23800436          3.50660080
     1          1.88685031         -4.53937803          1.22882941
     1          1.35022128         -2.45163640          3.82722140
     1         -2.22069104          2.90762689          0.73796209
     1          0.04525610          1.55738356          2.84978434
     1          1.72948351          5.50630712          1.24728704
     1          3.56095413          2.97995609         -0.01436841
     1          1.30602759          4.57949123         -1.95280986

 Electric dipole moment (dipole orientation):
 (Debye = 10**-18 statcoulomb cm , SI units = C m)
                  (au)            (Debye)         (10**-30 SI)
   Tot        0.303296D+01      0.770902D+01      0.257145D+02
   x          0.000000D+00      0.000000D+00      0.000000D+00
   y          0.000000D+00      0.000000D+00      0.000000D+00
   z          0.303296D+01      0.770902D+01      0.257145D+02

 Dipole polarizability, Alpha (dipole orientation).
 (esu units = cm**3 , SI units = C**2 m**2 J**-1)
 Alpha(0;0):
               (au)            (10**-24 esu)      (10**-40 SI)
   iso        0.858887D+02      0.127274D+02      0.141611D+02
   aniso      0.103264D+02      0.153022D+01      0.170260D+01
   xx         0.816313D+02      0.120965D+02      0.134592D+02
   yx         0.284563D+01      0.421679D+00      0.469181D+00
   yy         0.910093D+02      0.134862D+02      0.150054D+02
   zx         0.860260D-01      0.127477D-01      0.141838D-01
   zy        -0.221238D+01     -0.327841D+00     -0.364773D+00
   zz         0.850254D+02      0.125995D+02      0.140188D+02

 ----------------------------------------------------------------------
 Unable to Open any file for archive entry.
 1\1\GINC-B-DFT-5--8CA45D19513E-OUNGKHDAJN\Freq\RwB97XD\Aug-CC-pVDZ\C4H
 10B1F3O1\ROOT\24-May-2026\0\\#N Geom=AllCheck Guess=TCheck SCRF=Check 
 GenChk RwB97XD/Aug-CC-pVDZ Freq\\BF3OEt2_THF | solvent model: THF\\0,1
 \B,-1.7684375518,0.6685804186,-0.2224081674\F,-1.5512291627,1.60682284
 5,-1.2164242042\F,-2.114300563,1.2398397236,0.9952505501\F,-2.64750239
 72,-0.3234534402,-0.6244455964\O,-0.3612615606,-0.0553615979,0.0064943
 45\C,-0.3257172382,-1.5026408922,0.2542881273\C,0.611500664,-2.1672135
 959,-0.7266966462\C,0.6583213242,0.6674613946,0.7777152729\C,0.9921771
 653,2.0059942427,0.164870023\H,-0.0188896293,-1.6403358814,1.297196606
 6\H,-1.3506552033,-1.8531446692,0.1366850484\H,0.6234518695,-3.2453863
 722,-0.5224105726\H,0.2660665637,-2.0096982687,-1.755102219\H,1.638239
 6231,-1.7923002723,-0.6318383233\H,0.2780866968,0.7599897009,1.8016600
 63\H,1.5354683577,0.0142368661,0.7720677267\H,1.8368347367,2.419988272
 6,0.7302335847\H,1.2944156087,1.8930343593,-0.8823440356\H,0.156969696
 5,2.7095681668,0.2276234171\\Version=ES64L-G16RevC.01\State=1-A\HF=-55
 8.1503388\RMSD=2.704e-09\RMSF=4.241e-06\ZeroPoint=0.1516832\Thermal=0.
 1625043\ETot=-557.9878346\HTot=-557.9868904\GTot=-558.0360465\Dipole=2
 .5684308,-1.3762038,0.8414823\DipoleDeriv=2.3841542,-0.1779457,0.12563
 ,-0.1812376,2.1099045,-0.0765958,0.0732792,-0.048939,2.0713849,-0.6077
 395,-0.0256687,0.0121479,0.0032911,-0.8496656,0.3299837,-0.032753,0.36
 4265,-0.8659199,-0.6913638,0.1343911,0.1415529,0.1344181,-0.6588036,-0
 .2072347,0.2082289,-0.2696954,-0.9711821,-0.9310822,-0.2501141,-0.1747
 525,-0.2418037,-0.8387574,-0.1258212,-0.1856786,-0.1152351,-0.5628753,
 -1.2393033,0.0213906,-0.29301,0.1318075,-1.5694519,-0.101121,-0.298529
 8,-0.0881186,-0.6109564,0.2054131,-0.1544426,-0.0581909,-0.1465838,1.2
 316219,0.0740992,-0.0593108,-0.0344101,0.3630859,0.0380572,0.0974003,0
 .0615687,0.0407,-0.0572973,-0.0341904,0.080255,-0.0644422,0.0151651,0.
 6664733,0.4676549,0.186369,0.3713097,0.6460275,0.1764263,0.2236408,0.2
 782443,0.5318856,0.0278151,-0.0948235,-0.0122057,-0.0800331,-0.0820991
 ,0.0165636,0.0006542,0.0218175,0.055232,0.0761614,0.0510651,-0.0481995
 ,0.0201296,-0.0049758,-0.0627579,-0.0164971,0.0283661,-0.1257135,0.013
 4883,-0.0686277,0.0380708,-0.0234617,0.0091565,-0.0239282,0.0118074,-0
 .0299821,0.0985717,0.0937011,0.0005219,0.0234672,0.0130888,-0.127734,0
 .0265326,0.0187215,0.0356961,0.0725857,0.0403441,0.031012,-0.0673458,0
 .0267558,0.0868031,0.0410587,-0.0293484,-0.0032352,-0.1152221,-0.11919
 48,-0.060883,0.0049061,-0.0995614,0.0647353,-0.0177901,-0.0242957,-0.0
 408538,0.0579791,0.0301016,-0.0604602,0.0986316,-0.0594691,0.0200725,0
 .016419,0.0040084,-0.0179666,-0.0997816,-0.0431388,0.047184,-0.0263195
 ,0.0825115,-0.0444671,0.0125395,0.0009252,-0.0315859,0.0718285,-0.0336
 348,-0.0848836,-0.0931189,-0.0638972,0.0343895,-0.021225,-0.0998288,-0
 .0240547,0.0327348,0.0893269,0.0098681,0.0530643,0.0066407,0.0404849,-
 0.0381501,0.0768712,0.0167588,-0.106396,0.0004209,0.117361,0.0277344,0
 .065395,-0.0099437,0.0151917,0.0478503,0.0233709,0.0875936\Polar=84.60
 15211,1.1016828,92.0254486,0.8329168,1.4899839,81.0390803\AAT=0.028609
 9,-0.1736624,-0.5022669,0.2459693,-0.0106451,-1.4291743,0.4709611,1.24
 52837,-0.0205158,-0.0234625,0.4463337,0.5278755,-0.3422173,0.1803635,0
 .4721276,-0.4560289,-0.4322859,-0.1753366,0.0251634,-0.3110847,0.30778
 07,0.2823556,-0.1214061,0.4844278,-0.4241291,-0.7127417,0.1121928,-0.0
 244204,0.1177319,-0.0613809,-0.2581564,-0.0318529,0.9388062,0.1565841,
 -0.5830191,0.0626841,0.090444,0.0736471,-0.2040613,0.2128441,-0.007433
 1,-0.0743131,0.0719875,-0.0588307,-0.084278,0.0624602,-0.0864799,0.013
 7933,-0.151364,-0.0154452,0.1170132,-0.1287746,-0.1265884,-0.0297892,-
 0.086843,0.0097786,-0.0057284,-0.108857,-0.0095011,-0.1010278,0.128437
 1,0.0766672,0.082423,-0.1369197,0.0057225,0.0694795,-0.1026445,0.01441
 66,0.2665337,-0.0341216,-0.1078143,0.1069267,-0.0295285,0.0725638,0.12
 31445,0.0006923,-0.0324311,-0.0730463,-0.170017,0.0699578,0.0765236,0.
 0478829,0.1293471,0.0768389,0.0161514,0.0084408,0.0300151,0.100868,-0.
 0602366,-0.0216174,-0.0181285,-0.065939,0.0634934,0.0240697,0.0197718,
 -0.0605635,-0.1047353,0.0932496,-0.0183318,-0.0270537,0.0040666,0.2510
 336,-0.1247557,-0.0246186,-0.0802997,-0.2142594,-0.0402447,0.0484282,0
 .0731681,-0.0746952,0.0199265,0.1247941,-0.0225623,0.0176786,0.1792849
 ,0.1766571,-0.0373065,-0.0244479,0.1032692,-0.2725036,0.0164107,0.0387
 978,0.0765102,-0.0153705,-0.1402462,-0.022828,0.0573179,-0.0396953,-0.
 0437543,-0.1292411,-0.0655785,-0.0190384,0.0403953,0.1294758,0.0075477
 ,-0.0323449,-0.0068011,0.0652018,0.0828998,0.072071,0.0413533,0.008826
 3,-0.1124847,-0.0606846,-0.0804877,0.1690066,-0.0587429,-0.1136071,0.0
 125092,0.2168563,0.0694712,-0.1493154,0.071108,0.0674156,-0.1727924,-0
 .0229011,0.1179392,0.0099106,0.05209,-0.1525416,0.049582,-0.0622178,0.
 0339979,0.0096109,0.0005387,-0.0031437,-0.0154111,-0.2406825,0.1302417
 ,0.0481706,-0.0321053\GPTens=-0.3558321,-5.8206033,-19.192046,11.85727
 8,-0.2602587,-47.0527881,17.8072698,44.8531943,1.1174798\OptRot=0.3636
 924,-0.7487489,0.0213772,-0.7487489,0.3405459,-1.2706923,0.0213772,-1.
 2706923,-0.2028492\DQPolar=113.362749,-50.6062734,-62.7564756,-26.6536
 288,8.7224626,4.5476545,33.2718267,-60.8298272,27.5580006,112.9968112,
 4.1268698,3.9678351,-3.1068309,-13.9448167,17.0516476,4.3865426,86.281
 8825,-29.7689206\Quadrupole=-1.5399707,2.9011438,-1.3611731,1.1891905,
 1.0039971,0.3832325\PG=C01 [X(C4H10B1F3O1)]\NImag=0\\0.25074562,0.1019
 4629,0.39384815,-0.02379144,0.01580583,0.41846612,-0.04597992,-0.02066
 566,0.02031691,0.05641445,-0.02572690,-0.12779225,0.09128401,0.0327805
 3,0.17860700,0.02477651,0.08844270,-0.14205846,-0.02979460,-0.13368455
 ,0.19246003,-0.05277237,0.01609796,0.04183105,0.00588079,-0.00052679,0
 .01347564,0.06749463,0.01490238,-0.07400555,-0.06626047,-0.00356213,0.
 00855170,0.01477615,-0.02803633,0.09534045,0.03636514,-0.06160706,-0.1
 8207731,0.01641954,0.00512249,-0.04907904,-0.06063345,0.09795402,0.255
 24313,-0.11480779,-0.08668575,-0.03319600,-0.00537604,-0.02313351,0.00
 526065,0.00604116,-0.00598657,-0.00674548,0.16238907,-0.08178762,-0.13
 919514,-0.03790326,-0.02940904,-0.03701359,0.01158425,-0.01271109,-0.0
 1908425,-0.02890325,0.12173294,0.19489265,-0.03296493,-0.03933246,-0.0
 6011210,0.01085410,0.01807466,0.00662951,-0.01455069,-0.03172881,-0.02
 105554,0.05304421,0.05313184,0.07413985,-0.02767878,-0.01703624,0.0083
 2531,-0.00539039,0.01799527,-0.01083611,-0.02486341,0.02546315,0.01526
 607,-0.04048042,-0.00592880,-0.01266773,0.33324046,-0.01395371,-0.0486
 4669,-0.01128273,0.02343842,-0.02280697,0.02127133,0.02534981,-0.01171
 308,-0.01343477,-0.01049050,0.00451174,-0.00119726,0.00580064,0.432751
 42,0.00150879,-0.00640742,-0.02628367,-0.01327950,0.01847654,-0.006609
 43,0.01467875,-0.01245420,-0.00100694,-0.01775147,-0.00188474,-0.00067
 242,0.10862879,0.01125613,0.20709353,0.00925855,0.01364054,-0.00116563
 ,-0.00201050,0.00200609,-0.00212467,-0.00259287,0.00026490,0.00162903,
 -0.00135384,0.00054285,-0.00087453,-0.09234229,0.00695052,-0.02119736,
 0.63614835,0.03519883,-0.01673861,0.01054835,-0.00438440,0.00584904,-0
 .00524302,-0.00680333,0.00501597,0.00367524,-0.00538047,-0.00813806,-0
 .00128811,-0.00462942,-0.13789257,0.01231908,0.04347916,0.38998765,-0.
 00069936,0.00146871,-0.00416999,-0.00209305,0.00212189,-0.00091430,0.0
 0265078,-0.00105488,-0.00124022,-0.00110243,0.00238592,0.00033804,-0.0
 1790819,0.03177032,-0.06630452,0.05089865,0.01409292,0.59224745,-0.001
 11132,-0.00051511,0.00011859,0.00020307,-0.00008884,0.00006470,0.00021
 745,-0.00006282,-0.00010688,-0.00006908,0.00078121,-0.00055181,0.00268
 192,0.00347092,-0.00121646,-0.14453889,0.03531716,0.06203476,0.5556100
 2,-0.00643664,-0.00062611,-0.00247913,0.00066344,-0.00064454,0.0009134
 9,0.00209508,-0.00096960,-0.00102031,0.00064980,0.00137549,-0.00000031
 ,0.02692271,-0.04302422,-0.01937321,0.02705117,-0.08526941,-0.03477177
 ,0.02579403,0.55964267,0.00201411,-0.00063602,0.00061956,-0.00018264,0
 .00049144,-0.00059525,-0.00070685,0.00047707,0.00055501,-0.00050996,0.
 00042559,-0.00029822,-0.00580880,0.00612966,0.00786317,0.06487407,-0.0
 4398078,-0.15231529,0.03114647,-0.03017324,0.55267983,-0.02667329,0.00
 160269,-0.01169591,0.00196529,-0.00358847,0.00297686,0.00352566,-0.003
 60633,-0.00390349,0.00167508,0.00067213,0.00057989,-0.10863865,-0.0085
 0872,-0.03743839,0.00101684,-0.02385053,0.00481102,0.00090717,0.004256
 10,-0.00141344,0.52266566,-0.01612230,0.02289315,0.00094968,0.00050272
 ,-0.00570361,0.00240554,0.00330676,-0.00433800,-0.00247948,0.00885495,
 0.00112340,0.00208691,0.00745570,-0.09944006,-0.00447420,-0.02366255,-
 0.02939084,-0.01433526,-0.00022870,0.00021763,-0.00047888,-0.10454306,
 0.53676514,-0.01446500,0.00788546,-0.00240893,0.00170125,-0.00157427,0
 .00146119,0.00233709,-0.00320858,-0.00399203,0.00458238,0.00063182,0.0
 0197662,-0.05320525,-0.02607061,-0.09887493,0.01012789,-0.00631264,0.0
 0250057,0.00069372,0.00047566,-0.00150969,-0.07583890,-0.03260331,0.55
 265985,0.00042872,-0.00182238,-0.00002953,-0.00302850,-0.00050057,-0.0
 0110471,-0.00069737,0.00032754,0.00048138,-0.00032223,-0.00005002,-0.0
 0015868,-0.01039045,-0.03270401,0.00464493,-0.00400318,0.00210828,-0.0
 0151701,0.00008137,-0.00040422,0.00002973,-0.08080150,-0.01050245,0.01
 320762,0.57728968,-0.00029131,0.00161640,-0.00080871,-0.00258422,-0.00
 116196,-0.00174579,-0.00043731,-0.00053787,0.00064522,-0.00017659,-0.0
 0023430,0.00002501,-0.00839014,-0.01793382,0.00146358,-0.00214644,0.00
 064220,-0.00030915,-0.00011394,-0.00003814,0.00008666,-0.01794624,-0.1
 9253158,0.05867030,-0.03444777,0.52056126,0.00237470,-0.00059497,0.000
 62828,-0.00240850,-0.00097900,-0.00170961,-0.00052366,0.00038839,0.000
 50405,-0.00059756,-0.00020401,-0.00023394,-0.00660588,-0.02518328,0.00
 863902,-0.00410838,0.00093173,-0.00179854,0.00002058,-0.00033190,0.000
 35915,0.01743280,0.06841360,-0.11330141,0.00925450,0.02510111,0.579654
 56,0.00011786,-0.00120022,-0.00071218,-0.00002763,0.00037407,-0.000218
 96,-0.00009172,0.00012843,0.00037731,-0.00067237,0.00140473,0.00000316
 ,0.00004714,-0.00077944,-0.00028285,-0.07620221,0.01011492,-0.07725849
 ,0.00740084,-0.00211488,0.02154283,-0.00038745,-0.00195010,0.00084585,
 -0.00002031,0.00010297,0.00005060,0.07536632,-0.00613139,0.00064831,0.
 00075353,0.00142224,-0.00157458,0.00107884,0.00054723,-0.00035611,-0.0
 0062407,0.00038332,0.00104884,0.00003384,0.01317157,-0.02748697,0.0337
 3262,0.00213783,-0.04768154,0.01831633,-0.00521033,0.00378822,-0.01442
 572,0.00295884,0.00188778,0.00402988,-0.00027757,-0.00009152,-0.000407
 20,-0.01010088,0.06771515,0.00183130,-0.00085593,-0.00038473,-0.000237
 56,0.00039634,-0.00019367,-0.00024723,0.00019138,0.00027869,-0.0002514
 3,0.00003810,-0.00006851,-0.00210325,0.00513914,-0.00216834,-0.0751289
 1,0.02840800,-0.29774087,-0.00701789,0.00138453,-0.01755994,-0.0022698
 7,-0.00161284,0.00183584,0.00044630,-0.00021202,0.00016624,0.08045857,
 -0.03119432,0.31690847,0.00067188,0.00110832,0.00011169,-0.00010318,-0
 .00034329,0.00009482,0.00003001,-0.00031637,-0.00027680,-0.00459730,0.
 00477569,-0.00224536,0.00422820,0.00174573,0.00011740,-0.30990919,-0.0
 9296406,-0.03170967,-0.01615973,-0.00450129,-0.00237468,-0.00003034,0.
 00071586,0.00029800,0.00030583,0.00023073,0.00003281,-0.00453472,-0.00
 131133,0.00038070,0.32918886,-0.00441277,-0.00338441,-0.00113587,0.000
 55394,0.00054645,-0.00013076,0.00056074,0.00030175,0.00034355,0.002211
 32,0.00044337,0.00063765,-0.03226758,-0.02557331,-0.00656537,-0.076380
 63,-0.07129590,-0.00752816,0.01521587,0.00663947,0.00163936,0.00244449
 ,-0.00336640,0.00518372,-0.00145473,-0.00051899,-0.00155602,0.00385402
 ,0.00330248,-0.00023304,0.08899693,0.09363995,0.00078232,0.00082586,0.
 00143692,-0.00009334,-0.00027008,0.00002674,-0.00011863,0.00001397,-0.
 00025009,-0.00166851,0.00096926,-0.00100365,0.00576531,0.00543055,0.00
 065215,-0.03588621,-0.01391765,-0.05643256,0.02317218,0.00685392,0.002
 92102,-0.00109666,-0.00057802,-0.00064312,0.00043377,0.00008013,0.0001
 7817,-0.02729076,-0.00979690,-0.00104104,0.03343219,0.01174487,0.05500
 588,0.00155283,-0.00026318,0.00037845,-0.00018472,0.00026090,-0.000248
 94,-0.00039505,0.00022547,0.00025982,-0.00024029,-0.00016956,-0.000015
 57,-0.00280119,0.00570969,0.00277238,0.00042829,0.01717170,-0.00670204
 ,-0.04436172,0.00139018,0.00150560,-0.00122279,-0.00011889,-0.00040500
 ,0.00018986,0.00002969,0.00015373,0.00054522,-0.00022443,0.00011020,0.
 00024050,-0.00056115,-0.00067148,0.04525833,-0.00169688,0.00058263,-0.
 00057663,0.00014975,-0.00023113,0.00022069,0.00047033,-0.00027443,-0.0
 0026538,0.00029431,0.00010985,0.00009623,0.00258348,-0.00237549,-0.002
 10705,-0.00265885,-0.01328782,0.00527236,0.00368167,-0.31103962,0.0497
 1763,0.00092637,0.00069595,0.00055123,-0.00005401,-0.00003423,-0.00007
 093,-0.00017737,0.00040158,-0.00025682,0.00018528,0.00041201,0.0000923
 7,-0.00462054,0.33606007,-0.00168462,0.00016722,-0.00059955,0.00020526
 ,-0.00027291,0.00032488,0.00046861,-0.00024125,-0.00027575,0.00024499,
 0.00015037,0.00011756,0.00412568,-0.00626995,-0.00184791,-0.00286554,-
 0.01829132,0.00439342,0.00093956,0.05216223,-0.05538185,0.00093908,0.0
 0029368,0.00055667,-0.00011370,-0.00002821,-0.00015816,-0.00078513,0.0
 0060616,0.00022272,-0.00001034,0.00030651,0.00058306,-0.00190904,-0.05
 382533,0.05589783,0.00007437,0.00015418,0.00006758,-0.00003852,-0.0000
 2216,0.00001600,0.00002167,-0.00004587,-0.00006939,0.00004957,-0.00013
 508,-0.00006689,0.00072361,-0.00109119,-0.00109528,0.00661467,-0.00409
 626,0.02337302,-0.07703888,0.01366677,-0.08627011,-0.00026141,-0.00000
 868,-0.00029643,0.00008616,0.00001348,-0.00007722,-0.00220392,0.002840
 42,0.00277978,0.00107301,-0.00067572,-0.00027392,-0.00122214,-0.000337
 38,0.00053388,0.07964540,0.00052435,-0.00007964,-0.00003916,-0.0001028
 9,0.00009961,-0.00004388,-0.00011806,0.00007193,0.00011661,-0.00014247
 ,-0.00006754,0.00002942,-0.00106476,0.00236876,0.00018310,-0.00398892,
 -0.00036869,-0.01637756,0.01249381,-0.05111169,0.04016628,-0.00042762,
 -0.00022077,-0.00041510,0.00004869,0.00001128,0.00006326,0.00215031,-0
 .00067637,-0.00211599,-0.00037449,0.00015069,0.00080292,0.00991300,-0.
 00234666,0.02871004,-0.01596645,0.05113609,-0.00035108,0.00011439,-0.0
 0028781,0.00005991,-0.00008270,0.00011908,0.00003680,-0.00001196,0.000
 02228,0.00010966,-0.00010195,0.00012396,-0.00032967,-0.00012829,0.0018
 1024,-0.00703211,0.00468953,-0.02151477,-0.08293469,0.03738398,-0.2871
 1316,0.00007284,0.00019430,0.00019438,0.00001147,-0.00001438,-0.000037
 71,0.00309324,-0.00212572,-0.00126606,-0.00014451,0.00010548,0.0008787
 5,-0.00093311,-0.00054511,-0.00330494,0.08772414,-0.03999021,0.3112471
 3,-0.00013856,-0.00062920,-0.00013508,0.00003122,0.00015436,-0.0000778
 7,0.00008818,0.00007412,0.00008602,-0.00010401,0.00047340,-0.00011757,
 0.00124552,-0.00002554,-0.00046442,-0.01920594,-0.00820291,-0.00228533
 ,-0.28377137,-0.08822533,-0.02411119,-0.00052954,0.00010721,-0.0005992
 4,0.00017193,0.00004556,0.00005133,0.00086718,0.00025671,-0.00005326,-
 0.00059920,0.00205584,0.00317404,0.00179661,0.00128117,-0.00001408,-0.
 00764133,-0.00314117,0.00049044,0.30696529,0.00070166,-0.00002240,0.00
 022688,-0.00009320,0.00006319,-0.00007529,-0.00020127,0.00010611,0.000
 09263,-0.00010888,-0.00022159,0.00003153,-0.00097734,0.00206163,0.0008
 6308,0.01682436,0.00385233,0.00150668,-0.09014715,-0.07821685,-0.00887
 222,0.00050359,-0.00059674,-0.00065923,-0.00014266,0.00013098,0.000039
 95,-0.00083487,0.00011940,0.00050444,0.00192533,-0.00070874,-0.0024461
 5,-0.02889666,-0.00870596,-0.00351756,0.00570992,0.00096968,0.00033314
 ,0.09579929,0.08189890,0.00017084,0.00040199,0.00004373,-0.00002570,-0
 .00008220,0.00004033,-0.00006324,-0.00003362,-0.00002273,0.00014765,-0
 .00044746,0.00016625,-0.00187394,0.00016578,0.00048729,0.02279366,0.01
 093908,0.00209031,-0.02568249,-0.01076310,-0.05021697,0.00075080,-0.00
 026639,0.00023420,-0.00029962,0.00005840,-0.00001646,-0.00047203,0.000
 62643,0.00094194,0.00223211,-0.00286163,-0.00240611,0.00536071,0.00158
 077,-0.00065548,-0.02645520,-0.01131833,-0.00098600,0.02353996,0.01296
 968,0.05111925,0.00235067,-0.00177849,-0.00181220,-0.00029609,0.000472
 94,0.00009856,-0.00065125,0.00029696,0.00061629,-0.00030789,0.00021259
 ,0.00031682,-0.00185335,-0.01299062,-0.03325098,-0.00054237,0.00339534
 ,-0.00165732,-0.00031587,-0.00047847,0.00026748,-0.08744656,0.01377268
 ,0.10296104,-0.00075935,0.00164101,0.00568937,0.00027049,0.00020286,0.
 00075512,0.00003328,-0.00004097,-0.00001289,0.00025935,-0.00005550,-0.
 00002504,0.00005997,0.00006781,0.00005436,0.00025829,-0.00001060,-0.00
 002675,0.09368939,0.00199344,-0.00089735,0.00091908,-0.00002371,0.0004
 6356,-0.00034565,-0.00020476,0.00005738,0.00020946,-0.00039368,-0.0001
 6396,-0.00010448,-0.00376017,-0.00746115,-0.02029911,-0.00001385,0.003
 33620,-0.00230808,0.00037966,-0.00042238,0.00010372,0.01062121,-0.0525
 1569,-0.01802751,-0.01075680,0.00357933,0.02918769,0.00011896,-0.00051
 724,0.00065120,0.00003574,0.00000324,0.00019712,0.00008192,-0.00006099
 ,-0.00005327,-0.00013567,-0.00004805,0.00012138,-0.00016611,0.00002820
 ,0.00007550,-0.00377891,0.05824617,0.00302545,-0.00252765,-0.00187897,
 -0.00048761,0.00050695,-0.00002795,0.00061827,0.00072780,0.00168849,-0
 .00060706,0.00012354,0.00011139,-0.00711706,-0.00936093,-0.01982023,-0
 .00020757,0.00250946,-0.00064325,0.00000138,-0.00030270,0.00033796,0.0
 9419847,-0.01881124,-0.28086160,0.00533065,-0.00088616,-0.00911452,0.0
 0010790,-0.00070689,0.00012454,0.00004368,-0.00023931,0.00017258,0.000
 12799,-0.00009086,-0.00005457,-0.00003807,0.00013058,0.00007941,0.0000
 6301,0.00003417,-0.00002088,-0.09584661,0.02558078,0.30692990,0.003929
 44,-0.00413013,0.00070031,-0.00010408,0.00089878,-0.00056443,-0.000412
 27,0.00049290,0.00028178,-0.00184012,-0.00043540,-0.00057267,-0.030705
 41,0.00710192,-0.00814409,-0.00077138,0.00340850,-0.00078969,0.0003144
 0,-0.00026885,-0.00001290,-0.22192038,0.13193971,0.00630371,0.00834704
 ,-0.00627412,0.00035006,-0.00048059,-0.00075883,0.00065750,0.00017366,
 -0.00007506,0.00041004,0.00017077,0.00002526,-0.00001534,0.00008518,0.
 00012943,0.00009952,0.00061088,-0.00006228,-0.00013934,-0.00604210,0.0
 0692011,0.00023165,0.24736120,0.00091177,-0.00290233,-0.00038070,0.000
 05510,0.00069043,-0.00019069,0.00001644,0.00047215,0.00035341,-0.00131
 671,-0.00006581,-0.00040289,-0.02293378,0.00657030,-0.00540847,-0.0026
 3405,0.00043829,0.00004014,-0.00071277,-0.00030096,-0.00073250,0.14370
 998,-0.15069433,-0.00199005,0.02254015,-0.01903164,-0.00120532,-0.0011
 5154,-0.00070795,-0.00009452,0.00009725,-0.00000383,0.00001091,0.00003
 742,0.00013874,0.00018302,0.00014148,0.00013940,0.00012157,0.00014712,
 -0.00083704,-0.00107850,0.00101513,-0.00017254,0.00142293,-0.13741901,
 0.16876486,0.00253101,-0.00346116,-0.00105605,-0.00008727,0.00050820,-
 0.00015318,0.00030529,0.00063710,0.00114208,-0.00145297,-0.00010172,-0
 .00026466,-0.02681004,0.00837552,-0.00518685,-0.00017498,0.00164696,0.
 00094594,-0.00067446,-0.00015792,-0.00023605,0.01320268,-0.00752683,-0
 .05126576,-0.01137580,0.00991755,0.00065568,0.00060572,0.00017592,-0.0
 0005764,-0.00000070,0.00004148,-0.00010821,0.00025335,0.00013912,0.000
 09835,0.00012397,0.00010494,-0.00000980,0.00040296,-0.00105364,-0.0007
 6514,0.02274607,-0.01704393,0.00208726,0.00017001,0.00646566,0.0532372
 3,0.00112841,0.00120091,-0.00007301,-0.00088514,-0.00062187,-0.0005406
 6,-0.00041862,-0.00022484,0.00021102,-0.00020589,-0.00027296,-0.000032
 72,0.00143180,-0.00133561,0.00122111,-0.00033063,0.00061063,-0.0001697
 8,-0.00001558,-0.00010555,0.00004164,-0.00759788,-0.00076430,-0.004839
 84,-0.20797543,-0.08053544,-0.10900537,0.00004071,0.00000621,-0.000004
 70,0.00002396,-0.00014187,-0.00000166,0.00002633,-0.00002107,-0.000035
 91,-0.00000357,0.00001614,-0.00001048,-0.00000263,0.00001772,0.0000059
 7,0.00018103,0.00017455,0.00025901,0.00062997,-0.00006637,0.00011312,0
 .22231284,0.00144450,-0.00177124,0.00063622,0.00064207,0.00084919,0.00
 012512,-0.00015013,0.00041863,0.00011834,-0.00034985,0.00014330,-0.000
 16722,-0.00269279,-0.00782351,0.00211720,-0.00163490,0.00112270,-0.000
 51751,0.00000332,-0.00015137,0.00008241,-0.02111252,-0.00840285,-0.017
 57119,-0.07837489,-0.08363335,-0.05079491,0.00002507,-0.00008624,0.000
 07516,0.00005409,-0.00064483,0.00008455,0.00006329,-0.00004381,-0.0000
 5801,0.00000192,0.00002631,-0.00001292,0.00003188,0.00001521,-0.000042
 90,0.00006762,0.00067302,0.00045922,0.00035599,0.00056479,-0.00078306,
 0.08819042,0.09182847,-0.00029274,0.00066775,-0.00070746,-0.00060080,-
 0.00034697,0.00032037,0.00017139,-0.00002455,0.00003714,0.00010588,-0.
 00010721,0.00009407,0.00173419,0.00389831,0.00024400,0.00050661,-0.000
 11903,0.00052770,0.00002094,0.00010928,-0.00006250,0.00997109,0.003390
 77,0.00528606,-0.10993055,-0.05307854,-0.11810395,-0.00002325,0.000011
 02,-0.00005225,-0.00001877,0.00022367,-0.00004776,-0.00003703,0.000021
 83,0.00004397,0.00000699,-0.00000188,0.00000432,-0.00001650,0.00000396
 ,0.00000658,-0.00014657,-0.00082969,-0.00002825,0.00004629,-0.00009384
 ,0.00060620,0.11915772,0.05589261,0.12379657,-0.00053711,-0.00017131,0
 .00106917,0.00028574,0.00024224,-0.00028961,-0.00011323,-0.00026158,-0
 .00035191,0.00013552,0.00016575,-0.00006154,0.00072619,0.00129558,0.00
 039871,0.00021059,-0.00028038,0.00002251,-0.00001690,0.00002320,-0.000
 02484,-0.00436197,-0.00068510,0.00744370,-0.06632528,0.01029357,0.0727
 0641,-0.00000139,0.00009286,-0.00006064,-0.00001221,0.00006778,-0.0000
 1912,-0.00001972,0.00001679,-0.00000332,-0.00001985,-0.00000959,-0.000
 01155,-0.00002264,-0.00000270,0.00001340,0.00075264,-0.00154799,0.0007
 4998,0.00014453,-0.00024221,-0.00070183,0.00771377,-0.00140514,-0.0235
 2278,0.06699024,-0.00014613,-0.00017021,-0.00008369,-0.00029878,-0.000
 07028,0.00006927,0.00006067,0.00011583,-0.00011061,-0.00004511,0.00000
 038,0.00003391,0.00077777,0.00234554,-0.00101834,0.00034621,-0.0000236
 5,0.00013088,-0.00006506,0.00005496,-0.00004946,-0.00897610,0.00280812
 ,0.03265337,0.01048819,-0.05083998,-0.03231887,0.00000779,0.00012884,-
 0.00007820,-0.00001380,0.00010220,-0.00001642,0.00001239,0.00001430,-0
 .00002031,0.00001424,-0.00002856,-0.00002577,0.00003680,-0.00001002,0.
 00000377,-0.00151987,-0.00532688,0.00190150,0.00017483,0.00115647,-0.0
 0050350,0.00448353,-0.00200170,-0.01091197,-0.00863786,0.05364022,-0.0
 0034980,0.00037079,-0.00066892,-0.00061484,-0.00018686,0.00036998,0.00
 015401,-0.00001154,0.00012004,0.00011594,-0.00001697,0.00010504,0.0006
 0832,0.00006000,0.00160669,-0.00005349,-0.00037940,0.00011760,0.000003
 32,0.00004435,-0.00002653,0.00222845,-0.00298125,-0.01327380,0.0742277
 4,-0.02813946,-0.29849793,-0.00001940,-0.00010745,-0.00000008,0.000019
 65,0.00002250,0.00004125,-0.00001367,0.00002310,0.00001723,0.00000181,
 -0.00000091,0.00002667,0.00001257,0.00002072,-0.00001108,-0.00003602,0
 .00248450,0.00046235,-0.00021193,0.00002862,0.00038079,0.00517062,-0.0
 0069998,-0.01242809,-0.08013408,0.02911453,0.32180860,-0.00055922,-0.0
 0085323,-0.00030808,-0.00135584,-0.00063281,-0.00096317,-0.00029140,-0
 .00007300,0.00009399,0.00008687,0.00013828,0.00008249,0.00081949,0.001
 01611,0.00014994,0.00012600,-0.00021277,0.00010163,-0.00001691,0.00002
 275,-0.00000653,0.00811607,-0.00806948,-0.00085258,-0.21257697,0.14098
 650,0.01520968,-0.00003347,-0.00000533,-0.00004472,-0.00002329,0.00004
 957,-0.00003667,-0.00002050,0.00000721,0.00000499,-0.00000399,-0.00000
 715,-0.00000518,-0.00001987,-0.00000425,0.00002321,0.00035972,0.000456
 06,-0.00045346,0.00050927,-0.00219539,0.00082387,-0.01605347,0.0148400
 4,0.00286790,-0.00552893,0.00330028,-0.00110919,0.22646644,-0.00091757
 ,-0.00335671,-0.00017325,0.00091583,0.00127876,0.00057228,0.00068404,0
 .00082699,-0.00018604,0.00008343,0.00053521,0.00004054,-0.00048928,0.0
 0156846,-0.00041922,-0.00012345,-0.00015731,0.00009624,0.00000709,0.00
 009644,0.00002899,0.02486420,-0.01919030,-0.00164895,0.13597921,-0.159
 95405,-0.01047929,0.00002801,0.00013792,-0.00013461,-0.00004630,-0.000
 04520,-0.00008120,-0.00004124,-0.00001497,-0.00000111,-0.00002796,-0.0
 0002576,-0.00002476,-0.00007320,0.00007371,0.00007274,-0.00049152,0.00
 119913,-0.00047117,-0.00202376,-0.00421899,0.00261931,-0.01061022,0.00
 891731,0.00129447,0.00104609,-0.00189558,0.00035471,-0.14876340,0.1742
 2496,-0.00078120,-0.00072803,0.00149935,0.00034844,0.00049700,-0.00041
 122,0.00011608,-0.00013604,-0.00059127,0.00027151,0.00022988,-0.000093
 25,0.00081223,-0.00056891,0.00037918,-0.00001051,-0.00022839,-0.000086
 72,-0.00003152,0.00004615,-0.00002024,-0.01350730,0.00841324,-0.000574
 10,0.01646153,-0.01082553,-0.04781291,-0.00002212,0.00002372,0.0000547
 2,0.00001775,0.00000138,0.00003605,0.00001364,0.00002278,0.00002254,0.
 00001534,-0.00000412,0.00001404,0.00005419,-0.00000277,-0.00002902,-0.
 00069071,-0.00051872,0.00045636,0.00119952,0.00295123,-0.00005018,-0.0
 1146608,0.01105687,0.00046328,0.02277732,-0.01877008,-0.00014979,-0.01
 557811,0.00854033,0.04689320\\0.00000582,-0.00000226,0.00000036,0.0000
 0399,-0.00000027,-0.00000264,0.00000074,0.00000099,-0.00000063,-0.0000
 0061,0.00000449,-0.00000314,0.00000678,0.00001276,-0.00000481,-0.00000
 325,0.00000281,0.00000481,-0.00000055,0.00000364,-0.00000042,-0.000017
 51,-0.00001468,-0.00000133,-0.00000094,-0.00000523,0.,-0.00000189,-0.0
 0000080,-0.00000018,-0.00000084,0.00000022,-0.00000297,-0.00000177,-0.
 00000182,0.00000051,0.00000020,-0.00000078,-0.00000009,-0.00000021,-0.
 00000322,0.00000057,0.00000017,0.00000074,0.00000111,0.00000140,0.0000
 0079,0.00000239,0.00000173,0.00000162,0.00000257,0.00000441,-0.0000009
 9,0.00000186,0.00000235,0.00000201,0.00000204\\\@
 The archive entry for this job was punched.


 ... IT CAN BE VERY DIFFICULT, IN THESE COMPLEX TIMES,
 TO UNDERSTAND JUST HOW SCIENTISTS DO WHAT THEY DO.

                     DON MOSER IN THE FEBRUARY 1979 SMITHSONIAN
 Job cpu time:       0 days  1 hours  4 minutes 32.8 seconds.
 Elapsed time:       0 days  0 hours  3 minutes 18.2 seconds.
 File lengths (MBytes):  RWF=   1440 Int=      0 D2E=      0 Chk=     32 Scr=     32
 Normal termination of Gaussian 16 at Sun May 24 17:33:02 2026.
