 Entering Gaussian System, Link 0=g16
 Initial command:
 /inspire/hdd/project/materialscienceresearch/lipenghui-253107030018/software/g16/l1.exe "/inspire/hdd/project/materialscienceresearch/lipenghui-253107030018/g16/tmp/Gau-342268.inp" -scrdir="/inspire/hdd/project/materialscienceresearch/lipenghui-253107030018/g16/tmp/"
 Entering Link 1 = /inspire/hdd/project/materialscienceresearch/lipenghui-253107030018/software/g16/l1.exe PID=    342642.
  
 Copyright (c) 1988-2019, Gaussian, Inc.  All Rights Reserved.
  
 This is part of the Gaussian(R) 16 program.  It is based on
 the Gaussian(R) 09 system (copyright 2009, Gaussian, Inc.),
 the Gaussian(R) 03 system (copyright 2003, Gaussian, Inc.),
 the Gaussian(R) 98 system (copyright 1998, Gaussian, Inc.),
 the Gaussian(R) 94 system (copyright 1995, Gaussian, Inc.),
 the Gaussian 92(TM) system (copyright 1992, Gaussian, Inc.),
 the Gaussian 90(TM) system (copyright 1990, Gaussian, Inc.),
 the Gaussian 88(TM) system (copyright 1988, Gaussian, Inc.),
 the Gaussian 86(TM) system (copyright 1986, Carnegie Mellon
 University), and the Gaussian 82(TM) system (copyright 1983,
 Carnegie Mellon University). Gaussian is a federally registered
 trademark of Gaussian, Inc.
  
 This software contains proprietary and confidential information,
 including trade secrets, belonging to Gaussian, Inc.
  
 This software is provided under written license and may be
 used, copied, transmitted, or stored only in accord with that
 written license.
  
 The following legend is applicable only to US Government
 contracts under FAR:
  
                    RESTRICTED RIGHTS LEGEND
  
 Use, reproduction and disclosure by the US Government is
 subject to restrictions as set forth in subparagraphs (a)
 and (c) of the Commercial Computer Software - Restricted
 Rights clause in FAR 52.227-19.
  
 Gaussian, Inc.
 340 Quinnipiac St., Bldg. 40, Wallingford CT 06492
  
  
 ---------------------------------------------------------------
 Warning -- This program may not be used in any manner that
 competes with the business of Gaussian, Inc. or will provide
 assistance to any competitor of Gaussian, Inc.  The licensee
 of this program is prohibited from giving any competitor of
 Gaussian, Inc. access to this program.  By using this program,
 the user acknowledges that Gaussian, Inc. is engaged in the
 business of creating and licensing software in the field of
 computational chemistry and represents and warrants to the
 licensee that it is not a competitor of Gaussian, Inc. and that
 it will not use this program in any manner prohibited above.
 ---------------------------------------------------------------
  

 Cite this work as:
 Gaussian 16, Revision C.01,
 M. J. Frisch, G. W. Trucks, H. B. Schlegel, G. E. Scuseria, 
 M. A. Robb, J. R. Cheeseman, G. Scalmani, V. Barone, 
 G. A. Petersson, H. Nakatsuji, X. Li, M. Caricato, A. V. Marenich, 
 J. Bloino, B. G. Janesko, R. Gomperts, B. Mennucci, H. P. Hratchian, 
 J. V. Ortiz, A. F. Izmaylov, J. L. Sonnenberg, D. Williams-Young, 
 F. Ding, F. Lipparini, F. Egidi, J. Goings, B. Peng, A. Petrone, 
 T. Henderson, D. Ranasinghe, V. G. Zakrzewski, J. Gao, N. Rega, 
 G. Zheng, W. Liang, M. Hada, M. Ehara, K. Toyota, R. Fukuda, 
 J. Hasegawa, M. Ishida, T. Nakajima, Y. Honda, O. Kitao, H. Nakai, 
 T. Vreven, K. Throssell, J. A. Montgomery, Jr., J. E. Peralta, 
 F. Ogliaro, M. J. Bearpark, J. J. Heyd, E. N. Brothers, K. N. Kudin, 
 V. N. Staroverov, T. A. Keith, R. Kobayashi, J. Normand, 
 K. Raghavachari, A. P. Rendell, J. C. Burant, S. S. Iyengar, 
 J. Tomasi, M. Cossi, J. M. Millam, M. Klene, C. Adamo, R. Cammi, 
 J. W. Ochterski, R. L. Martin, K. Morokuma, O. Farkas, 
 J. B. Foresman, and D. J. Fox, Gaussian, Inc., Wallingford CT, 2019.
 
 ******************************************
 Gaussian 16:  ES64L-G16RevC.01  3-Jul-2019
                24-May-2026 
 ******************************************
 %nprocshared=20
 Will use up to   20 processors via shared memory.
 %mem=72GB
 %chk=/inspire/hdd/project/materialscienceresearch/lipenghui-253107030018/g16/00-
 B-DFT-Shift/04-output/BF3OEt2_C6D6/BF3OEt2_C6D6.chk
 ----------------------------------------------------------------------
 # nmr=giao wb97xd/aug-cc-pvdz opt freq integral=(acc2e=12,grid=ultrafi
 ne) scrf=(cpcm,solvent=benzene)
 ----------------------------------------------------------------------
 1/18=20,19=15,26=6,38=1/1,3;
 2/9=110,12=2,17=6,18=5,40=1/2;
 3/5=16,7=10,11=2,25=1,27=12,30=1,70=2101,71=1,72=12,74=-58,75=-5/1,2,3;
 4//1;
 5/5=2,38=5,53=12,87=12/2;
 6/7=2,8=2,9=2,10=2,28=1,87=12/1;
 7/87=12/1,2,3,16;
 1/18=20,19=15,26=6/3(2);
 2/9=110/2;
 99//99;
 2/9=110/2;
 3/5=16,7=10,11=2,25=1,27=12,30=1,70=2105,71=1,72=12,74=-58,75=-5/1,2,3;
 4/5=5,16=3,69=1/1;
 5/5=2,38=5,53=12,87=12/2;
 7/87=12/1,2,3,16;
 1/18=20,19=15,26=6/3(-5);
 2/9=110/2;
 6/7=2,8=2,9=2,10=2,19=2,28=1,87=12/1;
 99/9=1/99;
 ---------------------------------------------
 BF3OEt2_C6D6 | solvent model: C6D6 as benzene
 ---------------------------------------------
 Symbolic Z-matrix:
 Charge =  0 Multiplicity = 1
 B                    -1.66858   0.65829  -0.06802 
 F                    -1.7366    1.9078   -0.96747 
 F                    -1.88813   1.08044   1.39747 
 F                    -2.88846  -0.18822  -0.48146 
 O                    -0.3892   -0.03478  -0.25232 
 C                    -0.46788  -1.42858   0.04401 
 C                     0.74837  -2.25754  -0.4052 
 C                     0.70127   0.58399   0.42796 
 C                     0.91694   2.0707    0.10017 
 H                    -0.65787  -1.59574   1.13135 
 H                    -1.33239  -1.88114  -0.50048 
 H                     0.51279  -3.34717  -0.40293 
 H                     1.05982  -1.98375  -1.43937 
 H                     1.62093  -2.12975   0.27396 
 H                     0.60793   0.46168   1.53361 
 H                     1.65837   0.08909   0.13394 
 H                     1.88627   2.43335   0.5146 
 H                     0.94291   2.23982  -1.00078 
 H                     0.12706   2.71749   0.54337 
 

 GradGradGradGradGradGradGradGradGradGradGradGradGradGradGradGradGradGrad
 Berny optimization.
 Initialization pass.
                           ----------------------------
                           !    Initial Parameters    !
                           ! (Angstroms and Degrees)  !
 --------------------------                            --------------------------
 ! Name  Definition              Value          Derivative Info.                !
 --------------------------------------------------------------------------------
 ! R1    R(1,2)                  1.5411         estimate D2E/DX2                !
 ! R2    R(1,3)                  1.5408         estimate D2E/DX2                !
 ! R3    R(1,4)                  1.5413         estimate D2E/DX2                !
 ! R4    R(1,5)                  1.4667         estimate D2E/DX2                !
 ! R5    R(5,6)                  1.4271         estimate D2E/DX2                !
 ! R6    R(5,8)                  1.4265         estimate D2E/DX2                !
 ! R7    R(6,7)                  1.5389         estimate D2E/DX2                !
 ! R8    R(6,10)                 1.1164         estimate D2E/DX2                !
 ! R9    R(6,11)                 1.1174         estimate D2E/DX2                !
 ! R10   R(7,12)                 1.1148         estimate D2E/DX2                !
 ! R11   R(7,13)                 1.1142         estimate D2E/DX2                !
 ! R12   R(7,14)                 1.1131         estimate D2E/DX2                !
 ! R13   R(8,9)                  1.5376         estimate D2E/DX2                !
 ! R14   R(8,15)                 1.1163         estimate D2E/DX2                !
 ! R15   R(8,16)                 1.1169         estimate D2E/DX2                !
 ! R16   R(9,17)                 1.1148         estimate D2E/DX2                !
 ! R17   R(9,18)                 1.1142         estimate D2E/DX2                !
 ! R18   R(9,19)                 1.113          estimate D2E/DX2                !
 ! A1    A(2,1,3)              109.0681         estimate D2E/DX2                !
 ! A2    A(2,1,4)              104.7032         estimate D2E/DX2                !
 ! A3    A(2,1,5)              110.3836         estimate D2E/DX2                !
 ! A4    A(3,1,4)              107.0273         estimate D2E/DX2                !
 ! A5    A(3,1,5)              111.9184         estimate D2E/DX2                !
 ! A6    A(4,1,5)              113.4001         estimate D2E/DX2                !
 ! A7    A(1,5,6)              112.7884         estimate D2E/DX2                !
 ! A8    A(1,5,8)              113.6987         estimate D2E/DX2                !
 ! A9    A(6,5,8)              111.5166         estimate D2E/DX2                !
 ! A10   A(5,6,7)              114.9554         estimate D2E/DX2                !
 ! A11   A(5,6,10)             110.9687         estimate D2E/DX2                !
 ! A12   A(5,6,11)             109.6955         estimate D2E/DX2                !
 ! A13   A(7,6,10)             109.7641         estimate D2E/DX2                !
 ! A14   A(7,6,11)             104.5398         estimate D2E/DX2                !
 ! A15   A(10,6,11)            106.3956         estimate D2E/DX2                !
 ! A16   A(6,7,12)             111.033          estimate D2E/DX2                !
 ! A17   A(6,7,13)             111.0681         estimate D2E/DX2                !
 ! A18   A(6,7,14)             112.3092         estimate D2E/DX2                !
 ! A19   A(12,7,13)            107.5262         estimate D2E/DX2                !
 ! A20   A(12,7,14)            106.059          estimate D2E/DX2                !
 ! A21   A(13,7,14)            108.6016         estimate D2E/DX2                !
 ! A22   A(5,8,9)              115.1494         estimate D2E/DX2                !
 ! A23   A(5,8,15)             111.1554         estimate D2E/DX2                !
 ! A24   A(5,8,16)             109.7153         estimate D2E/DX2                !
 ! A25   A(9,8,15)             109.1965         estimate D2E/DX2                !
 ! A26   A(9,8,16)             104.6032         estimate D2E/DX2                !
 ! A27   A(15,8,16)            106.4897         estimate D2E/DX2                !
 ! A28   A(8,9,17)             110.9302         estimate D2E/DX2                !
 ! A29   A(8,9,18)             111.1421         estimate D2E/DX2                !
 ! A30   A(8,9,19)             112.1772         estimate D2E/DX2                !
 ! A31   A(17,9,18)            107.3192         estimate D2E/DX2                !
 ! A32   A(17,9,19)            106.2605         estimate D2E/DX2                !
 ! A33   A(18,9,19)            108.7726         estimate D2E/DX2                !
 ! D1    D(2,1,5,6)           -153.845          estimate D2E/DX2                !
 ! D2    D(2,1,5,8)             77.9211         estimate D2E/DX2                !
 ! D3    D(3,1,5,6)             84.4748         estimate D2E/DX2                !
 ! D4    D(3,1,5,8)            -43.7591         estimate D2E/DX2                !
 ! D5    D(4,1,5,6)            -36.727          estimate D2E/DX2                !
 ! D6    D(4,1,5,8)           -164.9609         estimate D2E/DX2                !
 ! D7    D(1,5,6,7)            167.8746         estimate D2E/DX2                !
 ! D8    D(1,5,6,10)           -66.8319         estimate D2E/DX2                !
 ! D9    D(1,5,6,11)            50.4426         estimate D2E/DX2                !
 ! D10   D(8,5,6,7)            -62.7613         estimate D2E/DX2                !
 ! D11   D(8,5,6,10)            62.5323         estimate D2E/DX2                !
 ! D12   D(8,5,6,11)           179.8068         estimate D2E/DX2                !
 ! D13   D(1,5,8,9)            -54.7332         estimate D2E/DX2                !
 ! D14   D(1,5,8,15)            70.0989         estimate D2E/DX2                !
 ! D15   D(1,5,8,16)          -172.386          estimate D2E/DX2                !
 ! D16   D(6,5,8,9)            176.3833         estimate D2E/DX2                !
 ! D17   D(6,5,8,15)           -58.7846         estimate D2E/DX2                !
 ! D18   D(6,5,8,16)            58.7305         estimate D2E/DX2                !
 ! D19   D(5,6,7,12)          -164.4459         estimate D2E/DX2                !
 ! D20   D(5,6,7,13)           -44.8499         estimate D2E/DX2                !
 ! D21   D(5,6,7,14)            76.9909         estimate D2E/DX2                !
 ! D22   D(10,6,7,12)           69.6361         estimate D2E/DX2                !
 ! D23   D(10,6,7,13)         -170.7679         estimate D2E/DX2                !
 ! D24   D(10,6,7,14)          -48.9272         estimate D2E/DX2                !
 ! D25   D(11,6,7,12)          -44.133          estimate D2E/DX2                !
 ! D26   D(11,6,7,13)           75.463          estimate D2E/DX2                !
 ! D27   D(11,6,7,14)         -162.6963         estimate D2E/DX2                !
 ! D28   D(5,8,9,17)          -169.4774         estimate D2E/DX2                !
 ! D29   D(5,8,9,18)           -50.1609         estimate D2E/DX2                !
 ! D30   D(5,8,9,19)            71.8607         estimate D2E/DX2                !
 ! D31   D(15,8,9,17)           64.6753         estimate D2E/DX2                !
 ! D32   D(15,8,9,18)         -176.0082         estimate D2E/DX2                !
 ! D33   D(15,8,9,19)          -53.9867         estimate D2E/DX2                !
 ! D34   D(16,8,9,17)          -48.9842         estimate D2E/DX2                !
 ! D35   D(16,8,9,18)           70.3323         estimate D2E/DX2                !
 ! D36   D(16,8,9,19)         -167.6462         estimate D2E/DX2                !
 --------------------------------------------------------------------------------
 Trust Radius=3.00D-01 FncErr=5.00D-06 GrdErr=5.00D-06 EigMax=2.50D+02 EigMin=1.00D-04
 Number of steps in this run=     97 maximum allowed number of steps=    114.
 GradGradGradGradGradGradGradGradGradGradGradGradGradGradGradGradGradGrad

                          Input orientation:                          
 ---------------------------------------------------------------------
 Center     Atomic      Atomic             Coordinates (Angstroms)
 Number     Number       Type             X           Y           Z
 ---------------------------------------------------------------------
      1          5           0       -1.668578    0.658294   -0.068017
      2          9           0       -1.736601    1.907804   -0.967472
      3          9           0       -1.888130    1.080442    1.397468
      4          9           0       -2.888462   -0.188219   -0.481460
      5          8           0       -0.389196   -0.034782   -0.252324
      6          6           0       -0.467876   -1.428577    0.044008
      7          6           0        0.748365   -2.257544   -0.405198
      8          6           0        0.701272    0.583985    0.427955
      9          6           0        0.916943    2.070699    0.100171
     10          1           0       -0.657873   -1.595740    1.131351
     11          1           0       -1.332394   -1.881140   -0.500475
     12          1           0        0.512791   -3.347170   -0.402925
     13          1           0        1.059816   -1.983745   -1.439370
     14          1           0        1.620931   -2.129751    0.273956
     15          1           0        0.607926    0.461676    1.533613
     16          1           0        1.658368    0.089091    0.133942
     17          1           0        1.886270    2.433346    0.514603
     18          1           0        0.942905    2.239820   -1.000776
     19          1           0        0.127062    2.717492    0.543365
 ---------------------------------------------------------------------
                    Distance matrix (angstroms):
                    1          2          3          4          5
     1  B    0.000000
     2  F    1.541078   0.000000
     3  F    1.540798   2.510066   0.000000
     4  F    1.541310   2.440554   2.478010   0.000000
     5  O    1.466677   2.469935   2.492457   2.514434   0.000000
     6  C    2.410242   3.710013   3.184988   2.770170   1.427119
     7  C    3.802291   4.882759   4.619833   4.185025   2.501617
     8  C    2.422333   3.105308   2.809169   3.782793   1.426455
     9  C    2.950948   2.864907   3.245308   4.463419   2.502659
    10  H    2.746029   4.224161   2.957415   3.091570   2.103172
    11  H    2.597838   3.838954   3.561179   2.299498   2.088119
    12  H    4.573213   5.743973   5.348793   4.642592   3.436303
    13  H    4.037959   4.815266   5.111485   4.441892   2.703178
    14  H    4.325622   5.395926   4.886832   4.967376   2.950674
    15  H    2.790403   3.720688   2.575209   4.087495   2.104826
    16  H    3.381324   4.005826   3.893189   4.596660   2.087358
    17  H    4.015869   3.949422   4.105593   5.537401   3.443483
    18  H    3.192351   2.700203   3.887221   4.565571   2.740162
    19  H    2.799716   2.532087   2.733208   4.311242   2.911126
                    6          7          8          9         10
     6  C    0.000000
     7  C    1.538900   0.000000
     8  C    2.358968   2.961528   0.000000
     9  C    3.763750   4.360906   1.537620   0.000000
    10  H    1.116404   2.185514   2.663314   4.121426   0.000000
    11  H    1.117437   2.116676   3.327855   4.586646   1.788655
    12  H    2.200558   1.114803   4.022420   5.456166   2.606140
    13  H    2.200560   1.114217   3.195105   4.339253   3.116025
    14  H    2.215318   1.113082   2.869469   4.262579   2.492637
    15  H    2.636158   3.342584   1.116312   2.176971   2.448882
    16  H    2.613870   2.573999   1.116869   2.116039   3.032895
    17  H    4.547297   4.913788   2.198150   1.114837   4.804849
    18  H    4.066819   4.540797   2.200329   1.114163   4.671186
    19  H    4.218198   5.102624   2.212440   1.112957   4.423327
                   11         12         13         14         15
    11  H    0.000000
    12  H    2.358700   0.000000
    13  H    2.571910   1.797883   0.000000
    14  H    3.063279   1.779958   1.808771   0.000000
    15  H    3.659391   4.273937   3.875941   3.054244   0.000000
    16  H    3.637163   3.661757   2.670248   2.223570   1.789225
    17  H    5.477679   6.011877   4.900176   4.577136   2.561255
    18  H    4.733878   5.635324   4.247886   4.601936   3.114022
    19  H    4.936297   6.150153   5.186800   5.079369   2.510085
                   16         17         18         19
    16  H    0.000000
    17  H    2.385870   0.000000
    18  H    2.534780   1.795484   0.000000
    19  H    3.069368   1.782240   1.810564   0.000000
 Stoichiometry    C4H10BF3O
 Framework group  C1[X(C4H10BF3O)]
 Deg. of freedom    51
 Full point group                 C1      NOp   1
 Largest Abelian subgroup         C1      NOp   1
 Largest concise Abelian subgroup C1      NOp   1
                         Standard orientation:                         
 ---------------------------------------------------------------------
 Center     Atomic      Atomic             Coordinates (Angstroms)
 Number     Number       Type             X           Y           Z
 ---------------------------------------------------------------------
      1          5           0       -0.876547   -0.566638   -0.025366
      2          9           0       -1.904806   -0.016820   -1.032990
      3          9           0       -1.405118   -0.344947    1.404853
      4          9           0       -0.863288   -2.088216   -0.270846
      5          8           0        0.429692    0.067932   -0.230796
      6          6           0        1.515920   -0.750378    0.201807
      7          6           0        2.907813   -0.273618   -0.249354
      8          6           0        0.518835    1.384751    0.310329
      9          6           0       -0.564093    2.364063   -0.171842
     10          1           0        1.502103   -0.879264    1.310660
     11          1           0        1.414300   -1.773469   -0.235941
     12          1           0        3.666489   -1.081209   -0.126912
     13          1           0        2.901514    0.020716   -1.323974
     14          1           0        3.275052    0.587669    0.352537
     15          1           0        0.522743    1.362271    1.426408
     16          1           0        1.482760    1.855429   -0.000649
     17          1           0       -0.323820    3.407651    0.138085
     18          1           0       -0.645056    2.358385   -1.283045
     19          1           0       -1.562840    2.132486    0.261230
 ---------------------------------------------------------------------
 Rotational constants (GHZ):           1.7576319           1.3302101           0.9590643
 Standard basis: Aug-CC-pVDZ (5D, 7F)
 There are   315 symmetry adapted cartesian basis functions of A   symmetry.
 There are   297 symmetry adapted basis functions of A   symmetry.
   297 basis functions,   497 primitive gaussians,   315 cartesian basis functions
    37 alpha electrons       37 beta electrons
       nuclear repulsion energy       514.0244593470 Hartrees.
 NAtoms=   19 NActive=   19 NUniq=   19 SFac= 1.00D+00 NAtFMM=   60 NAOKFM=F Big=F
 Integral buffers will be    131072 words long.
 Raffenetti 2 integral format.
 Two-electron integral symmetry is turned on.
 Nuclear repulsion after empirical dispersion term =      514.0122201598 Hartrees.
 Force PCM accuracy= 1.00D-12.
 ------------------------------------------------------------------------------
 Polarizable Continuum Model (PCM)
 =================================
 Model                : C-PCM.
 Atomic radii         : UFF (Universal Force Field).
 Polarization charges : Total charges.
 Charge compensation  : None.
 Solution method      : On-the-fly selection.
 Cavity type          : Scaled VdW (van der Waals Surface) (Alpha=1.100).
 Cavity algorithm     : GePol (No added spheres)
                        Default sphere list used, NSphG=   19.
                        Lebedev-Laikov grids with approx.  5.0 points / Ang**2.
                        Smoothing algorithm: York/Karplus (Gamma=1.0000).
                        Polarization charges: spherical gaussians, with
                                              point-specific exponents (IZeta= 3).
                        Self-potential: point-specific (ISelfS= 7).
                        Self-field    : sphere-specific E.n sum rule (ISelfD= 2).
 1st derivatives      : Analytical E(r).r(x)/FMM algorithm (CHGder, D1EAlg=3).
                        Cavity 1st derivative terms included.
 Solvent              : Benzene, Eps=   2.270600 Eps(inf)=   2.253301
 ------------------------------------------------------------------------------
 Spheres list:
 ISph  on   Nord     Re0    Alpha      Xe            Ye            Ze
    1   B      1    2.0415  1.100     -0.876547     -0.566638     -0.025366
    2   F      2    1.6820  1.100     -1.904806     -0.016820     -1.032990
    3   F      3    1.6820  1.100     -1.405118     -0.344947      1.404853
    4   F      4    1.6820  1.100     -0.863288     -2.088216     -0.270846
    5   O      5    1.7500  1.100      0.429692      0.067932     -0.230796
    6   C      6    1.9255  1.100      1.515920     -0.750378      0.201807
    7   C      7    1.9255  1.100      2.907813     -0.273618     -0.249354
    8   C      8    1.9255  1.100      0.518835      1.384751      0.310329
    9   C      9    1.9255  1.100     -0.564093      2.364063     -0.171842
   10   H     10    1.4430  1.100      1.502103     -0.879264      1.310660
   11   H     11    1.4430  1.100      1.414300     -1.773469     -0.235941
   12   H     12    1.4430  1.100      3.666489     -1.081209     -0.126912
   13   H     13    1.4430  1.100      2.901514      0.020716     -1.323974
   14   H     14    1.4430  1.100      3.275052      0.587669      0.352537
   15   H     15    1.4430  1.100      0.522743      1.362271      1.426408
   16   H     16    1.4430  1.100      1.482760      1.855429     -0.000649
   17   H     17    1.4430  1.100     -0.323820      3.407651      0.138085
   18   H     18    1.4430  1.100     -0.645056      2.358385     -1.283045
   19   H     19    1.4430  1.100     -1.562840      2.132486      0.261230
 ------------------------------------------------------------------------------
 One-electron integrals computed using PRISM.
 NBasis=   297 RedAO= T EigKep=  3.04D-05  NBF=   297
 NBsUse=   297 1.00D-06 EigRej= -1.00D+00 NBFU=   297
 ExpMin= 2.38D-02 ExpMax= 1.47D+04 ExpMxC= 5.03D+02 IAcc=3 IRadAn=         5 AccDes= 0.00D+00
 Harris functional with IExCor= 4639 and IRadAn=       5 diagonalized for initial guess.
 HarFok:  IExCor= 4639 AccDes= 0.00D+00 IRadAn=         5 IDoV= 1 UseB2=F ITyADJ=14
 ICtDFT=  3500011 ScaDFX=  1.000000  1.000000  1.000000  1.000000
 FoFCou: FMM=F IPFlag=           0 FMFlag=      100000 FMFlg1=           0
         NFxFlg=           0 DoJE=T BraDBF=F KetDBF=T FulRan=T
         wScrn=  0.000000 ICntrl=       500 IOpCl=  0 I1Cent=   200000004 NGrid=           0
         NMat0=    1 NMatS0=      1 NMatT0=    0 NMatD0=    1 NMtDS0=    0 NMtDT0=    0
 Petite list used in FoFCou.
 Requested convergence on RMS density matrix=1.00D-08 within 128 cycles.
 Requested convergence on MAX density matrix=1.00D-06.
 Requested convergence on             energy=1.00D-06.
 No special actions if energy rises.
 Inv3:  Mode=1 IEnd=     6976875.
 Iteration    1 A*A^-1 deviation from unit magnitude is 3.11D-15 for   1508.
 Iteration    1 A*A^-1 deviation from orthogonality  is 3.27D-15 for   1508    972.
 Iteration    1 A^-1*A deviation from unit magnitude is 3.11D-15 for   1508.
 Iteration    1 A^-1*A deviation from orthogonality  is 1.51D-15 for   1515   1182.
 Error on total polarization charges =  0.00641
 SCF Done:  E(RwB97XD) =  -558.090206441     A.U. after   12 cycles
            NFock= 12  Conv=0.59D-08     -V/T= 2.0075

 **********************************************************************

            Population analysis using the SCF Density.

 **********************************************************************

 Orbital symmetries:
       Occupied  (A) (A) (A) (A) (A) (A) (A) (A) (A) (A) (A) (A)
                 (A) (A) (A) (A) (A) (A) (A) (A) (A) (A) (A) (A)
                 (A) (A) (A) (A) (A) (A) (A) (A) (A) (A) (A) (A)
                 (A)
       Virtual   (A) (A) (A) (A) (A) (A) (A) (A) (A) (A) (A) (A)
                 (A) (A) (A) (A) (A) (A) (A) (A) (A) (A) (A) (A)
                 (A) (A) (A) (A) (A) (A) (A) (A) (A) (A) (A) (A)
                 (A) (A) (A) (A) (A) (A) (A) (A) (A) (A) (A) (A)
                 (A) (A) (A) (A) (A) (A) (A) (A) (A) (A) (A) (A)
                 (A) (A) (A) (A) (A) (A) (A) (A) (A) (A) (A) (A)
                 (A) (A) (A) (A) (A) (A) (A) (A) (A) (A) (A) (A)
                 (A) (A) (A) (A) (A) (A) (A) (A) (A) (A) (A) (A)
                 (A) (A) (A) (A) (A) (A) (A) (A) (A) (A) (A) (A)
                 (A) (A) (A) (A) (A) (A) (A) (A) (A) (A) (A) (A)
                 (A) (A) (A) (A) (A) (A) (A) (A) (A) (A) (A) (A)
                 (A) (A) (A) (A) (A) (A) (A) (A) (A) (A) (A) (A)
                 (A) (A) (A) (A) (A) (A) (A) (A) (A) (A) (A) (A)
                 (A) (A) (A) (A) (A) (A) (A) (A) (A) (A) (A) (A)
                 (A) (A) (A) (A) (A) (A) (A) (A) (A) (A) (A) (A)
                 (A) (A) (A) (A) (A) (A) (A) (A) (A) (A) (A) (A)
                 (A) (A) (A) (A) (A) (A) (A) (A) (A) (A) (A) (A)
                 (A) (A) (A) (A) (A) (A) (A) (A) (A) (A) (A) (A)
                 (A) (A) (A) (A) (A) (A) (A) (A) (A) (A) (A) (A)
                 (A) (A) (A) (A) (A) (A) (A) (A) (A) (A) (A) (A)
                 (A) (A) (A) (A) (A) (A) (A) (A) (A) (A) (A) (A)
                 (A) (A) (A) (A) (A) (A) (A) (A)
 The electronic state is 1-A.
 Alpha  occ. eigenvalues --  -24.79896 -24.79531 -24.78989 -19.42581 -10.40117
 Alpha  occ. eigenvalues --  -10.40105 -10.33002 -10.31721  -7.03736  -1.30042
 Alpha  occ. eigenvalues --   -1.25330  -1.23377  -1.22780  -0.92507  -0.88571
 Alpha  occ. eigenvalues --   -0.78938  -0.77286  -0.70104  -0.65246  -0.63771
 Alpha  occ. eigenvalues --   -0.60564  -0.56803  -0.55664  -0.54510  -0.51804
 Alpha  occ. eigenvalues --   -0.51049  -0.50571  -0.49053  -0.48519  -0.48145
 Alpha  occ. eigenvalues --   -0.47407  -0.46311  -0.46038  -0.45612  -0.44826
 Alpha  occ. eigenvalues --   -0.44254  -0.43770
 Alpha virt. eigenvalues --    0.03012   0.04168   0.04659   0.05060   0.06323
 Alpha virt. eigenvalues --    0.06798   0.07022   0.07153   0.07868   0.08924
 Alpha virt. eigenvalues --    0.09174   0.09699   0.10869   0.11047   0.13115
 Alpha virt. eigenvalues --    0.13452   0.13672   0.14077   0.14217   0.15003
 Alpha virt. eigenvalues --    0.15343   0.16230   0.16841   0.17203   0.17733
 Alpha virt. eigenvalues --    0.17978   0.18492   0.18850   0.19814   0.20516
 Alpha virt. eigenvalues --    0.21268   0.21918   0.22376   0.22519   0.24224
 Alpha virt. eigenvalues --    0.24632   0.25321   0.25768   0.26508   0.27144
 Alpha virt. eigenvalues --    0.27928   0.28415   0.28881   0.28953   0.30554
 Alpha virt. eigenvalues --    0.31826   0.32333   0.32815   0.32987   0.33272
 Alpha virt. eigenvalues --    0.34486   0.34962   0.36172   0.36571   0.37511
 Alpha virt. eigenvalues --    0.37993   0.38383   0.39441   0.39854   0.40188
 Alpha virt. eigenvalues --    0.40874   0.41328   0.41911   0.42096   0.43000
 Alpha virt. eigenvalues --    0.43549   0.44077   0.44784   0.45996   0.46351
 Alpha virt. eigenvalues --    0.46830   0.47799   0.48709   0.50629   0.50973
 Alpha virt. eigenvalues --    0.51655   0.52380   0.52904   0.53477   0.54183
 Alpha virt. eigenvalues --    0.55363   0.55934   0.56923   0.57666   0.57914
 Alpha virt. eigenvalues --    0.58895   0.59578   0.60041   0.60505   0.61796
 Alpha virt. eigenvalues --    0.63323   0.63607   0.64800   0.65648   0.66095
 Alpha virt. eigenvalues --    0.66991   0.67597   0.69245   0.69599   0.70138
 Alpha virt. eigenvalues --    0.71635   0.71811   0.73008   0.73302   0.74932
 Alpha virt. eigenvalues --    0.75508   0.76083   0.76996   0.77699   0.77851
 Alpha virt. eigenvalues --    0.78775   0.80157   0.80635   0.81944   0.82831
 Alpha virt. eigenvalues --    0.83903   0.85467   0.85984   0.88309   0.88824
 Alpha virt. eigenvalues --    0.91331   0.93429   0.95076   0.96470   0.97973
 Alpha virt. eigenvalues --    0.98338   1.00760   1.03226   1.04807   1.05704
 Alpha virt. eigenvalues --    1.07021   1.09112   1.11119   1.13269   1.13974
 Alpha virt. eigenvalues --    1.19154   1.19813   1.21262   1.22502   1.24002
 Alpha virt. eigenvalues --    1.29472   1.31164   1.32962   1.33858   1.34765
 Alpha virt. eigenvalues --    1.36725   1.38302   1.39149   1.40769   1.41943
 Alpha virt. eigenvalues --    1.43607   1.44773   1.45955   1.47685   1.48812
 Alpha virt. eigenvalues --    1.48994   1.49901   1.52886   1.55052   1.55700
 Alpha virt. eigenvalues --    1.56802   1.57874   1.60109   1.61296   1.62858
 Alpha virt. eigenvalues --    1.63990   1.65888   1.66997   1.67192   1.68075
 Alpha virt. eigenvalues --    1.69695   1.70167   1.72010   1.73482   1.74377
 Alpha virt. eigenvalues --    1.75998   1.78149   1.78611   1.80479   1.82837
 Alpha virt. eigenvalues --    1.83881   1.84944   1.86544   1.87062   1.89157
 Alpha virt. eigenvalues --    1.91505   1.91681   1.95056   1.95373   1.95966
 Alpha virt. eigenvalues --    1.96606   1.98761   2.00977   2.02832   2.04343
 Alpha virt. eigenvalues --    2.06516   2.06769   2.08117   2.10013   2.11792
 Alpha virt. eigenvalues --    2.14226   2.16087   2.17328   2.19392   2.20861
 Alpha virt. eigenvalues --    2.21603   2.23226   2.26484   2.27048   2.27992
 Alpha virt. eigenvalues --    2.31614   2.32733   2.35310   2.38705   2.41594
 Alpha virt. eigenvalues --    2.44091   2.46172   2.48050   2.51386   2.52179
 Alpha virt. eigenvalues --    2.56256   2.57466   2.58786   2.60673   2.65817
 Alpha virt. eigenvalues --    2.67629   2.71208   2.75753   2.78678   2.79685
 Alpha virt. eigenvalues --    2.84374   2.86244   2.87759   2.94576   2.97718
 Alpha virt. eigenvalues --    3.03936   3.08502   3.23530   3.28656   3.38616
 Alpha virt. eigenvalues --    3.57732   3.67061   3.67826   3.83096   3.91927
 Alpha virt. eigenvalues --    4.65328   4.65482   4.66872   4.67841   4.71656
 Alpha virt. eigenvalues --    4.73928   4.75567   4.77069   4.79145   4.80016
 Alpha virt. eigenvalues --    4.81111   4.83820   4.87288   4.92898   4.93428
          Condensed to atoms (all electrons):
               1          2          3          4          5          6
     1  B    3.446840   0.054257   0.093575   0.165827  -0.236203  -0.096497
     2  F    0.054257   9.629295  -0.107854  -0.095147   0.133699   0.060571
     3  F    0.093575  -0.107854   9.771063  -0.146705  -0.022603  -0.043264
     4  F    0.165827  -0.095147  -0.146705   9.847079  -0.163970  -0.062525
     5  O   -0.236203   0.133699  -0.022603  -0.163970   9.864904   0.054312
     6  C   -0.096497   0.060571  -0.043264  -0.062525   0.054312   5.116271
     7  C    0.034117   0.007041  -0.018266   0.011399  -0.169898   0.299416
     8  C    0.001043  -0.118207   0.029005   0.024673  -0.025706  -0.137514
     9  C    0.004620   0.019365  -0.021172   0.010404  -0.110038  -0.099819
    10  H   -0.067540   0.003509   0.028455  -0.007182   0.103301  -0.170371
    11  H    0.039455  -0.001359   0.015321  -0.000600  -0.312848   0.191085
    12  H    0.002405   0.001891  -0.001533  -0.001795   0.090705   0.068321
    13  H   -0.005208  -0.000048  -0.000010  -0.001785  -0.099280  -0.121953
    14  H    0.015796  -0.001650   0.001164   0.003524  -0.093603   0.009294
    15  H   -0.079726   0.002989   0.014776   0.005993   0.100489   0.071151
    16  H    0.085936   0.002636  -0.002591  -0.003035  -0.302317  -0.149053
    17  H    0.008023   0.004931   0.001048   0.000024   0.071229   0.006738
    18  H   -0.013023   0.001949   0.001718   0.004724  -0.050511   0.001357
    19  H    0.043592  -0.016698   0.029934   0.005473  -0.087438  -0.035303
               7          8          9         10         11         12
     1  B    0.034117   0.001043   0.004620  -0.067540   0.039455   0.002405
     2  F    0.007041  -0.118207   0.019365   0.003509  -0.001359   0.001891
     3  F   -0.018266   0.029005  -0.021172   0.028455   0.015321  -0.001533
     4  F    0.011399   0.024673   0.010404  -0.007182  -0.000600  -0.001795
     5  O   -0.169898  -0.025706  -0.110038   0.103301  -0.312848   0.090705
     6  C    0.299416  -0.137514  -0.099819  -0.170371   0.191085   0.068321
     7  C    4.705031  -0.033094   0.012129  -0.116005  -0.150183   0.314185
     8  C   -0.033094   4.981869   0.170879   0.043061   0.009920  -0.030722
     9  C    0.012129   0.170879   4.799437   0.051050  -0.028291   0.011871
    10  H   -0.116005   0.043061   0.051050   1.672672  -0.230413  -0.062699
    11  H   -0.150183   0.009920  -0.028291  -0.230413   1.946977  -0.160472
    12  H    0.314185  -0.030722   0.011871  -0.062699  -0.160472   1.513304
    13  H    0.358293   0.024858   0.001262   0.105856  -0.091315  -0.238694
    14  H    0.269773   0.034871  -0.019710  -0.132179   0.124282  -0.313243
    15  H   -0.023614  -0.007869  -0.087673  -0.014782  -0.001574  -0.000851
    16  H    0.061727   0.089191  -0.155688   0.017367   0.022248  -0.010253
    17  H    0.004392   0.053526   0.249940   0.001220  -0.002266   0.001649
    18  H   -0.015354  -0.127021   0.394695  -0.000584  -0.000428  -0.000707
    19  H    0.009453   0.039038   0.295129   0.001262  -0.002279   0.000324
              13         14         15         16         17         18
     1  B   -0.005208   0.015796  -0.079726   0.085936   0.008023  -0.013023
     2  F   -0.000048  -0.001650   0.002989   0.002636   0.004931   0.001949
     3  F   -0.000010   0.001164   0.014776  -0.002591   0.001048   0.001718
     4  F   -0.001785   0.003524   0.005993  -0.003035   0.000024   0.004724
     5  O   -0.099280  -0.093603   0.100489  -0.302317   0.071229  -0.050511
     6  C   -0.121953   0.009294   0.071151  -0.149053   0.006738   0.001357
     7  C    0.358293   0.269773  -0.023614   0.061727   0.004392  -0.015354
     8  C    0.024858   0.034871  -0.007869   0.089191   0.053526  -0.127021
     9  C    0.001262  -0.019710  -0.087673  -0.155688   0.249940   0.394695
    10  H    0.105856  -0.132179  -0.014782   0.017367   0.001220  -0.000584
    11  H   -0.091315   0.124282  -0.001574   0.022248  -0.002266  -0.000428
    12  H   -0.238694  -0.313243  -0.000851  -0.010253   0.001649  -0.000707
    13  H    1.406357  -0.234685  -0.002158  -0.001527  -0.002089   0.001872
    14  H   -0.234685   1.409252  -0.014856   0.012419  -0.002525  -0.000304
    15  H   -0.002158  -0.014856   1.566296  -0.310445  -0.069449   0.107393
    16  H   -0.001527   0.012419  -0.310445   2.233251  -0.094486  -0.122424
    17  H   -0.002089  -0.002525  -0.069449  -0.094486   1.460313  -0.229015
    18  H    0.001872  -0.000304   0.107393  -0.122424  -0.229015   1.381052
    19  H    0.000865   0.001849  -0.132078   0.101111  -0.278609  -0.238044
              19
     1  B    0.043592
     2  F   -0.016698
     3  F    0.029934
     4  F    0.005473
     5  O   -0.087438
     6  C   -0.035303
     7  C    0.009453
     8  C    0.039038
     9  C    0.295129
    10  H    0.001262
    11  H   -0.002279
    12  H    0.000324
    13  H    0.000865
    14  H    0.001849
    15  H   -0.132078
    16  H    0.101111
    17  H   -0.278609
    18  H   -0.238044
    19  H    1.351310
 Mulliken charges:
               1
     1  B    1.502713
     2  F   -0.581169
     3  F   -0.622062
     4  F   -0.596377
     5  O   -0.744224
     6  C    1.037782
     7  C    0.439458
     8  C    0.978199
     9  C    0.501610
    10  H   -0.225997
    11  H   -0.367262
    12  H   -0.183686
    13  H   -0.100611
    14  H   -0.069470
    15  H   -0.124013
    16  H   -0.474066
    17  H   -0.184592
    18  H   -0.097342
    19  H   -0.088892
 Sum of Mulliken charges =   0.00000
 Mulliken charges with hydrogens summed into heavy atoms:
               1
     1  B    1.502713
     2  F   -0.581169
     3  F   -0.622062
     4  F   -0.596377
     5  O   -0.744224
     6  C    0.444523
     7  C    0.085691
     8  C    0.380120
     9  C    0.130784
 Electronic spatial extent (au):  <R**2>=           1311.3958
 Charge=             -0.0000 electrons
 Dipole moment (field-independent basis, Debye):
    X=              8.3407    Y=              4.1060    Z=              0.5540  Tot=              9.3131
 Quadrupole moment (field-independent basis, Debye-Ang):
   XX=            -53.8568   YY=            -52.1010   ZZ=            -56.9221
   XY=             -5.1884   XZ=             -0.0237   YZ=              0.3053
 Traceless Quadrupole moment (field-independent basis, Debye-Ang):
   XX=              0.4365   YY=              2.1923   ZZ=             -2.6288
   XY=             -5.1884   XZ=             -0.0237   YZ=              0.3053
 Octapole moment (field-independent basis, Debye-Ang**2):
  XXX=             15.8346  YYY=             13.4798  ZZZ=             -1.8765  XYY=              4.3140
  XXY=             -5.4482  XXZ=              2.1528  XZZ=              4.2250  YZZ=             -1.3567
  YYZ=              2.6731  XYZ=              0.0440
 Hexadecapole moment (field-independent basis, Debye-Ang**3):
 XXXX=           -775.5781 YYYY=           -573.9234 ZZZZ=           -190.2615 XXXY=             -8.7119
 XXXZ=             -7.4536 YYYX=             -8.1693 YYYZ=              1.6145 ZZZX=              4.6733
 ZZZY=              0.5572 XXYY=           -222.8560 XXZZ=           -176.8493 YYZZ=           -128.5337
 XXYZ=              1.5728 YYXZ=              0.6912 ZZXY=              1.1953
 N-N= 5.140122201598D+02 E-N=-2.343273143649D+03  KE= 5.539420573771D+02
 D1PCM: C-PCM CHGder 1st derivatives, ID1Alg=3 FixD1E=F DoIter=F DoCFld=F I1PDM=0.
 Calling FoFJK, ICntrl=      2127 FMM=F ISym2X=0 I1Cent= 0 IOpClX= 0 NMat=1 NMatS=1 NMatT=0.
 ***** Axes restored to original set *****
 -------------------------------------------------------------------
 Center     Atomic                   Forces (Hartrees/Bohr)
 Number     Number              X              Y              Z
 -------------------------------------------------------------------
      1        5          -0.106842359    0.060642212    0.000721921
      2        9           0.010808079   -0.056371737    0.039727014
      3        9           0.017754944   -0.021950624   -0.062625947
      4        9           0.061673645    0.028621851    0.018014178
      5        8          -0.003068013    0.000428161   -0.005869002
      6        6          -0.010719959   -0.072923534    0.002835680
      7        6           0.014255084    0.007987929   -0.000080841
      8        6           0.061966717    0.029839022    0.025542812
      9        6          -0.010787499    0.010106688   -0.005260959
     10        1           0.002467048    0.010188970   -0.010277967
     11        1           0.007239179    0.020048443    0.006208172
     12        1          -0.004189284    0.013730115    0.001267814
     13        1          -0.003744360   -0.002374411    0.009250069
     14        1          -0.007087815   -0.000450134   -0.007073928
     15        1          -0.007427067   -0.002918955   -0.013639976
     16        1          -0.019570391   -0.002736538   -0.001784818
     17        1          -0.008216379   -0.011824761   -0.001919350
     18        1          -0.001027473   -0.002336625    0.011309261
     19        1           0.006515901   -0.007706072   -0.006344133
 -------------------------------------------------------------------
 Cartesian Forces:  Max     0.106842359 RMS     0.027550912

 GradGradGradGradGradGradGradGradGradGradGradGradGradGradGradGradGradGrad
 Berny optimization.
 FormGI is forming the generalized inverse of G from B-inverse, IUseBI=4.
 Internal  Forces:  Max     0.069368490 RMS     0.015248680
 Search for a local minimum.
 Step number   1 out of a maximum of   97
 All quantities printed in internal units (Hartrees-Bohrs-Radians)
 Mixed Optimization -- RFO/linear search
 Second derivative matrix not updated -- first step.
 ITU=  0
     Eigenvalues ---    0.00251   0.00268   0.01333   0.01339   0.01342
     Eigenvalues ---    0.02840   0.03984   0.03993   0.05267   0.05280
     Eigenvalues ---    0.05449   0.05478   0.05624   0.05636   0.09809
     Eigenvalues ---    0.09828   0.10871   0.11337   0.13172   0.13184
     Eigenvalues ---    0.16000   0.16000   0.16000   0.16000   0.16000
     Eigenvalues ---    0.16000   0.18004   0.18380   0.21989   0.21998
     Eigenvalues ---    0.25000   0.25000   0.25000   0.28403   0.28424
     Eigenvalues ---    0.28448   0.28617   0.28731   0.31825   0.31883
     Eigenvalues ---    0.31931   0.31941   0.32093   0.32097   0.32158
     Eigenvalues ---    0.32163   0.32276   0.32289   0.36141   0.41406
     Eigenvalues ---    0.41503
 RFO step:  Lambda=-6.15194758D-02 EMin= 2.51369611D-03
 Linear search not attempted -- first point.
 Maximum step size (   0.300) exceeded in Quadratic search.
    -- Step size scaled by   0.705
 Iteration  1 RMS(Cart)=  0.03311378 RMS(Int)=  0.00079293
 Iteration  2 RMS(Cart)=  0.00084494 RMS(Int)=  0.00035434
 Iteration  3 RMS(Cart)=  0.00000148 RMS(Int)=  0.00035434
 Iteration  4 RMS(Cart)=  0.00000000 RMS(Int)=  0.00035434
 Variable       Old X    -DE/DX   Delta X   Delta X   Delta X     New X
                                 (Linear)    (Quad)   (Total)
    R1        2.91222  -0.06937   0.00000  -0.14150  -0.14150   2.77071
    R2        2.91169  -0.06811   0.00000  -0.13884  -0.13884   2.77285
    R3        2.91265  -0.06936   0.00000  -0.14157  -0.14157   2.77108
    R4        2.77162   0.01913   0.00000   0.03190   0.03190   2.80352
    R5        2.69686   0.02378   0.00000   0.03527   0.03527   2.73213
    R6        2.69561   0.02556   0.00000   0.03782   0.03782   2.73343
    R7        2.90810  -0.01177   0.00000  -0.02387  -0.02387   2.88423
    R8        2.10970  -0.01196   0.00000  -0.02214  -0.02214   2.08756
    R9        2.11165  -0.01675   0.00000  -0.03110  -0.03110   2.08055
   R10        2.10667  -0.01253   0.00000  -0.02311  -0.02311   2.08356
   R11        2.10556  -0.01022   0.00000  -0.01881  -0.01881   2.08675
   R12        2.10342  -0.00992   0.00000  -0.01821  -0.01821   2.08521
   R13        2.90568  -0.01279   0.00000  -0.02587  -0.02587   2.87981
   R14        2.10952  -0.01257   0.00000  -0.02327  -0.02327   2.08625
   R15        2.11058  -0.01509   0.00000  -0.02798  -0.02798   2.08260
   R16        2.10674  -0.01170   0.00000  -0.02158  -0.02158   2.08515
   R17        2.10546  -0.01155   0.00000  -0.02127  -0.02127   2.08420
   R18        2.10318  -0.01163   0.00000  -0.02134  -0.02134   2.08185
    A1        1.90360   0.01040   0.00000   0.02324   0.02299   1.92658
    A2        1.82742   0.01569   0.00000   0.03971   0.03955   1.86696
    A3        1.92656  -0.00736   0.00000  -0.01460  -0.01481   1.91175
    A4        1.86798   0.01418   0.00000   0.02851   0.02777   1.89575
    A5        1.95334  -0.01238   0.00000  -0.03026  -0.03078   1.92256
    A6        1.97921  -0.01735   0.00000  -0.03918  -0.03964   1.93956
    A7        1.96853  -0.00153   0.00000   0.00011  -0.00007   1.96846
    A8        1.98442   0.00332   0.00000   0.01424   0.01416   1.99858
    A9        1.94633   0.00101   0.00000   0.00753   0.00742   1.95375
   A10        2.00635  -0.00985   0.00000  -0.02718  -0.02696   1.97939
   A11        1.93677  -0.00182   0.00000  -0.01850  -0.01836   1.91841
   A12        1.91455  -0.00751   0.00000  -0.03733  -0.03688   1.87767
   A13        1.91575   0.00692   0.00000   0.02509   0.02435   1.94010
   A14        1.82456   0.01328   0.00000   0.05160   0.05091   1.87547
   A15        1.85695   0.00034   0.00000   0.01247   0.01085   1.86780
   A16        1.93789  -0.01058   0.00000  -0.03547  -0.03550   1.90239
   A17        1.93850   0.00021   0.00000   0.00055   0.00044   1.93895
   A18        1.96017   0.00305   0.00000   0.01164   0.01167   1.97183
   A19        1.87669   0.00385   0.00000   0.00859   0.00841   1.88510
   A20        1.85108   0.00421   0.00000   0.01369   0.01379   1.86486
   A21        1.89546  -0.00038   0.00000   0.00200   0.00195   1.89741
   A22        2.00974  -0.00550   0.00000  -0.01628  -0.01610   1.99363
   A23        1.94003  -0.00417   0.00000  -0.02490  -0.02483   1.91519
   A24        1.91489  -0.00717   0.00000  -0.03427  -0.03407   1.88082
   A25        1.90584   0.00633   0.00000   0.02436   0.02382   1.92966
   A26        1.82567   0.01018   0.00000   0.04130   0.04082   1.86649
   A27        1.85860   0.00157   0.00000   0.01578   0.01438   1.87298
   A28        1.93610  -0.01222   0.00000  -0.03992  -0.03998   1.89611
   A29        1.93980   0.00092   0.00000   0.00277   0.00270   1.94250
   A30        1.95786   0.00116   0.00000   0.00488   0.00487   1.96273
   A31        1.87307   0.00493   0.00000   0.01344   0.01333   1.88640
   A32        1.85460   0.00606   0.00000   0.01963   0.01963   1.87423
   A33        1.89844  -0.00035   0.00000   0.00073   0.00071   1.89915
    D1       -2.68510   0.00023   0.00000   0.00712   0.00716  -2.67794
    D2        1.35998  -0.00275   0.00000  -0.01609  -0.01606   1.34392
    D3        1.47436   0.00060   0.00000   0.00842   0.00862   1.48298
    D4       -0.76374  -0.00238   0.00000  -0.01479  -0.01460  -0.77834
    D5       -0.64101   0.00397   0.00000   0.02237   0.02215  -0.61886
    D6       -2.87911   0.00099   0.00000  -0.00084  -0.00107  -2.88018
    D7        2.92996  -0.00069   0.00000  -0.00833  -0.00828   2.92168
    D8       -1.16644  -0.00067   0.00000  -0.01143  -0.01136  -1.17780
    D9        0.88039  -0.00598   0.00000  -0.03022  -0.03029   0.85010
   D10       -1.09539   0.00346   0.00000   0.01796   0.01797  -1.07742
   D11        1.09139   0.00347   0.00000   0.01485   0.01489   1.10628
   D12        3.13822  -0.00183   0.00000  -0.00394  -0.00404   3.13418
   D13       -0.95528   0.00189   0.00000   0.01462   0.01464  -0.94063
   D14        1.22346   0.00262   0.00000   0.01387   0.01389   1.23735
   D15       -3.00870  -0.00243   0.00000  -0.00313  -0.00303  -3.01174
   D16        3.07847   0.00028   0.00000  -0.00444  -0.00451   3.07396
   D17       -1.02598   0.00101   0.00000  -0.00518  -0.00526  -1.03125
   D18        1.02504  -0.00405   0.00000  -0.02219  -0.02219   1.00285
   D19       -2.87012   0.00101   0.00000   0.00270   0.00272  -2.86740
   D20       -0.78278  -0.00100   0.00000  -0.00959  -0.00946  -0.79223
   D21        1.34374   0.00082   0.00000   0.00164   0.00178   1.34552
   D22        1.21538   0.00539   0.00000   0.02797   0.02840   1.24378
   D23       -2.98046   0.00338   0.00000   0.01568   0.01622  -2.96424
   D24       -0.85394   0.00521   0.00000   0.02691   0.02745  -0.82649
   D25       -0.77027  -0.00478   0.00000  -0.02362  -0.02429  -0.79456
   D26        1.31708  -0.00679   0.00000  -0.03590  -0.03646   1.28062
   D27       -2.83959  -0.00497   0.00000  -0.02467  -0.02523  -2.86482
   D28       -2.95794   0.00043   0.00000  -0.00012  -0.00012  -2.95806
   D29       -0.87547  -0.00082   0.00000  -0.00769  -0.00763  -0.88311
   D30        1.25421   0.00023   0.00000  -0.00127  -0.00124   1.25296
   D31        1.12880   0.00501   0.00000   0.02568   0.02605   1.15485
   D32       -3.07192   0.00376   0.00000   0.01811   0.01854  -3.05339
   D33       -0.94225   0.00481   0.00000   0.02453   0.02493  -0.91732
   D34       -0.85494  -0.00459   0.00000  -0.02345  -0.02391  -0.87884
   D35        1.22753  -0.00583   0.00000  -0.03102  -0.03142   1.19611
   D36       -2.92598  -0.00479   0.00000  -0.02461  -0.02503  -2.95101
         Item               Value     Threshold  Converged?
 Maximum Force            0.069368     0.000450     NO 
 RMS     Force            0.015249     0.000300     NO 
 Maximum Displacement     0.148096     0.001800     NO 
 RMS     Displacement     0.033037     0.001200     NO 
 Predicted change in Energy=-3.123589D-02
 GradGradGradGradGradGradGradGradGradGradGradGradGradGradGradGradGradGrad

                          Input orientation:                          
 ---------------------------------------------------------------------
 Center     Atomic      Atomic             Coordinates (Angstroms)
 Number     Number       Type             X           Y           Z
 ---------------------------------------------------------------------
      1          5           0       -1.690531    0.667531   -0.069743
      2          9           0       -1.726160    1.850691   -0.934961
      3          9           0       -1.876673    1.054578    1.333325
      4          9           0       -2.810093   -0.190173   -0.471275
      5          8           0       -0.393323   -0.032093   -0.239227
      6          6           0       -0.477223   -1.445630    0.052597
      7          6           0        0.748700   -2.232634   -0.402636
      8          6           0        0.719704    0.594763    0.439374
      9          6           0        0.913143    2.066699    0.095355
     10          1           0       -0.670689   -1.596692    1.129669
     11          1           0       -1.347213   -1.846252   -0.490337
     12          1           0        0.502826   -3.307418   -0.410123
     13          1           0        1.049009   -1.943995   -1.425327
     14          1           0        1.614929   -2.107377    0.269339
     15          1           0        0.613667    0.462224    1.530246
     16          1           0        1.639040    0.069860    0.133038
     17          1           0        1.881882    2.400253    0.505005
     18          1           0        0.930605    2.224028   -0.996136
     19          1           0        0.131939    2.707617    0.534232
 ---------------------------------------------------------------------
                    Distance matrix (angstroms):
                    1          2          3          4          5
     1  B    0.000000
     2  F    1.466199   0.000000
     3  F    1.467328   2.408645   0.000000
     4  F    1.466392   2.356913   2.382700   0.000000
     5  O    1.483559   2.409435   2.419525   2.433026   0.000000
     6  C    2.439781   3.660716   3.138433   2.700536   1.445782
     7  C    3.804159   4.804357   4.551033   4.103824   2.484612
     8  C    2.464493   3.073826   2.784197   3.728924   1.446471
     9  C    2.960413   2.841502   3.215592   4.390561   2.494740
    10  H    2.757784   4.154656   2.919778   3.019663   2.097326
    11  H    2.571745   3.742817   3.467114   2.209746   2.064979
    12  H    4.552679   5.643573   5.265798   4.549328   3.400005
    13  H    4.020293   4.726697   5.016096   4.344972   2.672550
    14  H    4.329106   5.317849   4.829214   4.879037   2.932323
    15  H    2.812728   3.671495   2.567383   4.019184   2.095092
    16  H    3.388860   3.954309   3.843254   4.497511   2.068689
    17  H    4.011831   3.923454   4.077216   5.447757   3.412732
    18  H    3.186101   2.683566   3.830772   4.482931   2.723193
    19  H    2.801452   2.519005   2.721325   4.250151   2.894849
                    6          7          8          9         10
     6  C    0.000000
     7  C    1.526270   0.000000
     8  C    2.396963   2.950253   0.000000
     9  C    3.777751   4.331201   1.523931   0.000000
    10  H    1.104687   2.183357   2.685550   4.122956   0.000000
    11  H    1.100981   2.133034   3.330926   4.556691   1.773241
    12  H    2.154265   1.102574   3.999461   5.413409   2.583540
    13  H    2.182203   1.104262   3.167151   4.291457   3.099353
    14  H    2.204991   1.103446   2.851648   4.236235   2.494998
    15  H    2.648281   3.319115   1.103998   2.173232   2.459506
    16  H    2.604180   2.526090   1.102063   2.125021   3.017536
    17  H    4.534408   4.855054   2.148199   1.103415   4.783450
    18  H    4.067949   4.499685   2.181668   1.102910   4.656296
    19  H    4.225223   5.065984   2.195136   1.101666   4.418805
                   11         12         13         14         15
    11  H    0.000000
    12  H    2.358831   0.000000
    13  H    2.574033   1.785462   0.000000
    14  H    3.069134   1.771592   1.794116   0.000000
    15  H    3.640998   4.241169   3.835991   3.032369   0.000000
    16  H    3.602471   3.604443   2.613858   2.181633   1.776944
    17  H    5.426837   5.942790   4.826215   4.521673   2.532872
    18  H    4.691639   5.578826   4.191736   4.564077   3.096289
    19  H    4.896464   6.100000   5.130145   5.045156   2.503177
                   16         17         18         19
    16  H    0.000000
    17  H    2.372353   0.000000
    18  H    2.533250   1.785891   0.000000
    19  H    3.064322   1.776971   1.792694   0.000000
 Stoichiometry    C4H10BF3O
 Framework group  C1[X(C4H10BF3O)]
 Deg. of freedom    51
 Full point group                 C1      NOp   1
 Largest Abelian subgroup         C1      NOp   1
 Largest concise Abelian subgroup C1      NOp   1
                         Standard orientation:                         
 ---------------------------------------------------------------------
 Center     Atomic      Atomic             Coordinates (Angstroms)
 Number     Number       Type             X           Y           Z
 ---------------------------------------------------------------------
      1          5           0       -0.904631   -0.588814   -0.025689
      2          9           0       -1.866095   -0.051176   -0.993301
      3          9           0       -1.382214   -0.370749    1.344498
      4          9           0       -0.816821   -2.032604   -0.266658
      5          8           0        0.412286    0.066582   -0.218387
      6          6           0        1.517651   -0.761249    0.209573
      7          6           0        2.877062   -0.244746   -0.253813
      8          6           0        0.500307    1.406304    0.319826
      9          6           0       -0.589148    2.351051   -0.173029
     10          1           0        1.491460   -0.886196    1.306859
     11          1           0        1.375747   -1.759807   -0.231906
     12          1           0        3.623196   -1.048991   -0.143615
     13          1           0        2.848375    0.050935   -1.317366
     14          1           0        3.238668    0.610824    0.341866
     15          1           0        0.507829    1.365058    1.423027
     16          1           0        1.464653    1.834025    0.001027
     17          1           0       -0.331034    3.378526    0.135511
     18          1           0       -0.667204    2.333344   -1.273031
     19          1           0       -1.575886    2.116301    0.256983
 ---------------------------------------------------------------------
 Rotational constants (GHZ):           1.8140861           1.3764861           0.9818685
 Standard basis: Aug-CC-pVDZ (5D, 7F)
 There are   315 symmetry adapted cartesian basis functions of A   symmetry.
 There are   297 symmetry adapted basis functions of A   symmetry.
   297 basis functions,   497 primitive gaussians,   315 cartesian basis functions
    37 alpha electrons       37 beta electrons
       nuclear repulsion energy       521.7860953029 Hartrees.
 NAtoms=   19 NActive=   19 NUniq=   19 SFac= 1.00D+00 NAtFMM=   60 NAOKFM=F Big=F
 Integral buffers will be    131072 words long.
 Raffenetti 2 integral format.
 Two-electron integral symmetry is turned on.
 Nuclear repulsion after empirical dispersion term =      521.7738947615 Hartrees.
 Force PCM accuracy= 1.00D-12.
 ------------------------------------------------------------------------------
 Polarizable Continuum Model (PCM)
 =================================
 Model                : C-PCM.
 Atomic radii         : UFF (Universal Force Field).
 Polarization charges : Total charges.
 Charge compensation  : None.
 Solution method      : On-the-fly selection.
 Cavity type          : Scaled VdW (van der Waals Surface) (Alpha=1.100).
 Cavity algorithm     : GePol (No added spheres)
                        Default sphere list used, NSphG=   19.
                        Lebedev-Laikov grids with approx.  5.0 points / Ang**2.
                        Smoothing algorithm: York/Karplus (Gamma=1.0000).
                        Polarization charges: spherical gaussians, with
                                              point-specific exponents (IZeta= 3).
                        Self-potential: point-specific (ISelfS= 7).
                        Self-field    : sphere-specific E.n sum rule (ISelfD= 2).
 1st derivatives      : Analytical E(r).r(x)/FMM algorithm (CHGder, D1EAlg=3).
                        Cavity 1st derivative terms included.
 Solvent              : Benzene, Eps=   2.270600 Eps(inf)=   2.253301
 ------------------------------------------------------------------------------
 Spheres list:
 ISph  on   Nord     Re0    Alpha      Xe            Ye            Ze
    1   B      1    2.0415  1.100     -0.904631     -0.588814     -0.025689
    2   F      2    1.6820  1.100     -1.866095     -0.051176     -0.993301
    3   F      3    1.6820  1.100     -1.382214     -0.370749      1.344498
    4   F      4    1.6820  1.100     -0.816821     -2.032604     -0.266658
    5   O      5    1.7500  1.100      0.412286      0.066582     -0.218387
    6   C      6    1.9255  1.100      1.517651     -0.761249      0.209573
    7   C      7    1.9255  1.100      2.877062     -0.244746     -0.253813
    8   C      8    1.9255  1.100      0.500307      1.406304      0.319826
    9   C      9    1.9255  1.100     -0.589148      2.351051     -0.173029
   10   H     10    1.4430  1.100      1.491460     -0.886196      1.306859
   11   H     11    1.4430  1.100      1.375747     -1.759807     -0.231906
   12   H     12    1.4430  1.100      3.623196     -1.048991     -0.143615
   13   H     13    1.4430  1.100      2.848375      0.050935     -1.317366
   14   H     14    1.4430  1.100      3.238668      0.610824      0.341866
   15   H     15    1.4430  1.100      0.507829      1.365058      1.423027
   16   H     16    1.4430  1.100      1.464653      1.834025      0.001027
   17   H     17    1.4430  1.100     -0.331034      3.378526      0.135511
   18   H     18    1.4430  1.100     -0.667204      2.333344     -1.273031
   19   H     19    1.4430  1.100     -1.575886      2.116301      0.256983
 ------------------------------------------------------------------------------
 One-electron integrals computed using PRISM.
 NBasis=   297 RedAO= T EigKep=  3.00D-05  NBF=   297
 NBsUse=   297 1.00D-06 EigRej= -1.00D+00 NBFU=   297
 Initial guess from the checkpoint file:  "/inspire/hdd/project/materialscienceresearch/lipenghui-253107030018/g16/00-B-DFT-Shift/04-output/BF3OEt2_C6D6/BF3OEt2_C6D6.chk"
 B after Tr=    -0.000000    0.000000    0.000000
         Rot=    0.999988   -0.001003    0.000225   -0.004794 Ang=  -0.56 deg.
 ExpMin= 2.38D-02 ExpMax= 1.47D+04 ExpMxC= 5.03D+02 IAcc=3 IRadAn=         5 AccDes= 0.00D+00
 Harris functional with IExCor= 4639 and IRadAn=       5 diagonalized for initial guess.
 HarFok:  IExCor= 4639 AccDes= 0.00D+00 IRadAn=         5 IDoV= 1 UseB2=F ITyADJ=14
 ICtDFT=  3500011 ScaDFX=  1.000000  1.000000  1.000000  1.000000
 FoFCou: FMM=F IPFlag=           0 FMFlag=      100000 FMFlg1=           0
         NFxFlg=           0 DoJE=T BraDBF=F KetDBF=T FulRan=T
         wScrn=  0.000000 ICntrl=       500 IOpCl=  0 I1Cent=   200000004 NGrid=           0
         NMat0=    1 NMatS0=      1 NMatT0=    0 NMatD0=    1 NMtDS0=    0 NMtDT0=    0
 Petite list used in FoFCou.
 Requested convergence on RMS density matrix=1.00D-08 within 128 cycles.
 Requested convergence on MAX density matrix=1.00D-06.
 Requested convergence on             energy=1.00D-06.
 No special actions if energy rises.
 Inv3:  Mode=1 IEnd=     6813147.
 Iteration    1 A*A^-1 deviation from unit magnitude is 4.22D-15 for   1506.
 Iteration    1 A*A^-1 deviation from orthogonality  is 3.00D-15 for   1490   1042.
 Iteration    1 A^-1*A deviation from unit magnitude is 4.22D-15 for   1506.
 Iteration    1 A^-1*A deviation from orthogonality  is 2.44D-15 for   1507    858.
 Error on total polarization charges =  0.00632
 SCF Done:  E(RwB97XD) =  -558.125195013     A.U. after   11 cycles
            NFock= 11  Conv=0.47D-08     -V/T= 2.0067
 D1PCM: C-PCM CHGder 1st derivatives, ID1Alg=3 FixD1E=F DoIter=F DoCFld=F I1PDM=0.
 Calling FoFJK, ICntrl=      2127 FMM=F ISym2X=0 I1Cent= 0 IOpClX= 0 NMat=1 NMatS=1 NMatT=0.
 ***** Axes restored to original set *****
 -------------------------------------------------------------------
 Center     Atomic                   Forces (Hartrees/Bohr)
 Number     Number              X              Y              Z
 -------------------------------------------------------------------
      1        5          -0.075477316    0.042506944   -0.000057826
      2        9           0.007911368   -0.034041881    0.024215822
      3        9           0.011558214   -0.012723360   -0.036237246
      4        9           0.036635506    0.016910085    0.010482820
      5        8           0.005684705   -0.004668546   -0.001828815
      6        6          -0.002943649   -0.041725569   -0.000199951
      7        6           0.007104530    0.005774662    0.000811856
      8        6           0.034967582    0.016698662    0.012551537
      9        6          -0.006962842    0.004349147   -0.002621966
     10        1           0.002015215    0.006703287   -0.003486587
     11        1           0.003253298    0.011047751    0.001776634
     12        1          -0.002168735    0.005038164    0.000533111
     13        1          -0.002277650   -0.001340038    0.003638184
     14        1          -0.003431200   -0.000150552   -0.002935863
     15        1          -0.005794230   -0.001765116   -0.005725521
     16        1          -0.009753539   -0.002282300   -0.002394287
     17        1          -0.002813456   -0.005362522   -0.000451352
     18        1          -0.000019996   -0.001234940    0.004735257
     19        1           0.002512196   -0.003733877   -0.002805805
 -------------------------------------------------------------------
 Cartesian Forces:  Max     0.075477316 RMS     0.017175884

 GradGradGradGradGradGradGradGradGradGradGradGradGradGradGradGradGradGrad
 Berny optimization.
 Using GEDIIS/GDIIS optimizer.
 FormGI is forming the generalized inverse of G from B-inverse, IUseBI=4.
 Internal  Forces:  Max     0.041952031 RMS     0.009173501
 Search for a local minimum.
 Step number   2 out of a maximum of   97
 All quantities printed in internal units (Hartrees-Bohrs-Radians)
 Mixed Optimization -- RFO/linear search
 Update second derivatives using D2CorX and points    1    2
 DE= -3.50D-02 DEPred=-3.12D-02 R= 1.12D+00
 TightC=F SS=  1.41D+00  RLast= 3.19D-01 DXNew= 5.0454D-01 9.5649D-01
 Trust test= 1.12D+00 RLast= 3.19D-01 DXMaxT set to 5.05D-01
 ITU=  1  0
 Use linear search instead of GDIIS.
     Eigenvalues ---    0.00251   0.00268   0.01333   0.01339   0.01342
     Eigenvalues ---    0.02749   0.04087   0.04128   0.05215   0.05269
     Eigenvalues ---    0.05518   0.05543   0.05657   0.05707   0.09747
     Eigenvalues ---    0.09833   0.11513   0.11693   0.13039   0.13103
     Eigenvalues ---    0.15910   0.16000   0.16000   0.16000   0.16000
     Eigenvalues ---    0.16138   0.17923   0.18261   0.19165   0.22007
     Eigenvalues ---    0.22174   0.25000   0.25012   0.26179   0.28415
     Eigenvalues ---    0.28456   0.28627   0.28749   0.31833   0.31895
     Eigenvalues ---    0.31936   0.31991   0.32095   0.32139   0.32160
     Eigenvalues ---    0.32251   0.32281   0.32541   0.37392   0.41202
     Eigenvalues ---    0.41533
 RFO step:  Lambda=-3.99781420D-03 EMin= 2.51374599D-03
 Quartic linear search produced a step of  1.07556.
 Iteration  1 RMS(Cart)=  0.03280041 RMS(Int)=  0.00140804
 Iteration  2 RMS(Cart)=  0.00144596 RMS(Int)=  0.00083700
 Iteration  3 RMS(Cart)=  0.00000569 RMS(Int)=  0.00083699
 Iteration  4 RMS(Cart)=  0.00000002 RMS(Int)=  0.00083699
 Variable       Old X    -DE/DX   Delta X   Delta X   Delta X     New X
                                 (Linear)    (Quad)   (Total)
    R1        2.77071  -0.04195  -0.15219  -0.02689  -0.17908   2.59163
    R2        2.77285  -0.03948  -0.14933  -0.01406  -0.16339   2.60946
    R3        2.77108  -0.04073  -0.15227  -0.01811  -0.17038   2.60070
    R4        2.80352   0.02272   0.03431   0.07056   0.10487   2.90839
    R5        2.73213   0.01427   0.03793   0.00806   0.04599   2.77813
    R6        2.73343   0.01377   0.04068   0.00091   0.04159   2.77502
    R7        2.88423  -0.00604  -0.02567   0.00316  -0.02251   2.86172
    R8        2.08756  -0.00467  -0.02381   0.01180  -0.01201   2.07555
    R9        2.08055  -0.00747  -0.03345   0.01063  -0.02282   2.05773
   R10        2.08356  -0.00443  -0.02485   0.01523  -0.00962   2.07394
   R11        2.08675  -0.00434  -0.02023   0.00776  -0.01248   2.07428
   R12        2.08521  -0.00449  -0.01959   0.00572  -0.01387   2.07134
   R13        2.87981  -0.00644  -0.02782   0.00427  -0.02356   2.85625
   R14        2.08625  -0.00489  -0.02503   0.01253  -0.01250   2.07375
   R15        2.08260  -0.00639  -0.03009   0.01176  -0.01833   2.06426
   R16        2.08515  -0.00426  -0.02321   0.01346  -0.00976   2.07540
   R17        2.08420  -0.00486  -0.02287   0.00906  -0.01381   2.07039
   R18        2.08185  -0.00507  -0.02295   0.00796  -0.01499   2.06685
    A1        1.92658   0.00818   0.02472   0.01598   0.03848   1.96506
    A2        1.86696   0.01216   0.04254   0.02843   0.06933   1.93629
    A3        1.91175  -0.00772  -0.01593  -0.03083  -0.04850   1.86324
    A4        1.89575   0.01072   0.02987   0.03008   0.05703   1.95278
    A5        1.92256  -0.00973  -0.03311  -0.02083  -0.05628   1.86628
    A6        1.93956  -0.01275  -0.04264  -0.02075  -0.06544   1.87412
    A7        1.96846   0.00126  -0.00007   0.01922   0.01897   1.98743
    A8        1.99858   0.00141   0.01523  -0.01052   0.00466   2.00324
    A9        1.95375  -0.00081   0.00798  -0.01972  -0.01197   1.94178
   A10        1.97939  -0.00322  -0.02899   0.02186  -0.00668   1.97272
   A11        1.91841  -0.00246  -0.01974  -0.00926  -0.02882   1.88959
   A12        1.87767  -0.00482  -0.03966   0.00538  -0.03367   1.84400
   A13        1.94010   0.00330   0.02619  -0.00757   0.01731   1.95741
   A14        1.87547   0.00652   0.05475  -0.01919   0.03441   1.90988
   A15        1.86780   0.00086   0.01167   0.00843   0.01716   1.88496
   A16        1.90239  -0.00478  -0.03818   0.02074  -0.01754   1.88485
   A17        1.93895  -0.00040   0.00047  -0.00629  -0.00598   1.93296
   A18        1.97183   0.00116   0.01255  -0.01027   0.00230   1.97414
   A19        1.88510   0.00167   0.00905  -0.00313   0.00563   1.89073
   A20        1.86486   0.00205   0.01483  -0.00593   0.00901   1.87387
   A21        1.89741   0.00044   0.00210   0.00511   0.00717   1.90457
   A22        1.99363  -0.00244  -0.01732   0.00580  -0.01115   1.98248
   A23        1.91519  -0.00327  -0.02671  -0.00640  -0.03298   1.88221
   A24        1.88082  -0.00429  -0.03665   0.00840  -0.02787   1.85295
   A25        1.92966   0.00352   0.02562  -0.00458   0.01981   1.94947
   A26        1.86649   0.00546   0.04390  -0.00933   0.03361   1.90010
   A27        1.87298   0.00126   0.01547   0.00669   0.01942   1.89240
   A28        1.89611  -0.00602  -0.04300   0.01676  -0.02639   1.86973
   A29        1.94250   0.00020   0.00290  -0.00439  -0.00160   1.94090
   A30        1.96273   0.00013   0.00524  -0.00806  -0.00285   1.95988
   A31        1.88640   0.00238   0.01433  -0.00417   0.00995   1.89635
   A32        1.87423   0.00325   0.02111  -0.00366   0.01740   1.89162
   A33        1.89915   0.00027   0.00077   0.00363   0.00438   1.90354
    D1       -2.67794  -0.00057   0.00770  -0.03430  -0.02629  -2.70423
    D2        1.34392  -0.00190  -0.01728  -0.01435  -0.03145   1.31247
    D3        1.48298   0.00052   0.00927  -0.02078  -0.01116   1.47182
    D4       -0.77834  -0.00082  -0.01571  -0.00084  -0.01631  -0.79466
    D5       -0.61886   0.00184   0.02382  -0.03117  -0.00782  -0.62668
    D6       -2.88018   0.00051  -0.00116  -0.01122  -0.01298  -2.89316
    D7        2.92168  -0.00053  -0.00891   0.00410  -0.00476   2.91692
    D8       -1.17780  -0.00050  -0.01222   0.00317  -0.00905  -1.18685
    D9        0.85010  -0.00350  -0.03258   0.01129  -0.02118   0.82892
   D10       -1.07742   0.00186   0.01933  -0.01130   0.00797  -1.06945
   D11        1.10628   0.00189   0.01601  -0.01223   0.00368   1.10996
   D12        3.13418  -0.00110  -0.00434  -0.00412  -0.00845   3.12573
   D13       -0.94063   0.00178   0.01575  -0.00065   0.01501  -0.92563
   D14        1.23735   0.00202   0.01494  -0.00749   0.00744   1.24479
   D15       -3.01174  -0.00063  -0.00326   0.00174  -0.00134  -3.01307
   D16        3.07396  -0.00055  -0.00485  -0.00010  -0.00509   3.06886
   D17       -1.03125  -0.00031  -0.00566  -0.00694  -0.01267  -1.04391
   D18        1.00285  -0.00297  -0.02386   0.00229  -0.02144   0.98141
   D19       -2.86740   0.00040   0.00292  -0.00841  -0.00548  -2.87289
   D20       -0.79223  -0.00081  -0.01017  -0.00300  -0.01299  -0.80522
   D21        1.34552   0.00031   0.00191  -0.00850  -0.00643   1.33909
   D22        1.24378   0.00353   0.03054  -0.00684   0.02440   1.26818
   D23       -2.96424   0.00233   0.01745  -0.00143   0.01690  -2.94734
   D24       -0.82649   0.00345   0.02953  -0.00692   0.02346  -0.80303
   D25       -0.79456  -0.00317  -0.02612  -0.00148  -0.02864  -0.82319
   D26        1.28062  -0.00437  -0.03922   0.00393  -0.03614   1.24447
   D27       -2.86482  -0.00326  -0.02714  -0.00156  -0.02958  -2.89440
   D28       -2.95806  -0.00000  -0.00013  -0.01536  -0.01550  -2.97356
   D29       -0.88311  -0.00077  -0.00821  -0.01254  -0.02067  -0.90377
   D30        1.25296  -0.00017  -0.00133  -0.01688  -0.01820   1.23476
   D31        1.15485   0.00340   0.02802  -0.00755   0.02118   1.17602
   D32       -3.05339   0.00264   0.01994  -0.00473   0.01601  -3.03737
   D33       -0.91732   0.00323   0.02681  -0.00908   0.01848  -0.89884
   D34       -0.87884  -0.00308  -0.02571  -0.00778  -0.03432  -0.91316
   D35        1.19611  -0.00384  -0.03380  -0.00496  -0.03948   1.15663
   D36       -2.95101  -0.00325  -0.02692  -0.00930  -0.03701  -2.98802
         Item               Value     Threshold  Converged?
 Maximum Force            0.041952     0.000450     NO 
 RMS     Force            0.009174     0.000300     NO 
 Maximum Displacement     0.127130     0.001800     NO 
 RMS     Displacement     0.033115     0.001200     NO 
 Predicted change in Energy=-1.980494D-02
 GradGradGradGradGradGradGradGradGradGradGradGradGradGradGradGradGradGrad

                          Input orientation:                          
 ---------------------------------------------------------------------
 Center     Atomic      Atomic             Coordinates (Angstroms)
 Number     Number       Type             X           Y           Z
 ---------------------------------------------------------------------
      1          5           0       -1.749110    0.705444   -0.069553
      2          9           0       -1.699705    1.811078   -0.879466
      3          9           0       -1.863465    1.031881    1.267290
      4          9           0       -2.742819   -0.156532   -0.473972
      5          8           0       -0.406974   -0.028611   -0.238435
      6          6           0       -0.473822   -1.466710    0.059322
      7          6           0        0.752986   -2.224951   -0.402517
      8          6           0        0.730232    0.603696    0.442284
      9          6           0        0.908234    2.063578    0.093594
     10          1           0       -0.654232   -1.587304    1.136003
     11          1           0       -1.349431   -1.836376   -0.472061
     12          1           0        0.511018   -3.295424   -0.399458
     13          1           0        1.026668   -1.935810   -1.425431
     14          1           0        1.618862   -2.083401    0.254502
     15          1           0        0.599412    0.457508    1.521989
     16          1           0        1.618952    0.053711    0.124565
     17          1           0        1.872286    2.381082    0.513063
     18          1           0        0.932478    2.211701   -0.991678
     19          1           0        0.121968    2.691419    0.522373
 ---------------------------------------------------------------------
                    Distance matrix (angstroms):
                    1          2          3          4          5
     1  B    0.000000
     2  F    1.371433   0.000000
     3  F    1.380865   2.289656   0.000000
     4  F    1.376232   2.263625   2.284203   0.000000
     5  O    1.539054   2.338062   2.348024   2.351173   0.000000
     6  C    2.522146   3.623259   3.103748   2.673820   1.470121
     7  C    3.867630   4.746863   4.499003   4.062526   2.489244
     8  C    2.533667   3.018177   2.755221   3.671452   1.468478
     9  C    2.988750   2.794987   3.181867   4.310593   2.493446
    10  H    2.812262   4.087069   2.887839   3.000221   2.092783
    11  H    2.604344   3.686814   3.393593   2.182524   2.052029
    12  H    4.606947   5.585166   5.209778   4.521687   3.397161
    13  H    4.064427   4.665872   4.940729   4.275527   2.664900
    14  H    4.384734   5.240776   4.780933   4.823666   2.927312
    15  H    2.847811   3.589579   2.541759   3.940991   2.085237
    16  H    3.436027   3.887146   3.793398   4.407663   2.059835
    17  H    4.032581   3.875972   4.042899   5.358443   3.400940
    18  H    3.210925   2.664861   3.783148   4.402767   2.716709
    19  H    2.792026   2.461432   2.692752   4.160593   2.873530
                    6          7          8          9         10
     6  C    0.000000
     7  C    1.514359   0.000000
     8  C    2.425487   2.952194   0.000000
     9  C    3.791331   4.319920   1.511464   0.000000
    10  H    1.098332   2.180344   2.682997   4.105711   0.000000
    11  H    1.088904   2.139155   3.333914   4.541659   1.769522
    12  H    2.127107   1.097484   3.994963   5.396275   2.575485
    13  H    2.162410   1.097660   3.166279   4.279786   3.083476
    14  H    2.190372   1.096107   2.836444   4.210501   2.487993
    15  H    2.644587   3.304980   1.097382   2.171438   2.429376
    16  H    2.587593   2.493995   1.092361   2.132052   2.980487
    17  H    4.529415   4.827697   2.113858   1.098252   4.745465
    18  H    4.075904   4.479198   2.163984   1.095602   4.634341
    19  H    4.226041   5.042252   2.176003   1.093732   4.391640
                   11         12         13         14         15
    11  H    0.000000
    12  H    2.365451   0.000000
    13  H    2.562156   1.779625   0.000000
    14  H    3.065889   1.767479   1.787358   0.000000
    15  H    3.610558   4.217141   3.820707   3.016956   0.000000
    16  H    3.569270   3.566346   2.590652   2.141058   1.776319
    17  H    5.397859   5.908339   4.807118   4.479138   2.517593
    18  H    4.675900   5.554888   4.171194   4.524598   3.083285
    19  H    4.863625   6.069879   5.101340   5.011123   2.493500
                   16         17         18         19
    16  H    0.000000
    17  H    2.373134   0.000000
    18  H    2.524711   1.782182   0.000000
    19  H    3.058876   1.777641   1.783089   0.000000
 Stoichiometry    C4H10BF3O
 Framework group  C1[X(C4H10BF3O)]
 Deg. of freedom    51
 Full point group                 C1      NOp   1
 Largest Abelian subgroup         C1      NOp   1
 Largest concise Abelian subgroup C1      NOp   1
                         Standard orientation:                         
 ---------------------------------------------------------------------
 Center     Atomic      Atomic             Coordinates (Angstroms)
 Number     Number       Type             X           Y           Z
 ---------------------------------------------------------------------
      1          5           0       -0.970176   -0.628363   -0.023833
      2          9           0       -1.825652   -0.064288   -0.935319
      3          9           0       -1.356527   -0.395139    1.281206
      4          9           0       -0.797971   -1.970321   -0.275842
      5          8           0        0.395741    0.054388   -0.215691
      6          6           0        1.536512   -0.764449    0.219514
      7          6           0        2.869260   -0.222462   -0.253048
      8          6           0        0.483171    1.417956    0.322330
      9          6           0       -0.611356    2.335007   -0.173202
     10          1           0        1.493172   -0.861873    1.312658
     11          1           0        1.372518   -1.750250   -0.212936
     12          1           0        3.619254   -1.014635   -0.132874
     13          1           0        2.823308    0.051190   -1.315056
     14          1           0        3.211633    0.642784    0.326245
     15          1           0        0.488673    1.347622    1.417442
     16          1           0        1.448560    1.812041   -0.003206
     17          1           0       -0.350282    3.352630    0.146862
     18          1           0       -0.677956    2.317833   -1.266643
     19          1           0       -1.588094    2.080799    0.248240
 ---------------------------------------------------------------------
 Rotational constants (GHZ):           1.8830852           1.4105927           0.9987730
 Standard basis: Aug-CC-pVDZ (5D, 7F)
 There are   315 symmetry adapted cartesian basis functions of A   symmetry.
 There are   297 symmetry adapted basis functions of A   symmetry.
   297 basis functions,   497 primitive gaussians,   315 cartesian basis functions
    37 alpha electrons       37 beta electrons
       nuclear repulsion energy       529.6295169061 Hartrees.
 NAtoms=   19 NActive=   19 NUniq=   19 SFac= 1.00D+00 NAtFMM=   60 NAOKFM=F Big=F
 Integral buffers will be    131072 words long.
 Raffenetti 2 integral format.
 Two-electron integral symmetry is turned on.
 Nuclear repulsion after empirical dispersion term =      529.6173576718 Hartrees.
 Force PCM accuracy= 1.00D-12.
 ------------------------------------------------------------------------------
 Polarizable Continuum Model (PCM)
 =================================
 Model                : C-PCM.
 Atomic radii         : UFF (Universal Force Field).
 Polarization charges : Total charges.
 Charge compensation  : None.
 Solution method      : On-the-fly selection.
 Cavity type          : Scaled VdW (van der Waals Surface) (Alpha=1.100).
 Cavity algorithm     : GePol (No added spheres)
                        Default sphere list used, NSphG=   19.
                        Lebedev-Laikov grids with approx.  5.0 points / Ang**2.
                        Smoothing algorithm: York/Karplus (Gamma=1.0000).
                        Polarization charges: spherical gaussians, with
                                              point-specific exponents (IZeta= 3).
                        Self-potential: point-specific (ISelfS= 7).
                        Self-field    : sphere-specific E.n sum rule (ISelfD= 2).
 1st derivatives      : Analytical E(r).r(x)/FMM algorithm (CHGder, D1EAlg=3).
                        Cavity 1st derivative terms included.
 Solvent              : Benzene, Eps=   2.270600 Eps(inf)=   2.253301
 ------------------------------------------------------------------------------
 Spheres list:
 ISph  on   Nord     Re0    Alpha      Xe            Ye            Ze
    1   B      1    2.0415  1.100     -0.970176     -0.628363     -0.023833
    2   F      2    1.6820  1.100     -1.825652     -0.064288     -0.935319
    3   F      3    1.6820  1.100     -1.356527     -0.395139      1.281206
    4   F      4    1.6820  1.100     -0.797971     -1.970321     -0.275842
    5   O      5    1.7500  1.100      0.395741      0.054388     -0.215691
    6   C      6    1.9255  1.100      1.536512     -0.764449      0.219514
    7   C      7    1.9255  1.100      2.869260     -0.222462     -0.253048
    8   C      8    1.9255  1.100      0.483171      1.417956      0.322330
    9   C      9    1.9255  1.100     -0.611356      2.335007     -0.173202
   10   H     10    1.4430  1.100      1.493172     -0.861873      1.312658
   11   H     11    1.4430  1.100      1.372518     -1.750250     -0.212936
   12   H     12    1.4430  1.100      3.619254     -1.014635     -0.132874
   13   H     13    1.4430  1.100      2.823308      0.051190     -1.315056
   14   H     14    1.4430  1.100      3.211633      0.642784      0.326245
   15   H     15    1.4430  1.100      0.488673      1.347622      1.417442
   16   H     16    1.4430  1.100      1.448560      1.812041     -0.003206
   17   H     17    1.4430  1.100     -0.350282      3.352630      0.146862
   18   H     18    1.4430  1.100     -0.677956      2.317833     -1.266643
   19   H     19    1.4430  1.100     -1.588094      2.080799      0.248240
 ------------------------------------------------------------------------------
 One-electron integrals computed using PRISM.
 NBasis=   297 RedAO= T EigKep=  2.93D-05  NBF=   297
 NBsUse=   297 1.00D-06 EigRej= -1.00D+00 NBFU=   297
 Initial guess from the checkpoint file:  "/inspire/hdd/project/materialscienceresearch/lipenghui-253107030018/g16/00-B-DFT-Shift/04-output/BF3OEt2_C6D6/BF3OEt2_C6D6.chk"
 B after Tr=     0.000000   -0.000000   -0.000000
         Rot=    0.999993   -0.001837    0.000111   -0.003384 Ang=  -0.44 deg.
 ExpMin= 2.38D-02 ExpMax= 1.47D+04 ExpMxC= 5.03D+02 IAcc=3 IRadAn=         5 AccDes= 0.00D+00
 Harris functional with IExCor= 4639 and IRadAn=       5 diagonalized for initial guess.
 HarFok:  IExCor= 4639 AccDes= 0.00D+00 IRadAn=         5 IDoV= 1 UseB2=F ITyADJ=14
 ICtDFT=  3500011 ScaDFX=  1.000000  1.000000  1.000000  1.000000
 FoFCou: FMM=F IPFlag=           0 FMFlag=      100000 FMFlg1=           0
         NFxFlg=           0 DoJE=T BraDBF=F KetDBF=T FulRan=T
         wScrn=  0.000000 ICntrl=       500 IOpCl=  0 I1Cent=   200000004 NGrid=           0
         NMat0=    1 NMatS0=      1 NMatT0=    0 NMatD0=    1 NMtDS0=    0 NMtDT0=    0
 Petite list used in FoFCou.
 Requested convergence on RMS density matrix=1.00D-08 within 128 cycles.
 Requested convergence on MAX density matrix=1.00D-06.
 Requested convergence on             energy=1.00D-06.
 No special actions if energy rises.
 Inv3:  Mode=1 IEnd=     6732012.
 Iteration    1 A*A^-1 deviation from unit magnitude is 3.33D-15 for   1465.
 Iteration    1 A*A^-1 deviation from orthogonality  is 2.56D-15 for    692    506.
 Iteration    1 A^-1*A deviation from unit magnitude is 3.11D-15 for   1465.
 Iteration    1 A^-1*A deviation from orthogonality  is 2.32D-15 for   1458    775.
 Error on total polarization charges =  0.00628
 SCF Done:  E(RwB97XD) =  -558.141782032     A.U. after   11 cycles
            NFock= 11  Conv=0.52D-08     -V/T= 2.0057
 D1PCM: C-PCM CHGder 1st derivatives, ID1Alg=3 FixD1E=F DoIter=F DoCFld=F I1PDM=0.
 Calling FoFJK, ICntrl=      2127 FMM=F ISym2X=0 I1Cent= 0 IOpClX= 0 NMat=1 NMatS=1 NMatT=0.
 ***** Axes restored to original set *****
 -------------------------------------------------------------------
 Center     Atomic                   Forces (Hartrees/Bohr)
 Number     Number              X              Y              Z
 -------------------------------------------------------------------
      1        5          -0.017102853    0.008760492   -0.000118628
      2        9           0.002315211    0.009056971   -0.007309375
      3        9           0.000442716    0.001569577    0.010953016
      4        9          -0.005491999   -0.008934530   -0.003032515
      5        8           0.017118887   -0.011541486    0.001971076
      6        6          -0.001179835   -0.009765798   -0.000069613
      7        6           0.003006209    0.003209052    0.000218198
      8        6           0.009149445    0.002677265    0.002500763
      9        6          -0.002610727    0.001389805   -0.000484801
     10        1           0.001089921    0.002881321    0.000152583
     11        1          -0.001317608    0.004096970   -0.001401764
     12        1          -0.000848477    0.000849311    0.000010713
     13        1          -0.000525750   -0.000767708   -0.000153494
     14        1           0.000056640   -0.000113626   -0.000257507
     15        1          -0.002654889   -0.000395817   -0.000700467
     16        1          -0.002118140   -0.001836526   -0.002107196
     17        1          -0.000207258   -0.001024779   -0.000011967
     18        1           0.000563106   -0.000069005    0.000225028
     19        1           0.000315400   -0.000041487   -0.000384050
 -------------------------------------------------------------------
 Cartesian Forces:  Max     0.017118887 RMS     0.005058314

 GradGradGradGradGradGradGradGradGradGradGradGradGradGradGradGradGradGrad
 Berny optimization.
 Using GEDIIS/GDIIS optimizer.
 FormGI is forming the generalized inverse of G from B-inverse, IUseBI=4.
 Internal  Forces:  Max     0.022335396 RMS     0.003425342
 Search for a local minimum.
 Step number   3 out of a maximum of   97
 All quantities printed in internal units (Hartrees-Bohrs-Radians)
 Mixed Optimization -- RFO/linear search
 Update second derivatives using D2CorX and points    2    3
 DE= -1.66D-02 DEPred=-1.98D-02 R= 8.38D-01
 TightC=F SS=  1.41D+00  RLast= 3.87D-01 DXNew= 8.4853D-01 1.1609D+00
 Trust test= 8.38D-01 RLast= 3.87D-01 DXMaxT set to 8.49D-01
 ITU=  1  1  0
 Use linear search instead of GDIIS.
     Eigenvalues ---    0.00251   0.00268   0.01333   0.01340   0.01342
     Eigenvalues ---    0.02695   0.04188   0.04197   0.05229   0.05310
     Eigenvalues ---    0.05341   0.05395   0.05782   0.05872   0.09794
     Eigenvalues ---    0.09848   0.12553   0.12617   0.12972   0.13014
     Eigenvalues ---    0.15966   0.16000   0.16000   0.16000   0.16001
     Eigenvalues ---    0.16098   0.18223   0.18693   0.20017   0.22042
     Eigenvalues ---    0.22177   0.25002   0.25023   0.28273   0.28419
     Eigenvalues ---    0.28520   0.28671   0.28783   0.31829   0.31893
     Eigenvalues ---    0.31936   0.31987   0.32095   0.32139   0.32160
     Eigenvalues ---    0.32250   0.32281   0.32511   0.40483   0.41490
     Eigenvalues ---    0.44635
 RFO step:  Lambda=-3.91541132D-03 EMin= 2.51374927D-03
 Quartic linear search produced a step of -0.02626.
 Iteration  1 RMS(Cart)=  0.02888973 RMS(Int)=  0.00052463
 Iteration  2 RMS(Cart)=  0.00058145 RMS(Int)=  0.00020709
 Iteration  3 RMS(Cart)=  0.00000029 RMS(Int)=  0.00020709
 Variable       Old X    -DE/DX   Delta X   Delta X   Delta X     New X
                                 (Linear)    (Quad)   (Total)
    R1        2.59163   0.01170   0.00470   0.01871   0.02341   2.61505
    R2        2.60946   0.01093   0.00429   0.01749   0.02178   2.63123
    R3        2.60070   0.01046   0.00447   0.01524   0.01971   2.62042
    R4        2.90839   0.02234  -0.00275   0.06912   0.06636   2.97475
    R5        2.77813  -0.00070  -0.00121   0.00351   0.00230   2.78043
    R6        2.77502   0.00173  -0.00109   0.00890   0.00780   2.78282
    R7        2.86172  -0.00016   0.00059  -0.00341  -0.00281   2.85891
    R8        2.07555  -0.00035   0.00032  -0.00295  -0.00264   2.07291
    R9        2.05773   0.00035   0.00060  -0.00211  -0.00151   2.05622
   R10        2.07394  -0.00064   0.00025  -0.00368  -0.00343   2.07051
   R11        2.07428  -0.00019   0.00033  -0.00238  -0.00205   2.07222
   R12        2.07134  -0.00012   0.00036  -0.00225  -0.00189   2.06945
   R13        2.85625   0.00017   0.00062  -0.00246  -0.00184   2.85441
   R14        2.07375  -0.00032   0.00033  -0.00296  -0.00263   2.07112
   R15        2.06426  -0.00019   0.00048  -0.00324  -0.00276   2.06150
   R16        2.07540  -0.00048   0.00026  -0.00316  -0.00290   2.07249
   R17        2.07039  -0.00022   0.00036  -0.00268  -0.00231   2.06807
   R18        2.06685  -0.00040   0.00039  -0.00330  -0.00291   2.06394
    A1        1.96506   0.00253  -0.00101   0.01510   0.01404   1.97910
    A2        1.93629   0.00359  -0.00182   0.02173   0.01976   1.95605
    A3        1.86324  -0.00232   0.00127  -0.01266  -0.01147   1.85177
    A4        1.95278   0.00258  -0.00150   0.01308   0.01135   1.96413
    A5        1.86628  -0.00209   0.00148  -0.01456  -0.01320   1.85308
    A6        1.87412  -0.00522   0.00172  -0.02803  -0.02647   1.84765
    A7        1.98743  -0.00097  -0.00050   0.00593   0.00499   1.99242
    A8        2.00324   0.00263  -0.00012   0.02413   0.02379   2.02703
    A9        1.94178  -0.00061   0.00031   0.00592   0.00582   1.94760
   A10        1.97272  -0.00179   0.00018  -0.01668  -0.01639   1.95633
   A11        1.88959  -0.00094   0.00076  -0.02341  -0.02259   1.86700
   A12        1.84400  -0.00222   0.00088  -0.03257  -0.03144   1.81256
   A13        1.95741   0.00142  -0.00045   0.01593   0.01486   1.97227
   A14        1.90988   0.00290  -0.00090   0.03220   0.03074   1.94062
   A15        1.88496   0.00049  -0.00045   0.02335   0.02189   1.90685
   A16        1.88485  -0.00166   0.00046  -0.01585  -0.01540   1.86945
   A17        1.93296   0.00023   0.00016   0.00119   0.00129   1.93426
   A18        1.97414   0.00076  -0.00006   0.00787   0.00780   1.98193
   A19        1.89073   0.00012  -0.00015  -0.00363  -0.00383   1.88690
   A20        1.87387   0.00052  -0.00024   0.00423   0.00402   1.87789
   A21        1.90457  -0.00000  -0.00019   0.00555   0.00531   1.90988
   A22        1.98248   0.00035   0.00029  -0.00564  -0.00527   1.97721
   A23        1.88221  -0.00154   0.00087  -0.02353  -0.02265   1.85956
   A24        1.85295  -0.00214   0.00073  -0.02689  -0.02609   1.82685
   A25        1.94947   0.00077  -0.00052   0.01215   0.01135   1.96082
   A26        1.90010   0.00158  -0.00088   0.02178   0.02066   1.92076
   A27        1.89240   0.00086  -0.00051   0.02151   0.02038   1.91278
   A28        1.86973  -0.00151   0.00069  -0.01508  -0.01439   1.85533
   A29        1.94090   0.00014   0.00004   0.00100   0.00101   1.94191
   A30        1.95988   0.00071   0.00007   0.00600   0.00607   1.96596
   A31        1.89635   0.00026  -0.00026  -0.00066  -0.00095   1.89539
   A32        1.89162   0.00046  -0.00046   0.00511   0.00467   1.89630
   A33        1.90354  -0.00008  -0.00012   0.00328   0.00314   1.90668
    D1       -2.70423   0.00052   0.00069   0.02001   0.02073  -2.68351
    D2        1.31247  -0.00016   0.00083  -0.01761  -0.01690   1.29557
    D3        1.47182  -0.00010   0.00029   0.01678   0.01722   1.48904
    D4       -0.79466  -0.00078   0.00043  -0.02084  -0.02040  -0.81506
    D5       -0.62668   0.00079   0.00021   0.02424   0.02448  -0.60220
    D6       -2.89316   0.00011   0.00034  -0.01338  -0.01314  -2.90631
    D7        2.91692  -0.00106   0.00013  -0.03650  -0.03630   2.88062
    D8       -1.18685  -0.00118   0.00024  -0.04508  -0.04474  -1.23159
    D9        0.82892  -0.00216   0.00056  -0.04539  -0.04483   0.78409
   D10       -1.06945   0.00122  -0.00021   0.00883   0.00857  -1.06089
   D11        1.10996   0.00110  -0.00010   0.00024   0.00013   1.11009
   D12        3.12573   0.00012   0.00022  -0.00007   0.00004   3.12577
   D13       -0.92563   0.00026  -0.00039   0.01162   0.01130  -0.91432
   D14        1.24479   0.00034  -0.00020   0.00579   0.00566   1.25044
   D15       -3.01307  -0.00047   0.00004   0.00590   0.00606  -3.00701
   D16        3.06886  -0.00018   0.00013  -0.02470  -0.02467   3.04420
   D17       -1.04391  -0.00009   0.00033  -0.03053  -0.03031  -1.07423
   D18        0.98141  -0.00091   0.00056  -0.03043  -0.02991   0.95150
   D19       -2.87289   0.00025   0.00014  -0.02022  -0.02005  -2.89294
   D20       -0.80522  -0.00048   0.00034  -0.03357  -0.03318  -0.83840
   D21        1.33909   0.00025   0.00017  -0.01970  -0.01946   1.31963
   D22        1.26818   0.00176  -0.00064   0.01119   0.01082   1.27900
   D23       -2.94734   0.00103  -0.00044  -0.00215  -0.00230  -2.94964
   D24       -0.80303   0.00176  -0.00062   0.01172   0.01141  -0.79162
   D25       -0.82319  -0.00171   0.00075  -0.04992  -0.04953  -0.87272
   D26        1.24447  -0.00244   0.00095  -0.06327  -0.06266   1.18182
   D27       -2.89440  -0.00171   0.00078  -0.04940  -0.04894  -2.94334
   D28       -2.97356   0.00014   0.00041  -0.01831  -0.01791  -2.99147
   D29       -0.90377  -0.00039   0.00054  -0.02774  -0.02718  -0.93096
   D30        1.23476   0.00012   0.00048  -0.01841  -0.01791   1.21685
   D31        1.17602   0.00132  -0.00056   0.00768   0.00726   1.18328
   D32       -3.03737   0.00080  -0.00042  -0.00175  -0.00202  -3.03939
   D33       -0.89884   0.00130  -0.00049   0.00757   0.00725  -0.89158
   D34       -0.91316  -0.00126   0.00090  -0.04080  -0.04008  -0.95324
   D35        1.15663  -0.00178   0.00104  -0.05023  -0.04935   1.10728
   D36       -2.98802  -0.00128   0.00097  -0.04090  -0.04008  -3.02810
         Item               Value     Threshold  Converged?
 Maximum Force            0.022335     0.000450     NO 
 RMS     Force            0.003425     0.000300     NO 
 Maximum Displacement     0.098669     0.001800     NO 
 RMS     Displacement     0.028945     0.001200     NO 
 Predicted change in Energy=-2.040072D-03
 GradGradGradGradGradGradGradGradGradGradGradGradGradGradGradGradGradGrad

                          Input orientation:                          
 ---------------------------------------------------------------------
 Center     Atomic      Atomic             Coordinates (Angstroms)
 Number     Number       Type             X           Y           Z
 ---------------------------------------------------------------------
      1          5           0       -1.786191    0.712305   -0.069920
      2          9           0       -1.711039    1.816396   -0.900764
      3          9           0       -1.915679    1.041586    1.276762
      4          9           0       -2.749384   -0.192053   -0.490910
      5          8           0       -0.406526   -0.032923   -0.208407
      6          6           0       -0.470433   -1.475560    0.073641
      7          6           0        0.762009   -2.205561   -0.413144
      8          6           0        0.742595    0.599651    0.460879
      9          6           0        0.923259    2.052948    0.090929
     10          1           0       -0.634530   -1.583862    1.152813
     11          1           0       -1.359555   -1.806086   -0.459446
     12          1           0        0.528028   -3.275901   -0.402338
     13          1           0        1.002733   -1.919636   -1.444051
     14          1           0        1.640854   -2.052391    0.222019
     15          1           0        0.592820    0.459220    1.537465
     16          1           0        1.606674    0.020029    0.133052
     17          1           0        1.883658    2.362844    0.520332
     18          1           0        0.967955    2.183527   -0.994711
     19          1           0        0.136290    2.691449    0.498213
 ---------------------------------------------------------------------
                    Distance matrix (angstroms):
                    1          2          3          4          5
     1  B    0.000000
     2  F    1.383823   0.000000
     3  F    1.392389   2.320307   0.000000
     4  F    1.386664   2.297828   2.311190   0.000000
     5  O    1.574172   2.366663   2.374414   2.365188   0.000000
     6  C    2.557065   3.650417   3.142016   2.675767   1.471338
     7  C    3.889096   4.746565   4.535390   4.048474   2.475429
     8  C    2.586348   3.058571   2.815562   3.704945   1.472607
     9  C    3.027262   2.824701   3.238614   4.343602   2.491744
    10  H    2.844958   4.115556   2.923985   3.018537   2.076131
    11  H    2.583803   3.666153   3.381262   2.130192   2.028642
    12  H    4.622975   5.585100   5.237536   4.501044   3.380519
    13  H    4.073506   4.649479   4.968782   4.239270   2.659420
    14  H    4.412868   5.240547   4.830538   4.821132   2.907796
    15  H    2.882262   3.618653   2.588375   3.963432   2.070982
    16  H    3.468714   3.911896   3.841695   4.405627   2.042639
    17  H    4.066997   3.903839   4.093026   5.386575   3.393480
    18  H    3.256540   2.705664   3.844342   4.440249   2.723991
    19  H    2.817041   2.476990   2.745681   4.197627   2.866386
                    6          7          8          9         10
     6  C    0.000000
     7  C    1.512869   0.000000
     8  C    2.434726   2.938283   0.000000
     9  C    3.793816   4.291269   1.510488   0.000000
    10  H    1.096936   2.188390   2.672634   4.096424   0.000000
    11  H    1.088103   2.159342   3.324695   4.517332   1.781691
    12  H    2.112986   1.095669   3.976316   5.366204   2.575468
    13  H    2.161206   1.096573   3.169107   4.259566   3.088216
    14  H    2.193691   1.095108   2.810204   4.169644   2.502652
    15  H    2.648898   3.306745   1.095989   2.177527   2.414235
    16  H    2.560213   2.442343   1.090901   2.145131   2.938601
    17  H    4.524889   4.795811   2.101050   1.096717   4.724171
    18  H    4.074219   4.432238   2.162913   1.094378   4.623099
    19  H    4.232297   5.020240   2.178215   1.092192   4.393285
                   11         12         13         14         15
    11  H    0.000000
    12  H    2.393029   0.000000
    13  H    2.561785   1.774814   0.000000
    14  H    3.086667   1.767818   1.789026   0.000000
    15  H    3.595974   4.209295   3.836199   3.022740   0.000000
    16  H    3.533307   3.509028   2.571828   2.074610   1.786943
    17  H    5.371999   5.872351   4.793169   4.431957   2.514877
    18  H    4.649820   5.509065   4.127840   4.458276   3.086402
    19  H    4.835544   6.047621   5.077915   4.984377   2.504259
                   16         17         18         19
    16  H    0.000000
    17  H    2.390709   0.000000
    18  H    2.522010   1.779332   0.000000
    19  H    3.071133   1.778135   1.782827   0.000000
 Stoichiometry    C4H10BF3O
 Framework group  C1[X(C4H10BF3O)]
 Deg. of freedom    51
 Full point group                 C1      NOp   1
 Largest Abelian subgroup         C1      NOp   1
 Largest concise Abelian subgroup C1      NOp   1
                         Standard orientation:                         
 ---------------------------------------------------------------------
 Center     Atomic      Atomic             Coordinates (Angstroms)
 Number     Number       Type             X           Y           Z
 ---------------------------------------------------------------------
      1          5           0       -1.017233   -0.612464   -0.025258
      2          9           0       -1.833968   -0.000554   -0.959857
      3          9           0       -1.407985   -0.375447    1.289992
      4          9           0       -0.839814   -1.961604   -0.292059
      5          8           0        0.402342    0.048392   -0.186800
      6          6           0        1.518772   -0.812645    0.233956
      7          6           0        2.851882   -0.300043   -0.264874
      8          6           0        0.544871    1.416314    0.339553
      9          6           0       -0.508171    2.367803   -0.177500
     10          1           0        1.470449   -0.888203    1.327219
     11          1           0        1.280782   -1.780120   -0.203446
     12          1           0        3.577417   -1.111059   -0.137039
     13          1           0        2.800269   -0.053920   -1.332222
     14          1           0        3.223260    0.567103    0.291361
     15          1           0        0.531013    1.333271    1.432304
     16          1           0        1.533770    1.737674    0.009594
     17          1           0       -0.207776    3.369133    0.153997
     18          1           0       -0.547964    2.359515   -1.271122
     19          1           0       -1.502015    2.151644    0.220537
 ---------------------------------------------------------------------
 Rotational constants (GHZ):           1.8531667           1.3953636           0.9893512
 Standard basis: Aug-CC-pVDZ (5D, 7F)
 There are   315 symmetry adapted cartesian basis functions of A   symmetry.
 There are   297 symmetry adapted basis functions of A   symmetry.
   297 basis functions,   497 primitive gaussians,   315 cartesian basis functions
    37 alpha electrons       37 beta electrons
       nuclear repulsion energy       526.4578273783 Hartrees.
 NAtoms=   19 NActive=   19 NUniq=   19 SFac= 1.00D+00 NAtFMM=   60 NAOKFM=F Big=F
 Integral buffers will be    131072 words long.
 Raffenetti 2 integral format.
 Two-electron integral symmetry is turned on.
 Nuclear repulsion after empirical dispersion term =      526.4456694809 Hartrees.
 Force PCM accuracy= 1.00D-12.
 ------------------------------------------------------------------------------
 Polarizable Continuum Model (PCM)
 =================================
 Model                : C-PCM.
 Atomic radii         : UFF (Universal Force Field).
 Polarization charges : Total charges.
 Charge compensation  : None.
 Solution method      : On-the-fly selection.
 Cavity type          : Scaled VdW (van der Waals Surface) (Alpha=1.100).
 Cavity algorithm     : GePol (No added spheres)
                        Default sphere list used, NSphG=   19.
                        Lebedev-Laikov grids with approx.  5.0 points / Ang**2.
                        Smoothing algorithm: York/Karplus (Gamma=1.0000).
                        Polarization charges: spherical gaussians, with
                                              point-specific exponents (IZeta= 3).
                        Self-potential: point-specific (ISelfS= 7).
                        Self-field    : sphere-specific E.n sum rule (ISelfD= 2).
 1st derivatives      : Analytical E(r).r(x)/FMM algorithm (CHGder, D1EAlg=3).
                        Cavity 1st derivative terms included.
 Solvent              : Benzene, Eps=   2.270600 Eps(inf)=   2.253301
 ------------------------------------------------------------------------------
 Spheres list:
 ISph  on   Nord     Re0    Alpha      Xe            Ye            Ze
    1   B      1    2.0415  1.100     -1.017233     -0.612464     -0.025258
    2   F      2    1.6820  1.100     -1.833968     -0.000554     -0.959857
    3   F      3    1.6820  1.100     -1.407985     -0.375447      1.289992
    4   F      4    1.6820  1.100     -0.839814     -1.961604     -0.292059
    5   O      5    1.7500  1.100      0.402342      0.048392     -0.186800
    6   C      6    1.9255  1.100      1.518772     -0.812645      0.233956
    7   C      7    1.9255  1.100      2.851882     -0.300043     -0.264874
    8   C      8    1.9255  1.100      0.544871      1.416314      0.339553
    9   C      9    1.9255  1.100     -0.508171      2.367803     -0.177500
   10   H     10    1.4430  1.100      1.470449     -0.888203      1.327219
   11   H     11    1.4430  1.100      1.280782     -1.780120     -0.203446
   12   H     12    1.4430  1.100      3.577417     -1.111059     -0.137039
   13   H     13    1.4430  1.100      2.800269     -0.053920     -1.332222
   14   H     14    1.4430  1.100      3.223260      0.567103      0.291361
   15   H     15    1.4430  1.100      0.531013      1.333271      1.432304
   16   H     16    1.4430  1.100      1.533770      1.737674      0.009594
   17   H     17    1.4430  1.100     -0.207776      3.369133      0.153997
   18   H     18    1.4430  1.100     -0.547964      2.359515     -1.271122
   19   H     19    1.4430  1.100     -1.502015      2.151644      0.220537
 ------------------------------------------------------------------------------
 One-electron integrals computed using PRISM.
 NBasis=   297 RedAO= T EigKep=  3.02D-05  NBF=   297
 NBsUse=   297 1.00D-06 EigRej= -1.00D+00 NBFU=   297
 Initial guess from the checkpoint file:  "/inspire/hdd/project/materialscienceresearch/lipenghui-253107030018/g16/00-B-DFT-Shift/04-output/BF3OEt2_C6D6/BF3OEt2_C6D6.chk"
 B after Tr=     0.000000   -0.000000    0.000000
         Rot=    0.999868   -0.001759    0.002202    0.015991 Ang=  -1.86 deg.
 ExpMin= 2.38D-02 ExpMax= 1.47D+04 ExpMxC= 5.03D+02 IAcc=3 IRadAn=         5 AccDes= 0.00D+00
 Harris functional with IExCor= 4639 and IRadAn=       5 diagonalized for initial guess.
 HarFok:  IExCor= 4639 AccDes= 0.00D+00 IRadAn=         5 IDoV= 1 UseB2=F ITyADJ=14
 ICtDFT=  3500011 ScaDFX=  1.000000  1.000000  1.000000  1.000000
 FoFCou: FMM=F IPFlag=           0 FMFlag=      100000 FMFlg1=           0
         NFxFlg=           0 DoJE=T BraDBF=F KetDBF=T FulRan=T
         wScrn=  0.000000 ICntrl=       500 IOpCl=  0 I1Cent=   200000004 NGrid=           0
         NMat0=    1 NMatS0=      1 NMatT0=    0 NMatD0=    1 NMtDS0=    0 NMtDT0=    0
 Petite list used in FoFCou.
 Requested convergence on RMS density matrix=1.00D-08 within 128 cycles.
 Requested convergence on MAX density matrix=1.00D-06.
 Requested convergence on             energy=1.00D-06.
 No special actions if energy rises.
 Inv3:  Mode=1 IEnd=     6732012.
 Iteration    1 A*A^-1 deviation from unit magnitude is 4.33D-15 for   1497.
 Iteration    1 A*A^-1 deviation from orthogonality  is 1.89D-15 for   1450    889.
 Iteration    1 A^-1*A deviation from unit magnitude is 4.33D-15 for   1497.
 Iteration    1 A^-1*A deviation from orthogonality  is 1.89D-15 for   1488   1043.
 Error on total polarization charges =  0.00629
 SCF Done:  E(RwB97XD) =  -558.143923827     A.U. after   11 cycles
            NFock= 11  Conv=0.45D-08     -V/T= 2.0059
 D1PCM: C-PCM CHGder 1st derivatives, ID1Alg=3 FixD1E=F DoIter=F DoCFld=F I1PDM=0.
 Calling FoFJK, ICntrl=      2127 FMM=F ISym2X=0 I1Cent= 0 IOpClX= 0 NMat=1 NMatS=1 NMatT=0.
 ***** Axes restored to original set *****
 -------------------------------------------------------------------
 Center     Atomic                   Forces (Hartrees/Bohr)
 Number     Number              X              Y              Z
 -------------------------------------------------------------------
      1        5          -0.009304478    0.005565018   -0.000014642
      2        9           0.000060255   -0.000897330    0.000808681
      3        9           0.000433224    0.000045307   -0.000685150
      4        9          -0.000368070    0.000535368   -0.000083112
      5        8           0.009215133   -0.003184583    0.000274240
      6        6           0.000486995    0.000633341   -0.000723633
      7        6          -0.000804185   -0.000249042    0.000071697
      8        6          -0.000634049   -0.000387171   -0.000795055
      9        6          -0.000438723   -0.001067119    0.000203496
     10        1           0.000537953   -0.000738809    0.000612566
     11        1          -0.000062207   -0.000934525   -0.000253301
     12        1           0.000287783   -0.001137324   -0.000090406
     13        1          -0.000303970   -0.000039997   -0.000482974
     14        1          -0.000150850   -0.000306922    0.000254945
     15        1           0.000132753    0.000558354    0.000853915
     16        1           0.000628361    0.000837875    0.000058907
     17        1           0.000604507    0.000738200    0.000231626
     18        1           0.000246098   -0.000097296   -0.000570816
     19        1          -0.000566531    0.000126655    0.000329017
 -------------------------------------------------------------------
 Cartesian Forces:  Max     0.009304478 RMS     0.001998558

 GradGradGradGradGradGradGradGradGradGradGradGradGradGradGradGradGradGrad
 Berny optimization.
 Using GEDIIS/GDIIS optimizer.
 FormGI is forming the generalized inverse of G from B-inverse, IUseBI=4.
 Internal  Forces:  Max     0.010530484 RMS     0.001349917
 Search for a local minimum.
 Step number   4 out of a maximum of   97
 All quantities printed in internal units (Hartrees-Bohrs-Radians)
 Mixed Optimization -- RFO/linear search
 Update second derivatives using D2CorX and points    2    3    4
 DE= -2.14D-03 DEPred=-2.04D-03 R= 1.05D+00
 TightC=F SS=  1.41D+00  RLast= 2.07D-01 DXNew= 1.4270D+00 6.2075D-01
 Trust test= 1.05D+00 RLast= 2.07D-01 DXMaxT set to 8.49D-01
 ITU=  1  1  1  0
 Use linear search instead of GDIIS.
     Eigenvalues ---    0.00254   0.00268   0.01281   0.01340   0.01349
     Eigenvalues ---    0.02479   0.04218   0.04358   0.05146   0.05211
     Eigenvalues ---    0.05261   0.05445   0.05869   0.05953   0.09825
     Eigenvalues ---    0.10409   0.12722   0.12885   0.12923   0.12996
     Eigenvalues ---    0.15181   0.16000   0.16000   0.16001   0.16001
     Eigenvalues ---    0.16101   0.17057   0.19131   0.19626   0.22106
     Eigenvalues ---    0.22811   0.25004   0.25161   0.28240   0.28453
     Eigenvalues ---    0.28467   0.28693   0.29173   0.31834   0.31881
     Eigenvalues ---    0.31935   0.31993   0.32094   0.32139   0.32160
     Eigenvalues ---    0.32255   0.32276   0.34036   0.38804   0.41748
     Eigenvalues ---    0.43274
 RFO step:  Lambda=-9.48062430D-04 EMin= 2.53739390D-03
 Quartic linear search produced a step of  0.13190.
 Iteration  1 RMS(Cart)=  0.03842359 RMS(Int)=  0.00058810
 Iteration  2 RMS(Cart)=  0.00076890 RMS(Int)=  0.00005018
 Iteration  3 RMS(Cart)=  0.00000027 RMS(Int)=  0.00005018
 Variable       Old X    -DE/DX   Delta X   Delta X   Delta X     New X
                                 (Linear)    (Quad)   (Total)
    R1        2.61505  -0.00120   0.00309  -0.01196  -0.00887   2.60618
    R2        2.63123  -0.00069   0.00287  -0.00946  -0.00659   2.62465
    R3        2.62042  -0.00007   0.00260  -0.00754  -0.00494   2.61547
    R4        2.97475   0.01053   0.00875   0.04916   0.05791   3.03267
    R5        2.78043   0.00261   0.00030   0.01051   0.01082   2.79124
    R6        2.78282   0.00042   0.00103   0.00509   0.00612   2.78894
    R7        2.85891   0.00013  -0.00037  -0.00142  -0.00179   2.85712
    R8        2.07291   0.00060  -0.00035   0.00071   0.00036   2.07327
    R9        2.05622   0.00046  -0.00020  -0.00028  -0.00048   2.05574
   R10        2.07051   0.00105  -0.00045   0.00229   0.00184   2.07235
   R11        2.07222   0.00037  -0.00027   0.00005  -0.00022   2.07200
   R12        2.06945  -0.00001  -0.00025  -0.00137  -0.00162   2.06783
   R13        2.85441  -0.00035  -0.00024  -0.00330  -0.00354   2.85087
   R14        2.07112   0.00075  -0.00035   0.00122   0.00087   2.07199
   R15        2.06150   0.00003  -0.00036  -0.00177  -0.00213   2.05937
   R16        2.07249   0.00083  -0.00038   0.00160   0.00122   2.07371
   R17        2.06807   0.00057  -0.00031   0.00059   0.00028   2.06836
   R18        2.06394   0.00061  -0.00038   0.00058   0.00020   2.06414
    A1        1.97910  -0.00011   0.00185   0.00141   0.00317   1.98228
    A2        1.95605  -0.00033   0.00261   0.00534   0.00790   1.96395
    A3        1.85177  -0.00039  -0.00151  -0.00676  -0.00833   1.84344
    A4        1.96413   0.00006   0.00150   0.00632   0.00775   1.97188
    A5        1.85308  -0.00064  -0.00174  -0.00833  -0.01014   1.84294
    A6        1.84765   0.00148  -0.00349   0.00005  -0.00349   1.84416
    A7        1.99242   0.00039   0.00066   0.00677   0.00728   1.99970
    A8        2.02703  -0.00202   0.00314  -0.00575  -0.00284   2.02419
    A9        1.94760   0.00185   0.00077   0.01450   0.01515   1.96275
   A10        1.95633   0.00219  -0.00216   0.01071   0.00857   1.96489
   A11        1.86700  -0.00032  -0.00298   0.00201  -0.00098   1.86603
   A12        1.81256  -0.00009  -0.00415  -0.00294  -0.00704   1.80551
   A13        1.97227  -0.00077   0.00196  -0.00203  -0.00017   1.97211
   A14        1.94062  -0.00143   0.00405  -0.00919  -0.00519   1.93543
   A15        1.90685   0.00053   0.00289   0.00172   0.00447   1.91131
   A16        1.86945   0.00075  -0.00203   0.00116  -0.00087   1.86857
   A17        1.93426  -0.00035   0.00017  -0.00221  -0.00205   1.93221
   A18        1.98193  -0.00011   0.00103   0.00090   0.00192   1.98385
   A19        1.88690  -0.00025  -0.00050  -0.00237  -0.00289   1.88401
   A20        1.87789  -0.00041   0.00053  -0.00253  -0.00200   1.87590
   A21        1.90988   0.00037   0.00070   0.00473   0.00543   1.91531
   A22        1.97721  -0.00176  -0.00070  -0.01084  -0.01156   1.96565
   A23        1.85956   0.00087  -0.00299  -0.00062  -0.00369   1.85587
   A24        1.82685   0.00136  -0.00344   0.00930   0.00589   1.83274
   A25        1.96082  -0.00013   0.00150  -0.00425  -0.00288   1.95794
   A26        1.92076  -0.00021   0.00272   0.00177   0.00448   1.92525
   A27        1.91278   0.00002   0.00269   0.00589   0.00849   1.92127
   A28        1.85533   0.00085  -0.00190   0.00291   0.00101   1.85635
   A29        1.94191  -0.00023   0.00013  -0.00178  -0.00166   1.94025
   A30        1.96596  -0.00049   0.00080  -0.00314  -0.00234   1.96362
   A31        1.89539  -0.00025  -0.00013  -0.00038  -0.00051   1.89488
   A32        1.89630  -0.00018   0.00062   0.00088   0.00150   1.89779
   A33        1.90668   0.00030   0.00041   0.00166   0.00207   1.90874
    D1       -2.68351   0.00029   0.00273   0.00776   0.01049  -2.67302
    D2        1.29557  -0.00084  -0.00223  -0.01559  -0.01778   1.27780
    D3        1.48904   0.00094   0.00227   0.01383   0.01607   1.50511
    D4       -0.81506  -0.00019  -0.00269  -0.00952  -0.01220  -0.82726
    D5       -0.60220   0.00045   0.00323   0.01063   0.01383  -0.58837
    D6       -2.90631  -0.00068  -0.00173  -0.01271  -0.01444  -2.92074
    D7        2.88062  -0.00042  -0.00479  -0.05416  -0.05901   2.82160
    D8       -1.23159  -0.00020  -0.00590  -0.04837  -0.05432  -1.28592
    D9        0.78409   0.00022  -0.00591  -0.04693  -0.05290   0.73119
   D10       -1.06089  -0.00115   0.00113  -0.04132  -0.04014  -1.10103
   D11        1.11009  -0.00093   0.00002  -0.03553  -0.03545   1.07464
   D12        3.12577  -0.00051   0.00001  -0.03409  -0.03403   3.09175
   D13       -0.91432   0.00047   0.00149   0.02257   0.02404  -0.89028
   D14        1.25044  -0.00021   0.00075   0.00969   0.01047   1.26091
   D15       -3.00701   0.00081   0.00080   0.02035   0.02117  -2.98585
   D16        3.04420  -0.00001  -0.00325   0.00304  -0.00025   3.04395
   D17       -1.07423  -0.00070  -0.00400  -0.00983  -0.01382  -1.08805
   D18        0.95150   0.00033  -0.00395   0.00082  -0.00312   0.94838
   D19       -2.89294   0.00008  -0.00264  -0.00064  -0.00328  -2.89622
   D20       -0.83840   0.00002  -0.00438  -0.00402  -0.00838  -0.84678
   D21        1.31963   0.00016  -0.00257   0.00120  -0.00135   1.31828
   D22        1.27900  -0.00055   0.00143  -0.00971  -0.00825   1.27075
   D23       -2.94964  -0.00061  -0.00030  -0.01308  -0.01335  -2.96299
   D24       -0.79162  -0.00047   0.00150  -0.00786  -0.00632  -0.79794
   D25       -0.87272   0.00042  -0.00653  -0.00346  -0.01005  -0.88277
   D26        1.18182   0.00036  -0.00826  -0.00684  -0.01515   1.16667
   D27       -2.94334   0.00050  -0.00646  -0.00162  -0.00812  -2.95146
   D28       -2.99147  -0.00033  -0.00236  -0.03347  -0.03581  -3.02728
   D29       -0.93096  -0.00025  -0.00359  -0.03315  -0.03671  -0.96767
   D30        1.21685  -0.00038  -0.00236  -0.03463  -0.03697   1.17989
   D31        1.18328  -0.00008   0.00096  -0.02151  -0.02055   1.16273
   D32       -3.03939   0.00000  -0.00027  -0.02119  -0.02145  -3.06084
   D33       -0.89158  -0.00013   0.00096  -0.02267  -0.02170  -0.91328
   D34       -0.95324   0.00013  -0.00529  -0.02740  -0.03271  -0.98595
   D35        1.10728   0.00022  -0.00651  -0.02708  -0.03361   1.07366
   D36       -3.02810   0.00009  -0.00529  -0.02855  -0.03387  -3.06197
         Item               Value     Threshold  Converged?
 Maximum Force            0.010530     0.000450     NO 
 RMS     Force            0.001350     0.000300     NO 
 Maximum Displacement     0.105723     0.001800     NO 
 RMS     Displacement     0.038303     0.001200     NO 
 Predicted change in Energy=-5.016722D-04
 GradGradGradGradGradGradGradGradGradGradGradGradGradGradGradGradGradGrad

                          Input orientation:                          
 ---------------------------------------------------------------------
 Center     Atomic      Atomic             Coordinates (Angstroms)
 Number     Number       Type             X           Y           Z
 ---------------------------------------------------------------------
      1          5           0       -1.790999    0.728090   -0.079657
      2          9           0       -1.684991    1.818781   -0.917008
      3          9           0       -1.930015    1.067599    1.259918
      4          9           0       -2.743962   -0.179241   -0.508846
      5          8           0       -0.384601   -0.037400   -0.186951
      6          6           0       -0.451343   -1.486674    0.090297
      7          6           0        0.751881   -2.234727   -0.437509
      8          6           0        0.758107    0.612812    0.483539
      9          6           0        0.909282    2.063150    0.096778
     10          1           0       -0.584299   -1.598661    1.173565
     11          1           0       -1.358500   -1.800649   -0.421465
     12          1           0        0.501519   -3.302209   -0.416993
     13          1           0        0.956199   -1.955575   -1.477963
     14          1           0        1.654168   -2.097066    0.166073
     15          1           0        0.596383    0.486289    1.560590
     16          1           0        1.632030    0.043881    0.167023
     17          1           0        1.845544    2.408762    0.553033
     18          1           0        0.988036    2.176519   -0.989011
     19          1           0        0.089099    2.682298    0.467002
 ---------------------------------------------------------------------
                    Distance matrix (angstroms):
                    1          2          3          4          5
     1  B    0.000000
     2  F    1.379131   0.000000
     3  F    1.388904   2.315884   0.000000
     4  F    1.384049   2.297849   2.312065   0.000000
     5  O    1.604818   2.381051   2.388045   2.385439   0.000000
     6  C    2.593981   3.669139   3.174711   2.706372   1.477063
     7  C    3.920788   4.753861   4.580303   4.055987   2.486487
     8  C    2.613124   3.063432   2.834712   3.725139   1.475843
     9  C    3.017455   2.796020   3.225775   4.329121   2.483334
    10  H    2.905247   4.154628   2.987867   3.083732   2.080486
    11  H    2.588128   3.667756   3.373503   2.134503   2.027936
    12  H    4.648950   5.590651   5.274429   4.504943   3.390738
    13  H    4.087103   4.640724   4.996579   4.217314   2.672799
    14  H    4.462181   5.258983   4.904892   4.845319   2.919491
    15  H    2.906625   3.621974   2.609791   3.985398   2.071348
    16  H    3.499446   3.915102   3.864011   4.433496   2.049074
    17  H    4.055786   3.869596   4.068568   5.374840   3.391877
    18  H    3.263113   2.697820   3.847389   4.439366   2.725595
    19  H    2.766321   2.410091   2.704217   4.143298   2.837042
                    6          7          8          9         10
     6  C    0.000000
     7  C    1.511923   0.000000
     8  C    2.454638   2.992799   0.000000
     9  C    3.801656   4.333818   1.508615   0.000000
    10  H    1.097128   2.187583   2.677462   4.098673   0.000000
    11  H    1.087849   2.154621   3.335244   4.510029   1.784463
    12  H    2.112216   1.096641   4.025443   5.405304   2.571177
    13  H    2.158815   1.096456   3.237800   4.316499   3.087252
    14  H    2.193513   1.094251   2.871785   4.226944   2.504832
    15  H    2.674337   3.379424   1.096449   2.174199   2.427101
    16  H    2.586297   2.516382   1.089774   2.145867   2.936527
    17  H    4.545793   4.872295   2.100663   1.097361   4.727435
    18  H    4.081139   4.451855   2.160197   1.094528   4.626117
    19  H    4.220700   5.043269   2.174998   1.092297   4.390821
                   11         12         13         14         15
    11  H    0.000000
    12  H    2.390475   0.000000
    13  H    2.549122   1.773644   0.000000
    14  H    3.083705   1.766618   1.791657   0.000000
    15  H    3.602805   4.274641   3.914712   3.120466   0.000000
    16  H    3.562567   3.579868   2.675921   2.141062   1.791736
    17  H    5.379097   5.946641   4.895234   4.526461   2.504291
    18  H    4.652548   5.529951   4.161044   4.476771   3.083948
    19  H    4.793927   6.063486   5.103393   5.038087   2.505140
                   16         17         18         19
    16  H    0.000000
    17  H    2.405671   0.000000
    18  H    2.509838   1.779651   0.000000
    19  H    3.071135   1.779697   1.784342   0.000000
 Stoichiometry    C4H10BF3O
 Framework group  C1[X(C4H10BF3O)]
 Deg. of freedom    51
 Full point group                 C1      NOp   1
 Largest Abelian subgroup         C1      NOp   1
 Largest concise Abelian subgroup C1      NOp   1
                         Standard orientation:                         
 ---------------------------------------------------------------------
 Center     Atomic      Atomic             Coordinates (Angstroms)
 Number     Number       Type             X           Y           Z
 ---------------------------------------------------------------------
      1          5           0       -1.016322   -0.639706   -0.026965
      2          9           0       -1.819778   -0.039639   -0.973738
      3          9           0       -1.425959   -0.404246    1.279102
      4          9           0       -0.796476   -1.980446   -0.290927
      5          8           0        0.416728    0.069522   -0.164091
      6          6           0        1.558699   -0.766080    0.259452
      7          6           0        2.878058   -0.263258   -0.281264
      8          6           0        0.506749    1.449859    0.350379
      9          6           0       -0.583843    2.342233   -0.188318
     10          1           0        1.533309   -0.809535    1.355425
     11          1           0        1.320324   -1.745912   -0.148619
     12          1           0        3.611818   -1.065264   -0.136338
     13          1           0        2.805062   -0.062425   -1.356695
     14          1           0        3.254971    0.624459    0.235726
     15          1           0        0.477176    1.373946    1.443797
     16          1           0        1.483484    1.808606    0.026500
     17          1           0       -0.352763    3.357090    0.159345
     18          1           0       -0.590324    2.341776   -1.282827
     19          1           0       -1.573333    2.062055    0.179816
 ---------------------------------------------------------------------
 Rotational constants (GHZ):           1.8484926           1.3802167           0.9818362
 Standard basis: Aug-CC-pVDZ (5D, 7F)
 There are   315 symmetry adapted cartesian basis functions of A   symmetry.
 There are   297 symmetry adapted basis functions of A   symmetry.
   297 basis functions,   497 primitive gaussians,   315 cartesian basis functions
    37 alpha electrons       37 beta electrons
       nuclear repulsion energy       524.9535501758 Hartrees.
 NAtoms=   19 NActive=   19 NUniq=   19 SFac= 1.00D+00 NAtFMM=   60 NAOKFM=F Big=F
 Integral buffers will be    131072 words long.
 Raffenetti 2 integral format.
 Two-electron integral symmetry is turned on.
 Nuclear repulsion after empirical dispersion term =      524.9414456537 Hartrees.
 Force PCM accuracy= 1.00D-12.
 ------------------------------------------------------------------------------
 Polarizable Continuum Model (PCM)
 =================================
 Model                : C-PCM.
 Atomic radii         : UFF (Universal Force Field).
 Polarization charges : Total charges.
 Charge compensation  : None.
 Solution method      : On-the-fly selection.
 Cavity type          : Scaled VdW (van der Waals Surface) (Alpha=1.100).
 Cavity algorithm     : GePol (No added spheres)
                        Default sphere list used, NSphG=   19.
                        Lebedev-Laikov grids with approx.  5.0 points / Ang**2.
                        Smoothing algorithm: York/Karplus (Gamma=1.0000).
                        Polarization charges: spherical gaussians, with
                                              point-specific exponents (IZeta= 3).
                        Self-potential: point-specific (ISelfS= 7).
                        Self-field    : sphere-specific E.n sum rule (ISelfD= 2).
 1st derivatives      : Analytical E(r).r(x)/FMM algorithm (CHGder, D1EAlg=3).
                        Cavity 1st derivative terms included.
 Solvent              : Benzene, Eps=   2.270600 Eps(inf)=   2.253301
 ------------------------------------------------------------------------------
 Spheres list:
 ISph  on   Nord     Re0    Alpha      Xe            Ye            Ze
    1   B      1    2.0415  1.100     -1.016322     -0.639706     -0.026965
    2   F      2    1.6820  1.100     -1.819778     -0.039639     -0.973738
    3   F      3    1.6820  1.100     -1.425959     -0.404246      1.279102
    4   F      4    1.6820  1.100     -0.796476     -1.980446     -0.290927
    5   O      5    1.7500  1.100      0.416728      0.069522     -0.164091
    6   C      6    1.9255  1.100      1.558699     -0.766080      0.259452
    7   C      7    1.9255  1.100      2.878058     -0.263258     -0.281264
    8   C      8    1.9255  1.100      0.506749      1.449859      0.350379
    9   C      9    1.9255  1.100     -0.583843      2.342233     -0.188318
   10   H     10    1.4430  1.100      1.533309     -0.809535      1.355425
   11   H     11    1.4430  1.100      1.320324     -1.745912     -0.148619
   12   H     12    1.4430  1.100      3.611818     -1.065264     -0.136338
   13   H     13    1.4430  1.100      2.805062     -0.062425     -1.356695
   14   H     14    1.4430  1.100      3.254971      0.624459      0.235726
   15   H     15    1.4430  1.100      0.477176      1.373946      1.443797
   16   H     16    1.4430  1.100      1.483484      1.808606      0.026500
   17   H     17    1.4430  1.100     -0.352763      3.357090      0.159345
   18   H     18    1.4430  1.100     -0.590324      2.341776     -1.282827
   19   H     19    1.4430  1.100     -1.573333      2.062055      0.179816
 ------------------------------------------------------------------------------
 One-electron integrals computed using PRISM.
 NBasis=   297 RedAO= T EigKep=  3.14D-05  NBF=   297
 NBsUse=   297 1.00D-06 EigRej= -1.00D+00 NBFU=   297
 Initial guess from the checkpoint file:  "/inspire/hdd/project/materialscienceresearch/lipenghui-253107030018/g16/00-B-DFT-Shift/04-output/BF3OEt2_C6D6/BF3OEt2_C6D6.chk"
 B after Tr=    -0.000000    0.000000   -0.000000
         Rot=    0.999927    0.002082    0.002142   -0.011730 Ang=   1.39 deg.
 ExpMin= 2.38D-02 ExpMax= 1.47D+04 ExpMxC= 5.03D+02 IAcc=3 IRadAn=         5 AccDes= 0.00D+00
 Harris functional with IExCor= 4639 and IRadAn=       5 diagonalized for initial guess.
 HarFok:  IExCor= 4639 AccDes= 0.00D+00 IRadAn=         5 IDoV= 1 UseB2=F ITyADJ=14
 ICtDFT=  3500011 ScaDFX=  1.000000  1.000000  1.000000  1.000000
 FoFCou: FMM=F IPFlag=           0 FMFlag=      100000 FMFlg1=           0
         NFxFlg=           0 DoJE=T BraDBF=F KetDBF=T FulRan=T
         wScrn=  0.000000 ICntrl=       500 IOpCl=  0 I1Cent=   200000004 NGrid=           0
         NMat0=    1 NMatS0=      1 NMatT0=    0 NMatD0=    1 NMtDS0=    0 NMtDT0=    0
 Petite list used in FoFCou.
 Requested convergence on RMS density matrix=1.00D-08 within 128 cycles.
 Requested convergence on MAX density matrix=1.00D-06.
 Requested convergence on             energy=1.00D-06.
 No special actions if energy rises.
 Inv3:  Mode=1 IEnd=     6759003.
 Iteration    1 A*A^-1 deviation from unit magnitude is 4.22D-15 for   1473.
 Iteration    1 A*A^-1 deviation from orthogonality  is 2.93D-15 for   1492   1077.
 Iteration    1 A^-1*A deviation from unit magnitude is 4.22D-15 for   1473.
 Iteration    1 A^-1*A deviation from orthogonality  is 2.92D-15 for   1486    772.
 Error on total polarization charges =  0.00632
 SCF Done:  E(RwB97XD) =  -558.144409660     A.U. after   11 cycles
            NFock= 11  Conv=0.42D-08     -V/T= 2.0060
 D1PCM: C-PCM CHGder 1st derivatives, ID1Alg=3 FixD1E=F DoIter=F DoCFld=F I1PDM=0.
 Calling FoFJK, ICntrl=      2127 FMM=F ISym2X=0 I1Cent= 0 IOpClX= 0 NMat=1 NMatS=1 NMatT=0.
 ***** Axes restored to original set *****
 -------------------------------------------------------------------
 Center     Atomic                   Forces (Hartrees/Bohr)
 Number     Number              X              Y              Z
 -------------------------------------------------------------------
      1        5          -0.003622411    0.001538963    0.000529727
      2        9          -0.000804288   -0.000260904   -0.000755029
      3        9           0.000074356   -0.000115363   -0.000021798
      4        9           0.000164801    0.000245382   -0.000009785
      5        8           0.006013682   -0.003256223    0.000141948
      6        6          -0.000221822    0.005136038   -0.000353943
      7        6          -0.000922347    0.000244974   -0.000477586
      8        6          -0.005600838   -0.002350911   -0.000796335
      9        6           0.001396507   -0.000174205    0.000458552
     10        1           0.000309469   -0.000673456    0.000407000
     11        1          -0.000683438   -0.001106792    0.000174358
     12        1           0.000276577   -0.000619149    0.000052409
     13        1           0.000163447    0.000154798   -0.000338948
     14        1           0.000603721    0.000592266    0.000422250
     15        1           0.000847829    0.000211040    0.000666663
     16        1           0.001448414   -0.000739037   -0.000028459
     17        1           0.000320010    0.000736711    0.000054034
     18        1           0.000048242    0.000159012   -0.000471940
     19        1           0.000188089    0.000276856    0.000346885
 -------------------------------------------------------------------
 Cartesian Forces:  Max     0.006013682 RMS     0.001568920

 GradGradGradGradGradGradGradGradGradGradGradGradGradGradGradGradGradGrad
 Berny optimization.
 Using GEDIIS/GDIIS optimizer.
 FormGI is forming the generalized inverse of G from B-inverse, IUseBI=4.
 Internal  Forces:  Max     0.004323740 RMS     0.001020122
 Search for a local minimum.
 Step number   5 out of a maximum of   97
 All quantities printed in internal units (Hartrees-Bohrs-Radians)
 Mixed Optimization -- RFO/linear search
 Update second derivatives using D2CorX and points    2    3    4    5
 DE= -4.86D-04 DEPred=-5.02D-04 R= 9.68D-01
 TightC=F SS=  1.41D+00  RLast= 1.73D-01 DXNew= 1.4270D+00 5.2048D-01
 Trust test= 9.68D-01 RLast= 1.73D-01 DXMaxT set to 8.49D-01
 ITU=  1  1  1  1  0
 Use linear search instead of GDIIS.
     Eigenvalues ---    0.00245   0.00279   0.01019   0.01343   0.01413
     Eigenvalues ---    0.02457   0.04309   0.04510   0.05162   0.05239
     Eigenvalues ---    0.05295   0.05648   0.05908   0.05976   0.09823
     Eigenvalues ---    0.10219   0.11493   0.12881   0.12949   0.13102
     Eigenvalues ---    0.13213   0.16000   0.16000   0.16001   0.16016
     Eigenvalues ---    0.16046   0.16671   0.19404   0.20537   0.22195
     Eigenvalues ---    0.24793   0.25041   0.26243   0.27968   0.28432
     Eigenvalues ---    0.28552   0.28790   0.29760   0.31835   0.31935
     Eigenvalues ---    0.31986   0.32093   0.32134   0.32154   0.32160
     Eigenvalues ---    0.32256   0.32667   0.33727   0.37932   0.41702
     Eigenvalues ---    0.47563
 RFO step:  Lambda=-5.60735070D-04 EMin= 2.45256235D-03
 Quartic linear search produced a step of  0.00822.
 Iteration  1 RMS(Cart)=  0.03755012 RMS(Int)=  0.00069543
 Iteration  2 RMS(Cart)=  0.00079538 RMS(Int)=  0.00001469
 Iteration  3 RMS(Cart)=  0.00000047 RMS(Int)=  0.00001469
 Variable       Old X    -DE/DX   Delta X   Delta X   Delta X     New X
                                 (Linear)    (Quad)   (Total)
    R1        2.60618   0.00019  -0.00007  -0.00666  -0.00673   2.59945
    R2        2.62465  -0.00006  -0.00005  -0.00627  -0.00633   2.61832
    R3        2.61547  -0.00027  -0.00004  -0.00650  -0.00654   2.60893
    R4        3.03267   0.00432   0.00048   0.04985   0.05033   3.08300
    R5        2.79124  -0.00366   0.00009  -0.00196  -0.00188   2.78937
    R6        2.78894  -0.00177   0.00005   0.00072   0.00077   2.78971
    R7        2.85712   0.00004  -0.00001  -0.00178  -0.00179   2.85533
    R8        2.07327   0.00043   0.00000   0.00076   0.00076   2.07403
    R9        2.05574   0.00081  -0.00000   0.00132   0.00132   2.05705
   R10        2.07235   0.00054   0.00002   0.00179   0.00180   2.07415
   R11        2.07200   0.00039  -0.00000   0.00043   0.00043   2.07243
   R12        2.06783   0.00081  -0.00001   0.00101   0.00100   2.06883
   R13        2.85087   0.00106  -0.00003   0.00095   0.00092   2.85179
   R14        2.07199   0.00051   0.00001   0.00122   0.00123   2.07322
   R15        2.05937   0.00155  -0.00002   0.00284   0.00282   2.06219
   R16        2.07371   0.00053   0.00001   0.00150   0.00151   2.07523
   R17        2.06836   0.00049   0.00000   0.00091   0.00091   2.06927
   R18        2.06414   0.00014   0.00000  -0.00032  -0.00032   2.06382
    A1        1.98228   0.00027   0.00003   0.00675   0.00676   1.98904
    A2        1.96395  -0.00083   0.00006   0.00239   0.00243   1.96638
    A3        1.84344   0.00106  -0.00007  -0.00178  -0.00186   1.84158
    A4        1.97188   0.00000   0.00006   0.00549   0.00551   1.97739
    A5        1.84294  -0.00018  -0.00008  -0.00789  -0.00800   1.83494
    A6        1.84416  -0.00023  -0.00003  -0.00763  -0.00768   1.83647
    A7        1.99970   0.00021   0.00006   0.00317   0.00323   2.00293
    A8        2.02419   0.00249  -0.00002   0.01200   0.01198   2.03617
    A9        1.96275  -0.00283   0.00012  -0.00847  -0.00839   1.95435
   A10        1.96489  -0.00260   0.00007  -0.00950  -0.00944   1.95545
   A11        1.86603   0.00111  -0.00001   0.00017   0.00012   1.86615
   A12        1.80551   0.00160  -0.00006   0.00648   0.00644   1.81195
   A13        1.97211   0.00022  -0.00000  -0.00224  -0.00227   1.96984
   A14        1.93543   0.00020  -0.00004   0.00260   0.00258   1.93801
   A15        1.91131  -0.00039   0.00004   0.00332   0.00335   1.91467
   A16        1.86857   0.00070  -0.00001   0.00317   0.00316   1.87174
   A17        1.93221   0.00004  -0.00002  -0.00133  -0.00135   1.93086
   A18        1.98385  -0.00062   0.00002  -0.00300  -0.00299   1.98086
   A19        1.88401  -0.00013  -0.00002  -0.00024  -0.00026   1.88375
   A20        1.87590  -0.00000  -0.00002   0.00063   0.00062   1.87652
   A21        1.91531   0.00004   0.00004   0.00101   0.00105   1.91636
   A22        1.96565   0.00269  -0.00010   0.00812   0.00802   1.97367
   A23        1.85587  -0.00020  -0.00003   0.00332   0.00328   1.85916
   A24        1.83274  -0.00085   0.00005  -0.00469  -0.00462   1.82812
   A25        1.95794  -0.00087  -0.00002  -0.00250  -0.00256   1.95539
   A26        1.92525  -0.00085   0.00004  -0.00320  -0.00315   1.92209
   A27        1.92127   0.00011   0.00007  -0.00101  -0.00095   1.92032
   A28        1.85635   0.00079   0.00001   0.00287   0.00287   1.85922
   A29        1.94025   0.00006  -0.00001   0.00012   0.00011   1.94036
   A30        1.96362   0.00005  -0.00002  -0.00053  -0.00055   1.96307
   A31        1.89488  -0.00035  -0.00000  -0.00153  -0.00153   1.89335
   A32        1.89779  -0.00055   0.00001  -0.00267  -0.00266   1.89514
   A33        1.90874  -0.00003   0.00002   0.00160   0.00162   1.91036
    D1       -2.67302   0.00005   0.00009   0.02824   0.02835  -2.64467
    D2        1.27780   0.00151  -0.00015   0.02480   0.02463   1.30243
    D3        1.50511  -0.00069   0.00013   0.02523   0.02540   1.53051
    D4       -0.82726   0.00076  -0.00010   0.02180   0.02168  -0.80558
    D5       -0.58837  -0.00050   0.00011   0.02645   0.02658  -0.56179
    D6       -2.92074   0.00096  -0.00012   0.02302   0.02287  -2.89788
    D7        2.82160  -0.00053  -0.00049  -0.04327  -0.04375   2.77785
    D8       -1.28592  -0.00117  -0.00045  -0.05223  -0.05266  -1.33858
    D9        0.73119  -0.00042  -0.00043  -0.04550  -0.04592   0.68528
   D10       -1.10103   0.00045  -0.00033  -0.03076  -0.03111  -1.13214
   D11        1.07464  -0.00019  -0.00029  -0.03972  -0.04002   1.03462
   D12        3.09175   0.00056  -0.00028  -0.03299  -0.03327   3.05847
   D13       -0.89028  -0.00045   0.00020  -0.01019  -0.01001  -0.90029
   D14        1.26091   0.00001   0.00009  -0.00596  -0.00587   1.25504
   D15       -2.98585  -0.00035   0.00017  -0.00779  -0.00763  -2.99347
   D16        3.04395  -0.00032  -0.00000  -0.01853  -0.01853   3.02541
   D17       -1.08805   0.00014  -0.00011  -0.01430  -0.01439  -1.10244
   D18        0.94838  -0.00022  -0.00003  -0.01613  -0.01615   0.93223
   D19       -2.89622  -0.00044  -0.00003  -0.04232  -0.04233  -2.93855
   D20       -0.84678  -0.00016  -0.00007  -0.04147  -0.04153  -0.88831
   D21        1.31828  -0.00054  -0.00001  -0.04345  -0.04345   1.27483
   D22        1.27075  -0.00012  -0.00007  -0.03376  -0.03384   1.23691
   D23       -2.96299   0.00016  -0.00011  -0.03292  -0.03304  -2.99603
   D24       -0.79794  -0.00022  -0.00005  -0.03489  -0.03495  -0.83289
   D25       -0.88277   0.00008  -0.00008  -0.03844  -0.03853  -0.92130
   D26        1.16667   0.00035  -0.00012  -0.03760  -0.03773   1.12894
   D27       -2.95146  -0.00002  -0.00007  -0.03957  -0.03964  -2.99110
   D28       -3.02728   0.00032  -0.00029   0.01117   0.01087  -3.01641
   D29       -0.96767   0.00041  -0.00030   0.01111   0.01081  -0.95686
   D30        1.17989   0.00046  -0.00030   0.01290   0.01260   1.19249
   D31        1.16273  -0.00071  -0.00017   0.00289   0.00272   1.16546
   D32       -3.06084  -0.00062  -0.00018   0.00283   0.00266  -3.05818
   D33       -0.91328  -0.00058  -0.00018   0.00462   0.00445  -0.90883
   D34       -0.98595   0.00039  -0.00027   0.00830   0.00802  -0.97793
   D35        1.07366   0.00048  -0.00028   0.00824   0.00796   1.08162
   D36       -3.06197   0.00052  -0.00028   0.01003   0.00975  -3.05221
         Item               Value     Threshold  Converged?
 Maximum Force            0.004324     0.000450     NO 
 RMS     Force            0.001020     0.000300     NO 
 Maximum Displacement     0.127518     0.001800     NO 
 RMS     Displacement     0.037619     0.001200     NO 
 Predicted change in Energy=-2.888810D-04
 GradGradGradGradGradGradGradGradGradGradGradGradGradGradGradGradGradGrad

                          Input orientation:                          
 ---------------------------------------------------------------------
 Center     Atomic      Atomic             Coordinates (Angstroms)
 Number     Number       Type             X           Y           Z
 ---------------------------------------------------------------------
      1          5           0       -1.822031    0.731570   -0.097999
      2          9           0       -1.716984    1.795940   -0.963024
      3          9           0       -1.962932    1.098086    1.230752
      4          9           0       -2.755529   -0.198507   -0.509780
      5          8           0       -0.386049   -0.038679   -0.177423
      6          6           0       -0.445075   -1.486892    0.101823
      7          6           0        0.749902   -2.221717   -0.459524
      8          6           0        0.751927    0.609401    0.503984
      9          6           0        0.931524    2.055252    0.110724
     10          1           0       -0.542274   -1.598854    1.189292
     11          1           0       -1.364831   -1.808019   -0.383828
     12          1           0        0.530097   -3.295306   -0.397811
     13          1           0        0.898417   -1.967669   -1.515988
     14          1           0        1.674437   -2.042048    0.098594
     15          1           0        0.577263    0.494411    1.580970
     16          1           0        1.624269    0.027120    0.202604
     17          1           0        1.870537    2.389937    0.571376
     18          1           0        1.020537    2.161591   -0.975469
     19          1           0        0.120332    2.690363    0.473142
 ---------------------------------------------------------------------
                    Distance matrix (angstroms):
                    1          2          3          4          5
     1  B    0.000000
     2  F    1.375568   0.000000
     3  F    1.385556   2.315199   0.000000
     4  F    1.380589   2.293867   2.310587   0.000000
     5  O    1.631452   2.398830   2.400365   2.398007   0.000000
     6  C    2.618685   3.678130   3.203199   2.715178   1.476070
     7  C    3.932867   4.741372   4.608426   4.047709   2.477018
     8  C    2.646236   3.107331   2.852624   3.739342   1.476250
     9  C    3.062313   2.869629   3.247847   4.365640   2.490698
    10  H    2.953943   4.187725   3.048520   3.121909   2.080015
    11  H    2.596198   3.667152   3.377875   2.130829   2.032531
    12  H    4.673128   5.593713   5.307476   4.516418   3.390208
    13  H    4.086248   4.616367   5.013058   4.182548   2.676305
    14  H    4.467315   5.230576   4.936870   4.836668   2.887088
    15  H    2.937992   3.664622   2.634325   3.994856   2.074634
    16  H    3.530382   3.956183   3.882276   4.443087   2.046981
    17  H    4.102841   3.946837   4.098676   5.410122   3.398685
    18  H    3.300774   2.761861   3.859993   4.477232   2.730669
    19  H    2.817064   2.497658   2.729343   4.193123   2.850847
                    6          7          8          9         10
     6  C    0.000000
     7  C    1.510976   0.000000
     8  C    2.447242   2.990582   0.000000
     9  C    3.800249   4.318638   1.509104   0.000000
    10  H    1.097530   2.185468   2.649716   4.085081   0.000000
    11  H    1.088545   2.156147   3.333586   4.521360   1.787472
    12  H    2.114463   1.097595   4.013624   5.389640   2.558676
    13  H    2.157181   1.096683   3.277658   4.339491   3.087095
    14  H    2.191014   1.094779   2.836469   4.164125   2.509951
    15  H    2.675559   3.401584   1.097101   2.173327   2.405938
    16  H    2.566042   2.502039   1.091266   2.145148   2.882924
    17  H    4.540082   4.856535   2.103839   1.098162   4.702545
    18  H    4.076764   4.421859   2.161070   1.095009   4.611889
    19  H    4.231670   5.039321   2.174917   1.092129   4.398784
                   11         12         13         14         15
    11  H    0.000000
    12  H    2.408935   0.000000
    13  H    2.535659   1.774429   0.000000
    14  H    3.086203   1.768215   1.792935   0.000000
    15  H    3.596297   4.275483   3.969400   3.136058   0.000000
    16  H    3.556172   3.549116   2.731228   2.072388   1.792896
    17  H    5.385430   5.920987   4.928574   4.461443   2.506961
    18  H    4.668814   5.509260   4.166277   4.387685   3.084050
    19  H    4.814099   6.062565   5.124385   4.995123   2.501654
                   16         17         18         19
    16  H    0.000000
    17  H    2.404068   0.000000
    18  H    2.511636   1.779711   0.000000
    19  H    3.070486   1.778517   1.785621   0.000000
 Stoichiometry    C4H10BF3O
 Framework group  C1[X(C4H10BF3O)]
 Deg. of freedom    51
 Full point group                 C1      NOp   1
 Largest Abelian subgroup         C1      NOp   1
 Largest concise Abelian subgroup C1      NOp   1
                         Standard orientation:                         
 ---------------------------------------------------------------------
 Center     Atomic      Atomic             Coordinates (Angstroms)
 Number     Number       Type             X           Y           Z
 ---------------------------------------------------------------------
      1          5           0       -1.054723   -0.620650   -0.028810
      2          9           0       -1.816888   -0.022927   -1.005548
      3          9           0       -1.476070   -0.343995    1.261808
      4          9           0       -0.853055   -1.966616   -0.260614
      5          8           0        0.422580    0.060929   -0.149899
      6          6           0        1.539047   -0.802468    0.282340
      7          6           0        2.859827   -0.355110   -0.299432
      8          6           0        0.560212    1.439115    0.360955
      9          6           0       -0.478651    2.382434   -0.194298
     10          1           0        1.535209   -0.804142    1.379863
     11          1           0        1.263221   -1.788547   -0.087116
     12          1           0        3.587132   -1.154538   -0.107973
     13          1           0        2.779396   -0.224798   -1.385370
     14          1           0        3.249525    0.560938    0.156126
     15          1           0        0.512897    1.372499    1.455009
     16          1           0        1.557602    1.752825    0.048446
     17          1           0       -0.201378    3.388598    0.147336
     18          1           0       -0.475235    2.374434   -1.289273
     19          1           0       -1.483875    2.156568    0.167992
 ---------------------------------------------------------------------
 Rotational constants (GHZ):           1.8316775           1.3715483           0.9746063
 Standard basis: Aug-CC-pVDZ (5D, 7F)
 There are   315 symmetry adapted cartesian basis functions of A   symmetry.
 There are   297 symmetry adapted basis functions of A   symmetry.
   297 basis functions,   497 primitive gaussians,   315 cartesian basis functions
    37 alpha electrons       37 beta electrons
       nuclear repulsion energy       523.3939926599 Hartrees.
 NAtoms=   19 NActive=   19 NUniq=   19 SFac= 1.00D+00 NAtFMM=   60 NAOKFM=F Big=F
 Integral buffers will be    131072 words long.
 Raffenetti 2 integral format.
 Two-electron integral symmetry is turned on.
 Nuclear repulsion after empirical dispersion term =      523.3819031977 Hartrees.
 Force PCM accuracy= 1.00D-12.
 ------------------------------------------------------------------------------
 Polarizable Continuum Model (PCM)
 =================================
 Model                : C-PCM.
 Atomic radii         : UFF (Universal Force Field).
 Polarization charges : Total charges.
 Charge compensation  : None.
 Solution method      : On-the-fly selection.
 Cavity type          : Scaled VdW (van der Waals Surface) (Alpha=1.100).
 Cavity algorithm     : GePol (No added spheres)
                        Default sphere list used, NSphG=   19.
                        Lebedev-Laikov grids with approx.  5.0 points / Ang**2.
                        Smoothing algorithm: York/Karplus (Gamma=1.0000).
                        Polarization charges: spherical gaussians, with
                                              point-specific exponents (IZeta= 3).
                        Self-potential: point-specific (ISelfS= 7).
                        Self-field    : sphere-specific E.n sum rule (ISelfD= 2).
 1st derivatives      : Analytical E(r).r(x)/FMM algorithm (CHGder, D1EAlg=3).
                        Cavity 1st derivative terms included.
 Solvent              : Benzene, Eps=   2.270600 Eps(inf)=   2.253301
 ------------------------------------------------------------------------------
 Spheres list:
 ISph  on   Nord     Re0    Alpha      Xe            Ye            Ze
    1   B      1    2.0415  1.100     -1.054723     -0.620650     -0.028810
    2   F      2    1.6820  1.100     -1.816888     -0.022927     -1.005548
    3   F      3    1.6820  1.100     -1.476070     -0.343995      1.261808
    4   F      4    1.6820  1.100     -0.853055     -1.966616     -0.260614
    5   O      5    1.7500  1.100      0.422580      0.060929     -0.149899
    6   C      6    1.9255  1.100      1.539047     -0.802468      0.282340
    7   C      7    1.9255  1.100      2.859827     -0.355110     -0.299432
    8   C      8    1.9255  1.100      0.560212      1.439115      0.360955
    9   C      9    1.9255  1.100     -0.478651      2.382434     -0.194298
   10   H     10    1.4430  1.100      1.535209     -0.804142      1.379863
   11   H     11    1.4430  1.100      1.263221     -1.788547     -0.087116
   12   H     12    1.4430  1.100      3.587132     -1.154538     -0.107973
   13   H     13    1.4430  1.100      2.779396     -0.224798     -1.385370
   14   H     14    1.4430  1.100      3.249525      0.560938      0.156126
   15   H     15    1.4430  1.100      0.512897      1.372499      1.455009
   16   H     16    1.4430  1.100      1.557602      1.752825      0.048446
   17   H     17    1.4430  1.100     -0.201378      3.388598      0.147336
   18   H     18    1.4430  1.100     -0.475235      2.374434     -1.289273
   19   H     19    1.4430  1.100     -1.483875      2.156568      0.167992
 ------------------------------------------------------------------------------
 One-electron integrals computed using PRISM.
 NBasis=   297 RedAO= T EigKep=  3.11D-05  NBF=   297
 NBsUse=   297 1.00D-06 EigRej= -1.00D+00 NBFU=   297
 Initial guess from the checkpoint file:  "/inspire/hdd/project/materialscienceresearch/lipenghui-253107030018/g16/00-B-DFT-Shift/04-output/BF3OEt2_C6D6/BF3OEt2_C6D6.chk"
 B after Tr=    -0.000000   -0.000000    0.000000
         Rot=    0.999856    0.004890    0.002339    0.016066 Ang=   1.94 deg.
 ExpMin= 2.38D-02 ExpMax= 1.47D+04 ExpMxC= 5.03D+02 IAcc=3 IRadAn=         5 AccDes= 0.00D+00
 Harris functional with IExCor= 4639 and IRadAn=       5 diagonalized for initial guess.
 HarFok:  IExCor= 4639 AccDes= 0.00D+00 IRadAn=         5 IDoV= 1 UseB2=F ITyADJ=14
 ICtDFT=  3500011 ScaDFX=  1.000000  1.000000  1.000000  1.000000
 FoFCou: FMM=F IPFlag=           0 FMFlag=      100000 FMFlg1=           0
         NFxFlg=           0 DoJE=T BraDBF=F KetDBF=T FulRan=T
         wScrn=  0.000000 ICntrl=       500 IOpCl=  0 I1Cent=   200000004 NGrid=           0
         NMat0=    1 NMatS0=      1 NMatT0=    0 NMatD0=    1 NMtDS0=    0 NMtDT0=    0
 Petite list used in FoFCou.
 Requested convergence on RMS density matrix=1.00D-08 within 128 cycles.
 Requested convergence on MAX density matrix=1.00D-06.
 Requested convergence on             energy=1.00D-06.
 No special actions if energy rises.
 Inv3:  Mode=1 IEnd=     6813147.
 Iteration    1 A*A^-1 deviation from unit magnitude is 5.00D-15 for   1483.
 Iteration    1 A*A^-1 deviation from orthogonality  is 3.62D-15 for   1483    790.
 Iteration    1 A^-1*A deviation from unit magnitude is 5.00D-15 for   1483.
 Iteration    1 A^-1*A deviation from orthogonality  is 2.73D-15 for   1494   1068.
 Error on total polarization charges =  0.00633
 SCF Done:  E(RwB97XD) =  -558.144642943     A.U. after   11 cycles
            NFock= 11  Conv=0.25D-08     -V/T= 2.0060
 D1PCM: C-PCM CHGder 1st derivatives, ID1Alg=3 FixD1E=F DoIter=F DoCFld=F I1PDM=0.
 Calling FoFJK, ICntrl=      2127 FMM=F ISym2X=0 I1Cent= 0 IOpClX= 0 NMat=1 NMatS=1 NMatT=0.
 ***** Axes restored to original set *****
 -------------------------------------------------------------------
 Center     Atomic                   Forces (Hartrees/Bohr)
 Number     Number              X              Y              Z
 -------------------------------------------------------------------
      1        5           0.000229667   -0.000268213    0.001023549
      2        9           0.001076181    0.000727157   -0.000660631
      3        9           0.000265986    0.000154574    0.000455487
      4        9          -0.000377094   -0.000620211   -0.000189358
      5        8           0.003021551   -0.000800628    0.000742911
      6        6           0.000322047    0.006169906   -0.000387747
      7        6          -0.000859776   -0.001425729   -0.000709196
      8        6          -0.005053799   -0.003030788   -0.001272256
      9        6           0.000380233   -0.000623198   -0.000410365
     10        1          -0.000088078   -0.000806807    0.000159242
     11        1          -0.000368424   -0.000869028    0.000480361
     12        1           0.000396148   -0.000086587    0.000065370
     13        1           0.000326594    0.000253856   -0.000057333
     14        1           0.000332709   -0.000139768    0.000000185
     15        1           0.000582847    0.000060445    0.000240996
     16        1           0.000824178    0.000339859    0.000744273
     17        1          -0.000221444    0.000361073   -0.000084736
     18        1          -0.000125812    0.000154496   -0.000306243
     19        1          -0.000663714    0.000449589    0.000165492
 -------------------------------------------------------------------
 Cartesian Forces:  Max     0.006169906 RMS     0.001312195

 GradGradGradGradGradGradGradGradGradGradGradGradGradGradGradGradGradGrad
 Berny optimization.
 Using GEDIIS/GDIIS optimizer.
 FormGI is forming the generalized inverse of G from B-inverse, IUseBI=4.
 Internal  Forces:  Max     0.004731820 RMS     0.000920736
 Search for a local minimum.
 Step number   6 out of a maximum of   97
 All quantities printed in internal units (Hartrees-Bohrs-Radians)
 Mixed Optimization -- En-DIIS/RFO-DIIS
 Update second derivatives using D2CorX and points    3    4    5    6
 DE= -2.33D-04 DEPred=-2.89D-04 R= 8.08D-01
 TightC=F SS=  1.41D+00  RLast= 1.81D-01 DXNew= 1.4270D+00 5.4215D-01
 Trust test= 8.08D-01 RLast= 1.81D-01 DXMaxT set to 8.49D-01
 ITU=  1  1  1  1  1  0
 Use linear search instead of GDIIS.
     Eigenvalues ---    0.00246   0.00280   0.00688   0.01344   0.01434
     Eigenvalues ---    0.02508   0.04331   0.04564   0.05185   0.05261
     Eigenvalues ---    0.05342   0.05693   0.05915   0.05992   0.09826
     Eigenvalues ---    0.10665   0.11059   0.12863   0.12985   0.13149
     Eigenvalues ---    0.13235   0.16000   0.16001   0.16003   0.16025
     Eigenvalues ---    0.16037   0.16478   0.19682   0.20626   0.22520
     Eigenvalues ---    0.24796   0.25028   0.27036   0.28385   0.28544
     Eigenvalues ---    0.28580   0.28914   0.31729   0.31839   0.31937
     Eigenvalues ---    0.31995   0.32093   0.32144   0.32159   0.32183
     Eigenvalues ---    0.32299   0.33236   0.34882   0.37773   0.46656
     Eigenvalues ---    0.49968
 RFO step:  Lambda=-2.60414725D-04 EMin= 2.45605825D-03
 Quartic linear search produced a step of -0.13342.
 Iteration  1 RMS(Cart)=  0.02832864 RMS(Int)=  0.00032433
 Iteration  2 RMS(Cart)=  0.00041162 RMS(Int)=  0.00000734
 Iteration  3 RMS(Cart)=  0.00000007 RMS(Int)=  0.00000734
 Variable       Old X    -DE/DX   Delta X   Delta X   Delta X     New X
                                 (Linear)    (Quad)   (Total)
    R1        2.59945   0.00106   0.00090   0.00116   0.00206   2.60151
    R2        2.61832   0.00045   0.00084  -0.00074   0.00010   2.61842
    R3        2.60893   0.00073   0.00087  -0.00003   0.00084   2.60977
    R4        3.08300  -0.00102  -0.00672   0.02805   0.02133   3.10433
    R5        2.78937  -0.00313   0.00025  -0.00758  -0.00733   2.78204
    R6        2.78971  -0.00473  -0.00010  -0.00900  -0.00910   2.78060
    R7        2.85533   0.00110   0.00024   0.00208   0.00232   2.85765
    R8        2.07403   0.00025  -0.00010   0.00078   0.00068   2.07471
    R9        2.05705   0.00035  -0.00018   0.00146   0.00129   2.05834
   R10        2.07415   0.00001  -0.00024   0.00064   0.00040   2.07455
   R11        2.07243   0.00016  -0.00006   0.00045   0.00039   2.07282
   R12        2.06883   0.00026  -0.00013   0.00107   0.00094   2.06977
   R13        2.85179   0.00042  -0.00012   0.00161   0.00148   2.85327
   R14        2.07322   0.00014  -0.00016   0.00074   0.00058   2.07380
   R15        2.06219   0.00027  -0.00038   0.00200   0.00162   2.06381
   R16        2.07523  -0.00012  -0.00020   0.00020  -0.00000   2.07522
   R17        2.06927   0.00031  -0.00012   0.00109   0.00097   2.07023
   R18        2.06382   0.00081   0.00004   0.00171   0.00175   2.06558
    A1        1.98904   0.00052  -0.00090   0.00483   0.00390   1.99294
    A2        1.96638   0.00085  -0.00032   0.00501   0.00466   1.97104
    A3        1.84158  -0.00191   0.00025  -0.00792  -0.00769   1.83389
    A4        1.97739   0.00042  -0.00074   0.00537   0.00463   1.98202
    A5        1.83494  -0.00031   0.00107  -0.00593  -0.00488   1.83007
    A6        1.83647   0.00008   0.00103  -0.00444  -0.00343   1.83305
    A7        2.00293   0.00090  -0.00043   0.00427   0.00384   2.00676
    A8        2.03617  -0.00241  -0.00160  -0.00423  -0.00583   2.03034
    A9        1.95435   0.00127   0.00112  -0.00001   0.00112   1.95547
   A10        1.95545   0.00062   0.00126  -0.00257  -0.00131   1.95414
   A11        1.86615   0.00023  -0.00002   0.00439   0.00437   1.87052
   A12        1.81195   0.00026  -0.00086   0.00443   0.00357   1.81552
   A13        1.96984  -0.00023   0.00030  -0.00103  -0.00072   1.96912
   A14        1.93801  -0.00065  -0.00034  -0.00233  -0.00267   1.93534
   A15        1.91467  -0.00017  -0.00045  -0.00229  -0.00275   1.91192
   A16        1.87174   0.00049  -0.00042   0.00362   0.00320   1.87494
   A17        1.93086   0.00004   0.00018  -0.00031  -0.00013   1.93072
   A18        1.98086   0.00018   0.00040  -0.00076  -0.00036   1.98050
   A19        1.88375  -0.00005   0.00004   0.00086   0.00090   1.88464
   A20        1.87652  -0.00039  -0.00008  -0.00157  -0.00165   1.87487
   A21        1.91636  -0.00027  -0.00014  -0.00166  -0.00180   1.91456
   A22        1.97367  -0.00308  -0.00107  -0.00775  -0.00882   1.96485
   A23        1.85916   0.00121  -0.00044   0.00432   0.00387   1.86303
   A24        1.82812   0.00169   0.00062   0.00645   0.00706   1.83518
   A25        1.95539   0.00057   0.00034  -0.00114  -0.00079   1.95460
   A26        1.92209   0.00034   0.00042   0.00077   0.00120   1.92330
   A27        1.92032  -0.00065   0.00013  -0.00213  -0.00201   1.91831
   A28        1.85922   0.00061  -0.00038   0.00443   0.00405   1.86327
   A29        1.94036   0.00008  -0.00001   0.00044   0.00043   1.94079
   A30        1.96307  -0.00017   0.00007  -0.00138  -0.00131   1.96176
   A31        1.89335  -0.00017   0.00020  -0.00046  -0.00026   1.89310
   A32        1.89514  -0.00022   0.00035  -0.00203  -0.00167   1.89347
   A33        1.91036  -0.00012  -0.00022  -0.00093  -0.00115   1.90922
    D1       -2.64467  -0.00006  -0.00378   0.01216   0.00838  -2.63629
    D2        1.30243  -0.00039  -0.00329   0.01207   0.00879   1.31122
    D3        1.53051   0.00042  -0.00339   0.01331   0.00991   1.54042
    D4       -0.80558   0.00009  -0.00289   0.01321   0.01032  -0.79526
    D5       -0.56179   0.00005  -0.00355   0.01206   0.00851  -0.55328
    D6       -2.89788  -0.00028  -0.00305   0.01196   0.00892  -2.88895
    D7        2.77785   0.00010   0.00584  -0.04859  -0.04276   2.73509
    D8       -1.33858   0.00036   0.00703  -0.04848  -0.04146  -1.38004
    D9        0.68528   0.00039   0.00613  -0.04718  -0.04106   0.64422
   D10       -1.13214  -0.00126   0.00415  -0.05055  -0.04640  -1.17854
   D11        1.03462  -0.00100   0.00534  -0.05044  -0.04510   0.98951
   D12        3.05847  -0.00096   0.00444  -0.04914  -0.04470   3.01378
   D13       -0.90029   0.00022   0.00134  -0.00260  -0.00126  -0.90156
   D14        1.25504  -0.00018   0.00078  -0.00592  -0.00514   1.24989
   D15       -2.99347   0.00041   0.00102  -0.00342  -0.00239  -2.99586
   D16        3.02541  -0.00000   0.00247  -0.00466  -0.00219   3.02322
   D17       -1.10244  -0.00040   0.00192  -0.00798  -0.00607  -1.10851
   D18        0.93223   0.00019   0.00215  -0.00549  -0.00332   0.92891
   D19       -2.93855   0.00004   0.00565  -0.01230  -0.00666  -2.94521
   D20       -0.88831   0.00028   0.00554  -0.00932  -0.00378  -0.89209
   D21        1.27483   0.00009   0.00580  -0.01232  -0.00652   1.26831
   D22        1.23691  -0.00055   0.00452  -0.01540  -0.01088   1.22603
   D23       -2.99603  -0.00030   0.00441  -0.01241  -0.00800  -3.00403
   D24       -0.83289  -0.00050   0.00466  -0.01541  -0.01075  -0.84364
   D25       -0.92130   0.00033   0.00514  -0.00985  -0.00471  -0.92602
   D26        1.12894   0.00058   0.00503  -0.00687  -0.00183   1.12711
   D27       -2.99110   0.00038   0.00529  -0.00987  -0.00458  -2.99568
   D28       -3.01641  -0.00029  -0.00145  -0.00830  -0.00975  -3.02616
   D29       -0.95686  -0.00009  -0.00144  -0.00597  -0.00741  -0.96427
   D30        1.19249  -0.00032  -0.00168  -0.00787  -0.00954   1.18294
   D31        1.16546  -0.00007  -0.00036  -0.00754  -0.00791   1.15755
   D32       -3.05818   0.00013  -0.00035  -0.00520  -0.00556  -3.06374
   D33       -0.90883  -0.00010  -0.00059  -0.00710  -0.00770  -0.91653
   D34       -0.97793   0.00012  -0.00107  -0.00456  -0.00563  -0.98356
   D35        1.08162   0.00032  -0.00106  -0.00223  -0.00329   1.07833
   D36       -3.05221   0.00009  -0.00130  -0.00412  -0.00542  -3.05764
         Item               Value     Threshold  Converged?
 Maximum Force            0.004732     0.000450     NO 
 RMS     Force            0.000921     0.000300     NO 
 Maximum Displacement     0.104520     0.001800     NO 
 RMS     Displacement     0.028339     0.001200     NO 
 Predicted change in Energy=-1.403069D-04
 GradGradGradGradGradGradGradGradGradGradGradGradGradGradGradGradGradGrad

                          Input orientation:                          
 ---------------------------------------------------------------------
 Center     Atomic      Atomic             Coordinates (Angstroms)
 Number     Number       Type             X           Y           Z
 ---------------------------------------------------------------------
      1          5           0       -1.817339    0.737586   -0.108628
      2          9           0       -1.693089    1.789217   -0.988298
      3          9           0       -1.960801    1.119121    1.215668
      4          9           0       -2.746661   -0.198752   -0.517139
      5          8           0       -0.372665   -0.042143   -0.168138
      6          6           0       -0.433086   -1.485513    0.115386
      7          6           0        0.740426   -2.228902   -0.482112
      8          6           0        0.749987    0.610062    0.524245
      9          6           0        0.923057    2.053376    0.116011
     10          1           0       -0.498925   -1.599283    1.205378
     11          1           0       -1.368705   -1.805281   -0.341540
     12          1           0        0.522354   -3.302212   -0.407100
     13          1           0        0.855104   -1.980070   -1.544233
     14          1           0        1.684388   -2.048559    0.043284
     15          1           0        0.560461    0.507257    1.600262
     16          1           0        1.632737    0.030802    0.245061
     17          1           0        1.847364    2.408156    0.591133
     18          1           0        1.032866    2.147479   -0.969923
     19          1           0        0.096067    2.683639    0.453097
 ---------------------------------------------------------------------
                    Distance matrix (angstroms):
                    1          2          3          4          5
     1  B    0.000000
     2  F    1.376658   0.000000
     3  F    1.385609   2.319088   0.000000
     4  F    1.381032   2.298701   2.314517   0.000000
     5  O    1.642741   2.402095   2.405333   2.404617   0.000000
     6  C    2.628403   3.678258   3.213822   2.721850   1.472193
     7  C    3.934679   4.724775   4.624753   4.035158   2.473755
     8  C    2.647253   3.105932   2.843515   3.737005   1.471432
     9  C    3.048201   2.851929   3.224703   4.351986   2.480088
    10  H    2.987605   4.209534   3.086569   3.159251   2.080186
    11  H    2.592622   3.666597   3.365651   2.123800   2.032442
    12  H    4.677949   5.582887   5.324248   4.508883   3.389131
    13  H    4.072906   4.583653   5.015114   4.147376   2.675186
    14  H    4.477473   5.215365   4.969515   4.834258   2.881297
    15  H    2.937225   3.663681   2.622795   3.989848   2.073596
    16  H    3.539443   3.959080   3.878148   4.451153   2.048827
    17  H    4.087850   3.925876   4.068633   5.397157   3.392490
    18  H    3.294434   2.749459   3.846605   4.471537   2.722650
    19  H    2.786356   2.465500   2.694426   4.163008   2.834701
                    6          7          8          9         10
     6  C    0.000000
     7  C    1.512204   0.000000
     8  C    2.440956   3.012069   0.000000
     9  C    3.789836   4.327702   1.509888   0.000000
    10  H    1.097890   2.186329   2.627724   4.068252   0.000000
    11  H    1.089227   2.155841   3.327510   4.511181   1.786592
    12  H    2.118077   1.097805   4.028040   5.395973   2.557941
    13  H    2.158323   1.096891   3.316389   4.362306   3.088488
    14  H    2.192240   1.095276   2.858792   4.172623   2.513795
    15  H    2.676402   3.443142   1.097407   2.173697   2.390762
    16  H    2.565863   2.535993   1.092123   2.147348   2.850153
    17  H    4.537339   4.886662   2.107570   1.098160   4.684222
    18  H    4.065162   4.413184   2.162454   1.095521   4.595274
    19  H    4.216145   5.042110   2.175407   1.093056   4.389005
                   11         12         13         14         15
    11  H    0.000000
    12  H    2.412717   0.000000
    13  H    2.534236   1.775346   0.000000
    14  H    3.086851   1.767714   1.792377   0.000000
    15  H    3.583310   4.306159   4.020132   3.196808   0.000000
    16  H    3.567066   3.573128   2.801766   2.089766   1.792583
    17  H    5.382010   5.946462   4.980049   4.493217   2.507564
    18  H    4.667625   5.502410   4.171102   4.365524   3.085343
    19  H    4.788257   6.062348   5.129878   5.008433   2.503655
                   16         17         18         19
    16  H    0.000000
    17  H    2.411978   0.000000
    18  H    2.513235   1.779959   0.000000
    19  H    3.072813   1.778198   1.786070   0.000000
 Stoichiometry    C4H10BF3O
 Framework group  C1[X(C4H10BF3O)]
 Deg. of freedom    51
 Full point group                 C1      NOp   1
 Largest Abelian subgroup         C1      NOp   1
 Largest concise Abelian subgroup C1      NOp   1
                         Standard orientation:                         
 ---------------------------------------------------------------------
 Center     Atomic      Atomic             Coordinates (Angstroms)
 Number     Number       Type             X           Y           Z
 ---------------------------------------------------------------------
      1          5           0       -1.048094   -0.636498   -0.030060
      2          9           0       -1.798953   -0.053326   -1.025704
      3          9           0       -1.486368   -0.350516    1.252922
      4          9           0       -0.816820   -1.980525   -0.247665
      5          8           0        0.429619    0.072910   -0.138240
      6          6           0        1.555821   -0.765992    0.303649
      7          6           0        2.864089   -0.328634   -0.315958
      8          6           0        0.532054    1.448807    0.373157
      9          6           0       -0.524128    2.361373   -0.202572
     10          1           0        1.572677   -0.734236    1.400950
     11          1           0        1.284804   -1.767546   -0.027794
     12          1           0        3.605125   -1.110865   -0.105824
     13          1           0        2.765204   -0.239549   -1.404744
     14          1           0        3.250772    0.608989    0.097528
     15          1           0        0.468310    1.385145    1.466860
     16          1           0        1.526664    1.789745    0.077782
     17          1           0       -0.288737    3.376425    0.144151
     18          1           0       -0.499504    2.354355   -1.297794
     19          1           0       -1.529547    2.102707    0.139472
 ---------------------------------------------------------------------
 Rotational constants (GHZ):           1.8324759           1.3702968           0.9769720
 Standard basis: Aug-CC-pVDZ (5D, 7F)
 There are   315 symmetry adapted cartesian basis functions of A   symmetry.
 There are   297 symmetry adapted basis functions of A   symmetry.
   297 basis functions,   497 primitive gaussians,   315 cartesian basis functions
    37 alpha electrons       37 beta electrons
       nuclear repulsion energy       523.3832961788 Hartrees.
 NAtoms=   19 NActive=   19 NUniq=   19 SFac= 1.00D+00 NAtFMM=   60 NAOKFM=F Big=F
 Integral buffers will be    131072 words long.
 Raffenetti 2 integral format.
 Two-electron integral symmetry is turned on.
 Nuclear repulsion after empirical dispersion term =      523.3712309131 Hartrees.
 Force PCM accuracy= 1.00D-12.
 ------------------------------------------------------------------------------
 Polarizable Continuum Model (PCM)
 =================================
 Model                : C-PCM.
 Atomic radii         : UFF (Universal Force Field).
 Polarization charges : Total charges.
 Charge compensation  : None.
 Solution method      : On-the-fly selection.
 Cavity type          : Scaled VdW (van der Waals Surface) (Alpha=1.100).
 Cavity algorithm     : GePol (No added spheres)
                        Default sphere list used, NSphG=   19.
                        Lebedev-Laikov grids with approx.  5.0 points / Ang**2.
                        Smoothing algorithm: York/Karplus (Gamma=1.0000).
                        Polarization charges: spherical gaussians, with
                                              point-specific exponents (IZeta= 3).
                        Self-potential: point-specific (ISelfS= 7).
                        Self-field    : sphere-specific E.n sum rule (ISelfD= 2).
 1st derivatives      : Analytical E(r).r(x)/FMM algorithm (CHGder, D1EAlg=3).
                        Cavity 1st derivative terms included.
 Solvent              : Benzene, Eps=   2.270600 Eps(inf)=   2.253301
 ------------------------------------------------------------------------------
 Spheres list:
 ISph  on   Nord     Re0    Alpha      Xe            Ye            Ze
    1   B      1    2.0415  1.100     -1.048094     -0.636498     -0.030060
    2   F      2    1.6820  1.100     -1.798953     -0.053326     -1.025704
    3   F      3    1.6820  1.100     -1.486368     -0.350516      1.252922
    4   F      4    1.6820  1.100     -0.816820     -1.980525     -0.247665
    5   O      5    1.7500  1.100      0.429619      0.072910     -0.138240
    6   C      6    1.9255  1.100      1.555821     -0.765992      0.303649
    7   C      7    1.9255  1.100      2.864089     -0.328634     -0.315958
    8   C      8    1.9255  1.100      0.532054      1.448807      0.373157
    9   C      9    1.9255  1.100     -0.524128      2.361373     -0.202572
   10   H     10    1.4430  1.100      1.572677     -0.734236      1.400950
   11   H     11    1.4430  1.100      1.284804     -1.767546     -0.027794
   12   H     12    1.4430  1.100      3.605125     -1.110865     -0.105824
   13   H     13    1.4430  1.100      2.765204     -0.239549     -1.404744
   14   H     14    1.4430  1.100      3.250772      0.608989      0.097528
   15   H     15    1.4430  1.100      0.468310      1.385145      1.466860
   16   H     16    1.4430  1.100      1.526664      1.789745      0.077782
   17   H     17    1.4430  1.100     -0.288737      3.376425      0.144151
   18   H     18    1.4430  1.100     -0.499504      2.354355     -1.297794
   19   H     19    1.4430  1.100     -1.529547      2.102707      0.139472
 ------------------------------------------------------------------------------
 One-electron integrals computed using PRISM.
 NBasis=   297 RedAO= T EigKep=  3.11D-05  NBF=   297
 NBsUse=   297 1.00D-06 EigRej= -1.00D+00 NBFU=   297
 Initial guess from the checkpoint file:  "/inspire/hdd/project/materialscienceresearch/lipenghui-253107030018/g16/00-B-DFT-Shift/04-output/BF3OEt2_C6D6/BF3OEt2_C6D6.chk"
 B after Tr=     0.000000   -0.000000    0.000000
         Rot=    0.999964    0.002844    0.001694   -0.007792 Ang=   0.97 deg.
 ExpMin= 2.38D-02 ExpMax= 1.47D+04 ExpMxC= 5.03D+02 IAcc=3 IRadAn=         5 AccDes= 0.00D+00
 Harris functional with IExCor= 4639 and IRadAn=       5 diagonalized for initial guess.
 HarFok:  IExCor= 4639 AccDes= 0.00D+00 IRadAn=         5 IDoV= 1 UseB2=F ITyADJ=14
 ICtDFT=  3500011 ScaDFX=  1.000000  1.000000  1.000000  1.000000
 FoFCou: FMM=F IPFlag=           0 FMFlag=      100000 FMFlg1=           0
         NFxFlg=           0 DoJE=T BraDBF=F KetDBF=T FulRan=T
         wScrn=  0.000000 ICntrl=       500 IOpCl=  0 I1Cent=   200000004 NGrid=           0
         NMat0=    1 NMatS0=      1 NMatT0=    0 NMatD0=    1 NMtDS0=    0 NMtDT0=    0
 Petite list used in FoFCou.
 Requested convergence on RMS density matrix=1.00D-08 within 128 cycles.
 Requested convergence on MAX density matrix=1.00D-06.
 Requested convergence on             energy=1.00D-06.
 No special actions if energy rises.
 Inv3:  Mode=1 IEnd=     6813147.
 Iteration    1 A*A^-1 deviation from unit magnitude is 3.77D-15 for    231.
 Iteration    1 A*A^-1 deviation from orthogonality  is 3.26D-15 for   1485    680.
 Iteration    1 A^-1*A deviation from unit magnitude is 4.00D-15 for    231.
 Iteration    1 A^-1*A deviation from orthogonality  is 1.83D-15 for   1474    802.
 Error on total polarization charges =  0.00633
 SCF Done:  E(RwB97XD) =  -558.144830943     A.U. after   10 cycles
            NFock= 10  Conv=0.73D-08     -V/T= 2.0061
 D1PCM: C-PCM CHGder 1st derivatives, ID1Alg=3 FixD1E=F DoIter=F DoCFld=F I1PDM=0.
 Calling FoFJK, ICntrl=      2127 FMM=F ISym2X=0 I1Cent= 0 IOpClX= 0 NMat=1 NMatS=1 NMatT=0.
 ***** Axes restored to original set *****
 -------------------------------------------------------------------
 Center     Atomic                   Forces (Hartrees/Bohr)
 Number     Number              X              Y              Z
 -------------------------------------------------------------------
      1        5           0.001362406   -0.000738080    0.000479851
      2        9          -0.000060383   -0.000578670    0.000249885
      3        9          -0.000156962   -0.000125148   -0.000777335
      4        9           0.000279729    0.000686637    0.000248063
      5        8           0.000639840   -0.000635934    0.000712339
      6        6           0.000150524    0.004224398   -0.000789475
      7        6          -0.000566762   -0.001085402   -0.000419732
      8        6          -0.003731862   -0.001507031   -0.001114208
      9        6           0.000897857    0.000023056    0.000063563
     10        1           0.000008411   -0.000503678    0.000014577
     11        1           0.000005205   -0.000649776    0.000626356
     12        1           0.000244509    0.000096095    0.000044860
     13        1           0.000170772    0.000207423    0.000116893
     14        1           0.000176570    0.000089933   -0.000084970
     15        1           0.000475891    0.000083993    0.000073041
     16        1           0.000369122    0.000160644    0.000590762
     17        1          -0.000142046    0.000172933   -0.000097345
     18        1          -0.000159021   -0.000003180    0.000024681
     19        1           0.000036199    0.000081788    0.000038193
 -------------------------------------------------------------------
 Cartesian Forces:  Max     0.004224398 RMS     0.000899736

 GradGradGradGradGradGradGradGradGradGradGradGradGradGradGradGradGradGrad
 Berny optimization.
 Using GEDIIS/GDIIS optimizer.
 FormGI is forming the generalized inverse of G from B-inverse, IUseBI=4.
 Internal  Forces:  Max     0.002437579 RMS     0.000486966
 Search for a local minimum.
 Step number   7 out of a maximum of   97
 All quantities printed in internal units (Hartrees-Bohrs-Radians)
 Mixed Optimization -- En-DIIS/RFO-DIIS
 Swapping is turned off.
 Update second derivatives using D2CorX and points    3    4    5    6    7
 DE= -1.88D-04 DEPred=-1.40D-04 R= 1.34D+00
 TightC=F SS=  1.41D+00  RLast= 1.18D-01 DXNew= 1.4270D+00 3.5464D-01
 Trust test= 1.34D+00 RLast= 1.18D-01 DXMaxT set to 8.49D-01
 ITU=  1  1  1  1  1  1  0
     Eigenvalues ---    0.00236   0.00282   0.00417   0.01372   0.01455
     Eigenvalues ---    0.02460   0.04364   0.04611   0.05177   0.05272
     Eigenvalues ---    0.05356   0.05480   0.05859   0.05919   0.09777
     Eigenvalues ---    0.10233   0.12833   0.12896   0.13178   0.13304
     Eigenvalues ---    0.13675   0.15966   0.16000   0.16003   0.16017
     Eigenvalues ---    0.16071   0.16233   0.19429   0.20618   0.22856
     Eigenvalues ---    0.24851   0.25148   0.26928   0.28379   0.28553
     Eigenvalues ---    0.28591   0.28868   0.31718   0.31831   0.31936
     Eigenvalues ---    0.31980   0.32093   0.32138   0.32158   0.32186
     Eigenvalues ---    0.32272   0.32879   0.37641   0.41040   0.42712
     Eigenvalues ---    0.49402
 En-DIIS/RFO-DIIS/Sim-DIIS IScMMF=       -3 using points:     7    6
 RFO step:  Lambda=-2.45941520D-04.
 DidBck=F Rises=F RFO-DIIS coefs:    2.68655   -1.68655
 Iteration  1 RMS(Cart)=  0.04917828 RMS(Int)=  0.00102519
 Iteration  2 RMS(Cart)=  0.00130522 RMS(Int)=  0.00002058
 Iteration  3 RMS(Cart)=  0.00000063 RMS(Int)=  0.00002058
 Variable       Old X    -DE/DX   Delta X   Delta X   Delta X     New X
                                 (Linear)    (Quad)   (Total)
    R1        2.60151  -0.00061   0.00347  -0.00594  -0.00247   2.59904
    R2        2.61842  -0.00076   0.00017  -0.00450  -0.00433   2.61409
    R3        2.60977  -0.00073   0.00141  -0.00496  -0.00355   2.60622
    R4        3.10433  -0.00160   0.03598  -0.00955   0.02643   3.13076
    R5        2.78204  -0.00244  -0.01236  -0.00047  -0.01283   2.76921
    R6        2.78060  -0.00236  -0.01535   0.00206  -0.01330   2.76731
    R7        2.85765   0.00050   0.00391  -0.00043   0.00348   2.86113
    R8        2.07471   0.00007   0.00115  -0.00033   0.00082   2.07553
    R9        2.05834  -0.00008   0.00217  -0.00157   0.00060   2.05894
   R10        2.07455  -0.00014   0.00067  -0.00068  -0.00001   2.07454
   R11        2.07282  -0.00005   0.00066  -0.00067  -0.00000   2.07282
   R12        2.06977   0.00013   0.00158  -0.00045   0.00113   2.07090
   R13        2.85327   0.00033   0.00250  -0.00008   0.00242   2.85570
   R14        2.07380  -0.00002   0.00098  -0.00046   0.00051   2.07431
   R15        2.06381   0.00006   0.00273  -0.00124   0.00149   2.06530
   R16        2.07522  -0.00011  -0.00001  -0.00018  -0.00019   2.07503
   R17        2.07023  -0.00004   0.00163  -0.00110   0.00053   2.07076
   R18        2.06558   0.00003   0.00295  -0.00189   0.00106   2.06664
    A1        1.99294  -0.00006   0.00658  -0.00223   0.00428   1.99722
    A2        1.97104  -0.00025   0.00786  -0.00543   0.00238   1.97343
    A3        1.83389  -0.00027  -0.01297   0.00497  -0.00805   1.82584
    A4        1.98202  -0.00032   0.00781  -0.00439   0.00339   1.98541
    A5        1.83007   0.00051  -0.00823   0.00562  -0.00264   1.82742
    A6        1.83305   0.00052  -0.00578   0.00413  -0.00168   1.83136
    A7        2.00676   0.00059   0.00647   0.00077   0.00724   2.01400
    A8        2.03034  -0.00046  -0.00984   0.00425  -0.00558   2.02476
    A9        1.95547  -0.00025   0.00189  -0.00404  -0.00214   1.95334
   A10        1.95414  -0.00007  -0.00221   0.00117  -0.00102   1.95312
   A11        1.87052   0.00022   0.00738  -0.00089   0.00648   1.87700
   A12        1.81552   0.00051   0.00602   0.00417   0.01019   1.82571
   A13        1.96912  -0.00006  -0.00122  -0.00110  -0.00234   1.96678
   A14        1.93534  -0.00035  -0.00451  -0.00115  -0.00567   1.92967
   A15        1.91192  -0.00021  -0.00464  -0.00183  -0.00655   1.90537
   A16        1.87494   0.00031   0.00539   0.00072   0.00611   1.88105
   A17        1.93072  -0.00007  -0.00022  -0.00145  -0.00168   1.92904
   A18        1.98050   0.00002  -0.00061  -0.00037  -0.00098   1.97952
   A19        1.88464   0.00004   0.00151   0.00094   0.00244   1.88708
   A20        1.87487  -0.00014  -0.00278   0.00128  -0.00151   1.87336
   A21        1.91456  -0.00015  -0.00303  -0.00091  -0.00396   1.91060
   A22        1.96485   0.00029  -0.01487   0.01369  -0.00117   1.96368
   A23        1.86303   0.00014   0.00653   0.00055   0.00705   1.87007
   A24        1.83518   0.00023   0.01191  -0.00439   0.00752   1.84270
   A25        1.95460  -0.00011  -0.00133  -0.00063  -0.00196   1.95264
   A26        1.92330  -0.00034   0.00203  -0.00593  -0.00388   1.91942
   A27        1.91831  -0.00019  -0.00340  -0.00351  -0.00698   1.91133
   A28        1.86327   0.00033   0.00683  -0.00059   0.00624   1.86951
   A29        1.94079  -0.00008   0.00072  -0.00141  -0.00070   1.94009
   A30        1.96176   0.00002  -0.00221   0.00106  -0.00115   1.96061
   A31        1.89310  -0.00005  -0.00043   0.00046   0.00001   1.89311
   A32        1.89347  -0.00018  -0.00282  -0.00004  -0.00286   1.89061
   A33        1.90922  -0.00005  -0.00193   0.00051  -0.00143   1.90779
    D1       -2.63629   0.00001   0.01413   0.00367   0.01781  -2.61848
    D2        1.31122   0.00025   0.01483   0.00441   0.01925   1.33047
    D3        1.54042  -0.00004   0.01671   0.00123   0.01791   1.55833
    D4       -0.79526   0.00020   0.01740   0.00197   0.01936  -0.77590
    D5       -0.55328  -0.00015   0.01436   0.00171   0.01607  -0.53720
    D6       -2.88895   0.00008   0.01505   0.00245   0.01752  -2.87143
    D7        2.73509  -0.00019  -0.07211  -0.00427  -0.07638   2.65871
    D8       -1.38004  -0.00015  -0.06993  -0.00552  -0.07546  -1.45551
    D9        0.64422  -0.00004  -0.06924  -0.00604  -0.07526   0.56896
   D10       -1.17854  -0.00053  -0.07825  -0.00132  -0.07957  -1.25811
   D11        0.98951  -0.00049  -0.07607  -0.00257  -0.07865   0.91086
   D12        3.01378  -0.00039  -0.07538  -0.00309  -0.07845   2.93533
   D13       -0.90156  -0.00016  -0.00213  -0.01931  -0.02144  -0.92300
   D14        1.24989  -0.00001  -0.00867  -0.01105  -0.01975   1.23015
   D15       -2.99586  -0.00005  -0.00403  -0.01688  -0.02087  -3.01673
   D16        3.02322  -0.00031  -0.00370  -0.02059  -0.02430   2.99892
   D17       -1.10851  -0.00017  -0.01024  -0.01233  -0.02261  -1.13112
   D18        0.92891  -0.00020  -0.00560  -0.01816  -0.02373   0.90519
   D19       -2.94521  -0.00011  -0.01123  -0.00827  -0.01950  -2.96471
   D20       -0.89209   0.00008  -0.00637  -0.00752  -0.01389  -0.90597
   D21        1.26831  -0.00016  -0.01100  -0.01012  -0.02112   1.24719
   D22        1.22603  -0.00031  -0.01835  -0.00717  -0.02551   1.20052
   D23       -3.00403  -0.00012  -0.01349  -0.00641  -0.01989  -3.02392
   D24       -0.84364  -0.00036  -0.01812  -0.00901  -0.02712  -0.87076
   D25       -0.92602   0.00027  -0.00795  -0.00310  -0.01106  -0.93708
   D26        1.12711   0.00046  -0.00309  -0.00234  -0.00545   1.12166
   D27       -2.99568   0.00022  -0.00772  -0.00494  -0.01268  -3.00836
   D28       -3.02616   0.00003  -0.01645   0.02322   0.00677  -3.01939
   D29       -0.96427   0.00012  -0.01249   0.02264   0.01016  -0.95411
   D30        1.18294   0.00003  -0.01610   0.02304   0.00695   1.18989
   D31        1.15755  -0.00028  -0.01333   0.01322  -0.00012   1.15743
   D32       -3.06374  -0.00019  -0.00937   0.01265   0.00328  -3.06047
   D33       -0.91653  -0.00029  -0.01298   0.01304   0.00007  -0.91646
   D34       -0.98356   0.00027  -0.00950   0.02241   0.01290  -0.97066
   D35        1.07833   0.00037  -0.00554   0.02184   0.01629   1.09463
   D36       -3.05764   0.00027  -0.00915   0.02223   0.01308  -3.04456
         Item               Value     Threshold  Converged?
 Maximum Force            0.002438     0.000450     NO 
 RMS     Force            0.000487     0.000300     NO 
 Maximum Displacement     0.198485     0.001800     NO 
 RMS     Displacement     0.049188     0.001200     NO 
 Predicted change in Energy=-1.283440D-04
 GradGradGradGradGradGradGradGradGradGradGradGradGradGradGradGradGradGrad

                          Input orientation:                          
 ---------------------------------------------------------------------
 Center     Atomic      Atomic             Coordinates (Angstroms)
 Number     Number       Type             X           Y           Z
 ---------------------------------------------------------------------
      1          5           0       -1.819081    0.737519   -0.128458
      2          9           0       -1.675388    1.765787   -1.030460
      3          9           0       -1.977967    1.145496    1.183746
      4          9           0       -2.737046   -0.209890   -0.530728
      5          8           0       -0.359369   -0.045719   -0.151491
      6          6           0       -0.411938   -1.481443    0.137199
      7          6           0        0.725305   -2.232276   -0.522545
      8          6           0        0.735534    0.615497    0.561557
      9          6           0        0.926938    2.049768    0.125821
     10          1           0       -0.420425   -1.599498    1.229127
     11          1           0       -1.370360   -1.807721   -0.265391
     12          1           0        0.522433   -3.306206   -0.419196
     13          1           0        0.772961   -1.995485   -1.592510
     14          1           0        1.700501   -2.038360   -0.061749
     15          1           0        0.515477    0.539805    1.634284
     16          1           0        1.630628    0.032498    0.330529
     17          1           0        1.838235    2.417478    0.615781
     18          1           0        1.064275    2.118563   -0.959158
     19          1           0        0.092826    2.690169    0.426059
 ---------------------------------------------------------------------
                    Distance matrix (angstroms):
                    1          2          3          4          5
     1  B    0.000000
     2  F    1.375351   0.000000
     3  F    1.383319   2.319272   0.000000
     4  F    1.379154   2.297858   2.313589   0.000000
     5  O    1.656729   2.405420   2.412822   2.413322   0.000000
     6  C    2.640912   3.674811   3.232416   2.732966   1.465404
     7  C    3.930507   4.691035   4.650640   4.009737   2.468852
     8  C    2.648975   3.109699   2.833921   3.732716   1.464396
     9  C    3.054059   2.861771   3.221085   4.354526   2.474379
    10  H    3.043176   4.243325   3.156420   3.224102   2.079438
    11  H    2.588116   3.667197   3.345247   2.119268   2.034633
    12  H    4.681765   5.561400   5.351549   4.497090   3.388218
    13  H    4.041217   4.522995   5.014077   4.078711   2.675873
    14  H    4.483014   5.177505   5.021885   4.822351   2.867358
    15  H    2.931981   3.661118   2.605208   3.978471   2.072966
    16  H    3.550805   3.973200   3.871524   4.458373   2.049036
    17  H    4.092935   3.934509   4.062502   5.399143   3.389027
    18  H    3.303193   2.763202   3.846314   4.478314   2.713523
    19  H    2.788498   2.470326   2.692265   4.163407   2.832512
                    6          7          8          9         10
     6  C    0.000000
     7  C    1.514046   0.000000
     8  C    2.427741   3.047161   0.000000
     9  C    3.776529   4.335543   1.511170   0.000000
    10  H    1.098324   2.186654   2.586134   4.043490   0.000000
    11  H    1.089546   2.153646   3.315210   4.506756   1.783064
    12  H    2.124238   1.097800   4.048091   5.398808   2.553194
    13  H    2.158731   1.096889   3.385060   4.397778   3.089111
    14  H    2.193659   1.095875   2.891821   4.164898   2.521366
    15  H    2.680822   3.518575   1.097679   2.173648   2.369954
    16  H    2.549798   2.583901   1.092911   2.146267   2.770867
    17  H    4.527019   4.914733   2.113297   1.098059   4.649067
    18  H    4.042431   4.385810   2.163297   1.095799   4.562554
    19  H    4.211955   5.052755   2.176166   1.093617   4.394267
                   11         12         13         14         15
    11  H    0.000000
    12  H    2.419045   0.000000
    13  H    2.527909   1.776912   0.000000
    14  H    3.086237   1.767214   1.790363   0.000000
    15  H    3.560341   4.359889   4.111715   3.305715   0.000000
    16  H    3.570358   3.596822   2.923420   2.108843   1.789050
    17  H    5.378090   5.963477   5.048326   4.509158   2.512507
    18  H    4.671667   5.478437   4.172697   4.300016   3.085385
    19  H    4.780170   6.070875   5.147092   5.018123   2.502500
                   16         17         18         19
    16  H    0.000000
    17  H    2.410933   0.000000
    18  H    2.517085   1.780112   0.000000
    19  H    3.071998   1.776741   1.785853   0.000000
 Stoichiometry    C4H10BF3O
 Framework group  C1[X(C4H10BF3O)]
 Deg. of freedom    51
 Full point group                 C1      NOp   1
 Largest Abelian subgroup         C1      NOp   1
 Largest concise Abelian subgroup C1      NOp   1
                         Standard orientation:                         
 ---------------------------------------------------------------------
 Center     Atomic      Atomic             Coordinates (Angstroms)
 Number     Number       Type             X           Y           Z
 ---------------------------------------------------------------------
      1          5           0       -1.045474   -0.649588   -0.032976
      2          9           0       -1.770250   -0.087393   -1.057781
      3          9           0       -1.515648   -0.348418    1.232648
      4          9           0       -0.788156   -1.990782   -0.225464
      5          8           0        0.436752    0.085740   -0.116925
      6          6           0        1.567892   -0.726346    0.339638
      7          6           0        2.859719   -0.330341   -0.343515
      8          6           0        0.504264    1.455237    0.397248
      9          6           0       -0.540466    2.356689   -0.218836
     10          1           0        1.621385   -0.634671    1.432821
     11          1           0        1.295053   -1.748535    0.079258
     12          1           0        3.615353   -1.087330   -0.096229
     13          1           0        2.731181   -0.319704   -1.432795
     14          1           0        3.248219    0.639279   -0.012084
     15          1           0        0.401770    1.396612    1.488557
     16          1           0        1.504515    1.815097    0.143372
     17          1           0       -0.331663    3.377407    0.127962
     18          1           0       -0.479653    2.342542   -1.312855
     19          1           0       -1.554770    2.089227    0.090436
 ---------------------------------------------------------------------
 Rotational constants (GHZ):           1.8245954           1.3699715           0.9787006
 Standard basis: Aug-CC-pVDZ (5D, 7F)
 There are   315 symmetry adapted cartesian basis functions of A   symmetry.
 There are   297 symmetry adapted basis functions of A   symmetry.
   297 basis functions,   497 primitive gaussians,   315 cartesian basis functions
    37 alpha electrons       37 beta electrons
       nuclear repulsion energy       523.2203085219 Hartrees.
 NAtoms=   19 NActive=   19 NUniq=   19 SFac= 1.00D+00 NAtFMM=   60 NAOKFM=F Big=F
 Integral buffers will be    131072 words long.
 Raffenetti 2 integral format.
 Two-electron integral symmetry is turned on.
 Nuclear repulsion after empirical dispersion term =      523.2082776043 Hartrees.
 Force PCM accuracy= 1.00D-12.
 ------------------------------------------------------------------------------
 Polarizable Continuum Model (PCM)
 =================================
 Model                : C-PCM.
 Atomic radii         : UFF (Universal Force Field).
 Polarization charges : Total charges.
 Charge compensation  : None.
 Solution method      : On-the-fly selection.
 Cavity type          : Scaled VdW (van der Waals Surface) (Alpha=1.100).
 Cavity algorithm     : GePol (No added spheres)
                        Default sphere list used, NSphG=   19.
                        Lebedev-Laikov grids with approx.  5.0 points / Ang**2.
                        Smoothing algorithm: York/Karplus (Gamma=1.0000).
                        Polarization charges: spherical gaussians, with
                                              point-specific exponents (IZeta= 3).
                        Self-potential: point-specific (ISelfS= 7).
                        Self-field    : sphere-specific E.n sum rule (ISelfD= 2).
 1st derivatives      : Analytical E(r).r(x)/FMM algorithm (CHGder, D1EAlg=3).
                        Cavity 1st derivative terms included.
 Solvent              : Benzene, Eps=   2.270600 Eps(inf)=   2.253301
 ------------------------------------------------------------------------------
 Spheres list:
 ISph  on   Nord     Re0    Alpha      Xe            Ye            Ze
    1   B      1    2.0415  1.100     -1.045474     -0.649588     -0.032976
    2   F      2    1.6820  1.100     -1.770250     -0.087393     -1.057781
    3   F      3    1.6820  1.100     -1.515648     -0.348418      1.232648
    4   F      4    1.6820  1.100     -0.788156     -1.990782     -0.225464
    5   O      5    1.7500  1.100      0.436752      0.085740     -0.116925
    6   C      6    1.9255  1.100      1.567892     -0.726346      0.339638
    7   C      7    1.9255  1.100      2.859719     -0.330341     -0.343515
    8   C      8    1.9255  1.100      0.504264      1.455237      0.397248
    9   C      9    1.9255  1.100     -0.540466      2.356689     -0.218836
   10   H     10    1.4430  1.100      1.621385     -0.634671      1.432821
   11   H     11    1.4430  1.100      1.295053     -1.748535      0.079258
   12   H     12    1.4430  1.100      3.615353     -1.087330     -0.096229
   13   H     13    1.4430  1.100      2.731181     -0.319704     -1.432795
   14   H     14    1.4430  1.100      3.248219      0.639279     -0.012084
   15   H     15    1.4430  1.100      0.401770      1.396612      1.488557
   16   H     16    1.4430  1.100      1.504515      1.815097      0.143372
   17   H     17    1.4430  1.100     -0.331663      3.377407      0.127962
   18   H     18    1.4430  1.100     -0.479653      2.342542     -1.312855
   19   H     19    1.4430  1.100     -1.554770      2.089227      0.090436
 ------------------------------------------------------------------------------
 One-electron integrals computed using PRISM.
 NBasis=   297 RedAO= T EigKep=  2.99D-05  NBF=   297
 NBsUse=   297 1.00D-06 EigRej= -1.00D+00 NBFU=   297
 Initial guess from the checkpoint file:  "/inspire/hdd/project/materialscienceresearch/lipenghui-253107030018/g16/00-B-DFT-Shift/04-output/BF3OEt2_C6D6/BF3OEt2_C6D6.chk"
 B after Tr=     0.000000    0.000000   -0.000000
         Rot=    0.999973    0.004783    0.003411   -0.004483 Ang=   0.85 deg.
 ExpMin= 2.38D-02 ExpMax= 1.47D+04 ExpMxC= 5.03D+02 IAcc=3 IRadAn=         5 AccDes= 0.00D+00
 Harris functional with IExCor= 4639 and IRadAn=       5 diagonalized for initial guess.
 HarFok:  IExCor= 4639 AccDes= 0.00D+00 IRadAn=         5 IDoV= 1 UseB2=F ITyADJ=14
 ICtDFT=  3500011 ScaDFX=  1.000000  1.000000  1.000000  1.000000
 FoFCou: FMM=F IPFlag=           0 FMFlag=      100000 FMFlg1=           0
         NFxFlg=           0 DoJE=T BraDBF=F KetDBF=T FulRan=T
         wScrn=  0.000000 ICntrl=       500 IOpCl=  0 I1Cent=   200000004 NGrid=           0
         NMat0=    1 NMatS0=      1 NMatT0=    0 NMatD0=    1 NMtDS0=    0 NMtDT0=    0
 Petite list used in FoFCou.
 Requested convergence on RMS density matrix=1.00D-08 within 128 cycles.
 Requested convergence on MAX density matrix=1.00D-06.
 Requested convergence on             energy=1.00D-06.
 No special actions if energy rises.
 Inv3:  Mode=1 IEnd=     6922083.
 Iteration    1 A*A^-1 deviation from unit magnitude is 4.55D-15 for   1514.
 Iteration    1 A*A^-1 deviation from orthogonality  is 3.14D-15 for   1507   1256.
 Iteration    1 A^-1*A deviation from unit magnitude is 4.33D-15 for   1514.
 Iteration    1 A^-1*A deviation from orthogonality  is 1.43D-15 for   1508   1133.
 Error on total polarization charges =  0.00635
 SCF Done:  E(RwB97XD) =  -558.145011637     A.U. after   11 cycles
            NFock= 11  Conv=0.25D-08     -V/T= 2.0061
 D1PCM: C-PCM CHGder 1st derivatives, ID1Alg=3 FixD1E=F DoIter=F DoCFld=F I1PDM=0.
 Calling FoFJK, ICntrl=      2127 FMM=F ISym2X=0 I1Cent= 0 IOpClX= 0 NMat=1 NMatS=1 NMatT=0.
 ***** Axes restored to original set *****
 -------------------------------------------------------------------
 Center     Atomic                   Forces (Hartrees/Bohr)
 Number     Number              X              Y              Z
 -------------------------------------------------------------------
      1        5           0.002342639   -0.001195459   -0.000139577
      2        9          -0.000149369   -0.000296368    0.000328040
      3        9          -0.000100425   -0.000112857   -0.000571123
      4        9           0.000212267    0.000410001    0.000198958
      5        8          -0.002387267    0.000460953    0.000429136
      6        6           0.000113404    0.000210524   -0.000639770
      7        6          -0.000042103   -0.000127860   -0.000161172
      8        6          -0.000256840    0.000416736    0.000005432
      9        6           0.000356287    0.000288429    0.000058341
     10        1           0.000178753    0.000034018   -0.000134953
     11        1           0.000015919   -0.000006064    0.000456230
     12        1          -0.000092438    0.000220144    0.000056126
     13        1           0.000006525    0.000053878    0.000126210
     14        1           0.000011375    0.000260030   -0.000121114
     15        1          -0.000070921    0.000085259   -0.000134214
     16        1          -0.000094045   -0.000273131    0.000270871
     17        1          -0.000067258   -0.000219416   -0.000027042
     18        1          -0.000118864   -0.000062628    0.000133181
     19        1           0.000142362   -0.000146191   -0.000133563
 -------------------------------------------------------------------
 Cartesian Forces:  Max     0.002387267 RMS     0.000522687

 GradGradGradGradGradGradGradGradGradGradGradGradGradGradGradGradGradGrad
 Berny optimization.
 Using GEDIIS/GDIIS optimizer.
 FormGI is forming the generalized inverse of G from B-inverse, IUseBI=4.
 Internal  Forces:  Max     0.002599100 RMS     0.000376463
 Search for a local minimum.
 Step number   8 out of a maximum of   97
 All quantities printed in internal units (Hartrees-Bohrs-Radians)
 Mixed Optimization -- En-DIIS/RFO-DIIS
 Swapping is turned off.
 Update second derivatives using D2CorX and points    5    6    7    8
 DE= -1.81D-04 DEPred=-1.28D-04 R= 1.41D+00
 TightC=F SS=  1.41D+00  RLast= 2.16D-01 DXNew= 1.4270D+00 6.4698D-01
 Trust test= 1.41D+00 RLast= 2.16D-01 DXMaxT set to 8.49D-01
 ITU=  1  1  1  1  1  1  1  0
     Eigenvalues ---    0.00149   0.00283   0.00327   0.01416   0.01479
     Eigenvalues ---    0.02501   0.04375   0.04601   0.05178   0.05290
     Eigenvalues ---    0.05392   0.05505   0.05831   0.05896   0.09736
     Eigenvalues ---    0.10212   0.12826   0.12877   0.13210   0.13379
     Eigenvalues ---    0.14904   0.15999   0.16002   0.16009   0.16038
     Eigenvalues ---    0.16112   0.16801   0.19180   0.20638   0.22808
     Eigenvalues ---    0.24813   0.25118   0.28331   0.28401   0.28587
     Eigenvalues ---    0.28797   0.29864   0.31697   0.31832   0.31938
     Eigenvalues ---    0.31987   0.32091   0.32130   0.32157   0.32185
     Eigenvalues ---    0.32258   0.33673   0.37379   0.39570   0.45146
     Eigenvalues ---    0.52193
 En-DIIS/RFO-DIIS/Sim-DIIS IScMMF=       -3 using points:     8    7    6
 RFO step:  Lambda=-2.05021600D-04.
 DidBck=F Rises=F RFO-DIIS coefs:    1.58838    0.37315   -0.96153
 Iteration  1 RMS(Cart)=  0.05473808 RMS(Int)=  0.00133053
 Iteration  2 RMS(Cart)=  0.00165878 RMS(Int)=  0.00003323
 Iteration  3 RMS(Cart)=  0.00000117 RMS(Int)=  0.00003321
 Iteration  4 RMS(Cart)=  0.00000000 RMS(Int)=  0.00003321
 Variable       Old X    -DE/DX   Delta X   Delta X   Delta X     New X
                                 (Linear)    (Quad)   (Total)
    R1        2.59904  -0.00045   0.00053  -0.00222  -0.00169   2.59735
    R2        2.61409  -0.00056  -0.00245  -0.00129  -0.00374   2.61035
    R3        2.60622  -0.00048  -0.00128  -0.00132  -0.00260   2.60362
    R4        3.13076  -0.00260   0.03606  -0.01165   0.02442   3.15518
    R5        2.76921  -0.00072  -0.01459   0.00336  -0.01123   2.75798
    R6        2.76731   0.00004  -0.01658   0.00555  -0.01103   2.75628
    R7        2.86113  -0.00024   0.00428  -0.00211   0.00217   2.86330
    R8        2.07553  -0.00014   0.00114  -0.00045   0.00069   2.07622
    R9        2.05894  -0.00018   0.00159  -0.00077   0.00083   2.05977
   R10        2.07454  -0.00019   0.00038  -0.00018   0.00019   2.07473
   R11        2.07282  -0.00011   0.00038  -0.00026   0.00011   2.07293
   R12        2.07090   0.00001   0.00157  -0.00037   0.00120   2.07210
   R13        2.85570  -0.00010   0.00285  -0.00110   0.00175   2.85745
   R14        2.07431  -0.00012   0.00086  -0.00025   0.00061   2.07492
   R15        2.06530   0.00001   0.00243  -0.00050   0.00193   2.06723
   R16        2.07503  -0.00014  -0.00012   0.00007  -0.00005   2.07498
   R17        2.07076  -0.00015   0.00124  -0.00058   0.00066   2.07142
   R18        2.06664  -0.00023   0.00231  -0.00129   0.00102   2.06766
    A1        1.99722  -0.00018   0.00627  -0.00235   0.00381   2.00103
    A2        1.97343  -0.00014   0.00589  -0.00267   0.00313   1.97655
    A3        1.82584   0.00017  -0.01213   0.00458  -0.00763   1.81821
    A4        1.98541  -0.00023   0.00645  -0.00270   0.00371   1.98911
    A5        1.82742   0.00030  -0.00625   0.00267  -0.00364   1.82378
    A6        1.83136   0.00021  -0.00429   0.00232  -0.00201   1.82935
    A7        2.01400   0.00062   0.00795   0.00143   0.00937   2.02338
    A8        2.02476   0.00005  -0.00889   0.00441  -0.00448   2.02029
    A9        1.95334  -0.00060  -0.00018  -0.00201  -0.00217   1.95117
   A10        1.95312  -0.00077  -0.00186  -0.00206  -0.00390   1.94922
   A11        1.87700   0.00014   0.00802  -0.00310   0.00490   1.88190
   A12        1.82571   0.00039   0.00943   0.00090   0.01032   1.83603
   A13        1.96678   0.00024  -0.00207   0.00021  -0.00188   1.96489
   A14        1.92967   0.00019  -0.00591   0.00239  -0.00354   1.92613
   A15        1.90537  -0.00018  -0.00650   0.00166  -0.00498   1.90039
   A16        1.88105  -0.00015   0.00667  -0.00167   0.00499   1.88604
   A17        1.92904  -0.00004  -0.00112  -0.00058  -0.00172   1.92732
   A18        1.97952  -0.00008  -0.00093  -0.00057  -0.00151   1.97801
   A19        1.88708   0.00012   0.00230  -0.00006   0.00223   1.88931
   A20        1.87336   0.00019  -0.00247   0.00227  -0.00020   1.87316
   A21        1.91060  -0.00003  -0.00406   0.00067  -0.00341   1.90719
   A22        1.96368   0.00067  -0.00917   0.00711  -0.00203   1.96164
   A23        1.87007  -0.00026   0.00787  -0.00237   0.00547   1.87554
   A24        1.84270  -0.00030   0.01121  -0.00491   0.00628   1.84898
   A25        1.95264  -0.00006  -0.00191   0.00039  -0.00151   1.95113
   A26        1.91942  -0.00009  -0.00112  -0.00108  -0.00217   1.91725
   A27        1.91133   0.00001  -0.00604   0.00048  -0.00566   1.90567
   A28        1.86951  -0.00022   0.00756  -0.00266   0.00490   1.87440
   A29        1.94009  -0.00008  -0.00000  -0.00079  -0.00081   1.93928
   A30        1.96061   0.00006  -0.00193   0.00075  -0.00119   1.95943
   A31        1.89311   0.00014  -0.00024   0.00048   0.00022   1.89333
   A32        1.89061   0.00013  -0.00329   0.00164  -0.00164   1.88897
   A33        1.90779  -0.00002  -0.00194   0.00059  -0.00136   1.90644
    D1       -2.61848  -0.00009   0.01854  -0.00169   0.01684  -2.60165
    D2        1.33047   0.00010   0.01978  -0.00509   0.01472   1.34519
    D3        1.55833  -0.00011   0.02007  -0.00236   0.01766   1.57599
    D4       -0.77590   0.00009   0.02131  -0.00576   0.01554  -0.76036
    D5       -0.53720  -0.00008   0.01764  -0.00160   0.01605  -0.52115
    D6       -2.87143   0.00012   0.01889  -0.00499   0.01393  -2.85750
    D7        2.65871  -0.00024  -0.08606   0.00452  -0.08154   2.57716
    D8       -1.45551  -0.00034  -0.08427   0.00126  -0.08305  -1.53856
    D9        0.56896  -0.00029  -0.08376   0.00220  -0.08153   0.48743
   D10       -1.25811  -0.00015  -0.09143   0.01061  -0.08083  -1.33894
   D11        0.91086  -0.00026  -0.08965   0.00734  -0.08234   0.82852
   D12        2.93533  -0.00021  -0.08914   0.00828  -0.08081   2.85451
   D13       -0.92300  -0.00014  -0.01383  -0.01257  -0.02639  -0.94940
   D14        1.23015   0.00004  -0.01656  -0.00917  -0.02577   1.20437
   D15       -3.01673  -0.00022  -0.01458  -0.01210  -0.02661  -3.04335
   D16        2.99892  -0.00049  -0.01641  -0.01725  -0.03367   2.96525
   D17       -1.13112  -0.00031  -0.01914  -0.01385  -0.03305  -1.16417
   D18        0.90519  -0.00057  -0.01715  -0.01679  -0.03389   0.87129
   D19       -2.96471  -0.00014  -0.01788  -0.01358  -0.03146  -2.99617
   D20       -0.90597  -0.00011  -0.01180  -0.01497  -0.02677  -0.93274
   D21        1.24719  -0.00023  -0.01870  -0.01495  -0.03364   1.21355
   D22        1.20052   0.00007  -0.02547  -0.00817  -0.03363   1.16690
   D23       -3.02392   0.00010  -0.01939  -0.00956  -0.02893  -3.05285
   D24       -0.87076  -0.00002  -0.02629  -0.00954  -0.03581  -0.90656
   D25       -0.93708  -0.00000  -0.01104  -0.01222  -0.02329  -0.96037
   D26        1.12166   0.00003  -0.00497  -0.01361  -0.01860   1.10306
   D27       -3.00836  -0.00010  -0.01186  -0.01359  -0.02547  -3.03383
   D28       -3.01939   0.00007  -0.00540   0.00698   0.00158  -3.01782
   D29       -0.95411   0.00006  -0.00114   0.00550   0.00437  -0.94974
   D30        1.18989   0.00003  -0.00509   0.00624   0.00115   1.19105
   D31        1.15743  -0.00003  -0.00767   0.00470  -0.00297   1.15446
   D32       -3.06047  -0.00004  -0.00342   0.00322  -0.00019  -3.06065
   D33       -0.91646  -0.00008  -0.00736   0.00396  -0.00340  -0.91986
   D34       -0.97066   0.00006   0.00217   0.00457   0.00674  -0.96392
   D35        1.09463   0.00005   0.00643   0.00310   0.00952   1.10415
   D36       -3.04456   0.00002   0.00248   0.00383   0.00631  -3.03825
         Item               Value     Threshold  Converged?
 Maximum Force            0.002599     0.000450     NO 
 RMS     Force            0.000376     0.000300     NO 
 Maximum Displacement     0.225731     0.001800     NO 
 RMS     Displacement     0.054825     0.001200     NO 
 Predicted change in Energy=-9.010195D-05
 GradGradGradGradGradGradGradGradGradGradGradGradGradGradGradGradGradGrad

                          Input orientation:                          
 ---------------------------------------------------------------------
 Center     Atomic      Atomic             Coordinates (Angstroms)
 Number     Number       Type             X           Y           Z
 ---------------------------------------------------------------------
      1          5           0       -1.821494    0.735737   -0.148137
      2          9           0       -1.655404    1.743308   -1.068105
      3          9           0       -1.998842    1.166424    1.152305
      4          9           0       -2.726685   -0.222625   -0.548687
      5          8           0       -0.348041   -0.049360   -0.131082
      6          6           0       -0.389918   -1.478894    0.159960
      7          6           0        0.707805   -2.230263   -0.565478
      8          6           0        0.719120    0.621612    0.602649
      9          6           0        0.934864    2.043026    0.134174
     10          1           0       -0.335749   -1.601839    1.250401
     11          1           0       -1.368943   -1.812029   -0.184412
     12          1           0        0.532616   -3.305348   -0.428047
     13          1           0        0.675871   -2.011606   -1.639939
     14          1           0        1.711138   -2.011196   -0.181201
     15          1           0        0.463011    0.578483    1.669490
     16          1           0        1.622735    0.030978    0.425678
     17          1           0        1.829499    2.424448    0.643898
     18          1           0        1.108847    2.080163   -0.947439
     19          1           0        0.093111    2.694961    0.386387
 ---------------------------------------------------------------------
                    Distance matrix (angstroms):
                    1          2          3          4          5
     1  B    0.000000
     2  F    1.374456   0.000000
     3  F    1.381337   2.319692   0.000000
     4  F    1.377777   2.298333   2.313566   0.000000
     5  O    1.669649   2.408499   2.418751   2.421231   0.000000
     6  C    2.654980   3.673171   3.251322   2.746065   1.459461
     7  C    3.920291   4.650448   4.670568   3.978268   2.461677
     8  C    2.651683   3.112553   2.825997   3.729863   1.458560
     9  C    3.063692   2.871375   3.226709   4.359634   2.468660
    10  H    3.102838   4.278665   3.230910   3.294772   2.078182
    11  H    2.587900   3.674697   3.324871   2.121877   2.037667
    12  H    4.685141   5.539498   5.376108   4.487848   3.386031
    13  H    4.001274   4.456592   5.005056   3.996081   2.678704
    14  H    4.475066   5.120206   5.063542   4.798781   2.844562
    15  H    2.923603   3.652250   2.583385   3.966894   2.072210
    16  H    3.562114   3.988691   3.864329   4.464432   2.049486
    17  H    4.099856   3.942012   4.061687   5.402598   3.385558
    18  H    3.321636   2.787314   3.860256   4.491452   2.706258
    19  H    2.791055   2.465460   2.701726   4.163883   2.827311
                    6          7          8          9         10
     6  C    0.000000
     7  C    1.515194   0.000000
     8  C    2.416208   3.081857   0.000000
     9  C    3.762928   4.336135   1.512095   0.000000
    10  H    1.098687   2.186627   2.544811   4.018141   0.000000
    11  H    1.089983   2.152444   3.301830   4.502274   1.780551
    12  H    2.129027   1.097901   4.064250   5.392865   2.544246
    13  H    2.158546   1.096949   3.459032   4.433349   3.089555
    14  H    2.194122   1.096510   2.920650   4.139901   2.531166
    15  H    2.690533   3.597786   1.097999   2.173643   2.359546
    16  H    2.530038   2.633002   1.093932   2.146270   2.679910
    17  H    4.516203   4.938332   2.117750   1.098032   4.611630
    18  H    4.017402   4.345861   2.163801   1.096146   4.524876
    19  H    4.207808   5.053883   2.176565   1.094157   4.403741
                   11         12         13         14         15
    11  H    0.000000
    12  H    2.430080   0.000000
    13  H    2.517867   1.778475   0.000000
    14  H    3.086516   1.767675   1.788769   0.000000
    15  H    3.536603   4.414595   4.207872   3.418964   0.000000
    16  H    3.566374   3.612240   3.055401   2.132274   1.786558
    17  H    5.372511   5.971728   5.121068   4.513285   2.515296
    18  H    4.676624   5.441098   4.172481   4.205841   3.085525
    19  H    4.772460   6.071259   5.157264   5.008801   2.502531
                   16         17         18         19
    16  H    0.000000
    17  H    2.412275   0.000000
    18  H    2.519661   1.780512   0.000000
    19  H    3.072149   1.776101   1.785718   0.000000
 Stoichiometry    C4H10BF3O
 Framework group  C1[X(C4H10BF3O)]
 Deg. of freedom    51
 Full point group                 C1      NOp   1
 Largest Abelian subgroup         C1      NOp   1
 Largest concise Abelian subgroup C1      NOp   1
                         Standard orientation:                         
 ---------------------------------------------------------------------
 Center     Atomic      Atomic             Coordinates (Angstroms)
 Number     Number       Type             X           Y           Z
 ---------------------------------------------------------------------
      1          5           0       -1.043549   -0.661543   -0.036044
      2          9           0       -1.740965   -0.114873   -1.086707
      3          9           0       -1.544399   -0.348925    1.212761
      4          9           0       -0.762272   -1.999371   -0.207412
      5          8           0        0.442393    0.097750   -0.092419
      6          6           0        1.579075   -0.688556    0.376308
      7          6           0        2.848881   -0.338371   -0.372541
      8          6           0        0.477337    1.461315    0.424172
      9          6           0       -0.546823    2.354825   -0.238526
     10          1           0        1.671789   -0.532809    1.459941
     11          1           0        1.303898   -1.726897    0.191410
     12          1           0        3.624387   -1.059854   -0.083684
     13          1           0        2.689914   -0.419824   -1.454850
     14          1           0        3.229986    0.662435   -0.136999
     15          1           0        0.327907    1.405974    1.510546
     16          1           0        1.484742    1.834786    0.218400
     17          1           0       -0.365423    3.379090    0.113112
     18          1           0       -0.438965    2.337698   -1.329218
     19          1           0       -1.571727    2.078363    0.026652
 ---------------------------------------------------------------------
 Rotational constants (GHZ):           1.8140892           1.3713421           0.9812172
 Standard basis: Aug-CC-pVDZ (5D, 7F)
 There are   315 symmetry adapted cartesian basis functions of A   symmetry.
 There are   297 symmetry adapted basis functions of A   symmetry.
   297 basis functions,   497 primitive gaussians,   315 cartesian basis functions
    37 alpha electrons       37 beta electrons
       nuclear repulsion energy       523.0426660801 Hartrees.
 NAtoms=   19 NActive=   19 NUniq=   19 SFac= 1.00D+00 NAtFMM=   60 NAOKFM=F Big=F
 Integral buffers will be    131072 words long.
 Raffenetti 2 integral format.
 Two-electron integral symmetry is turned on.
 Nuclear repulsion after empirical dispersion term =      523.0306579397 Hartrees.
 Force PCM accuracy= 1.00D-12.
 ------------------------------------------------------------------------------
 Polarizable Continuum Model (PCM)
 =================================
 Model                : C-PCM.
 Atomic radii         : UFF (Universal Force Field).
 Polarization charges : Total charges.
 Charge compensation  : None.
 Solution method      : On-the-fly selection.
 Cavity type          : Scaled VdW (van der Waals Surface) (Alpha=1.100).
 Cavity algorithm     : GePol (No added spheres)
                        Default sphere list used, NSphG=   19.
                        Lebedev-Laikov grids with approx.  5.0 points / Ang**2.
                        Smoothing algorithm: York/Karplus (Gamma=1.0000).
                        Polarization charges: spherical gaussians, with
                                              point-specific exponents (IZeta= 3).
                        Self-potential: point-specific (ISelfS= 7).
                        Self-field    : sphere-specific E.n sum rule (ISelfD= 2).
 1st derivatives      : Analytical E(r).r(x)/FMM algorithm (CHGder, D1EAlg=3).
                        Cavity 1st derivative terms included.
 Solvent              : Benzene, Eps=   2.270600 Eps(inf)=   2.253301
 ------------------------------------------------------------------------------
 Spheres list:
 ISph  on   Nord     Re0    Alpha      Xe            Ye            Ze
    1   B      1    2.0415  1.100     -1.043549     -0.661543     -0.036044
    2   F      2    1.6820  1.100     -1.740965     -0.114873     -1.086707
    3   F      3    1.6820  1.100     -1.544399     -0.348925      1.212761
    4   F      4    1.6820  1.100     -0.762272     -1.999371     -0.207412
    5   O      5    1.7500  1.100      0.442393      0.097750     -0.092419
    6   C      6    1.9255  1.100      1.579075     -0.688556      0.376308
    7   C      7    1.9255  1.100      2.848881     -0.338371     -0.372541
    8   C      8    1.9255  1.100      0.477337      1.461315      0.424172
    9   C      9    1.9255  1.100     -0.546823      2.354825     -0.238526
   10   H     10    1.4430  1.100      1.671789     -0.532809      1.459941
   11   H     11    1.4430  1.100      1.303898     -1.726897      0.191410
   12   H     12    1.4430  1.100      3.624387     -1.059854     -0.083684
   13   H     13    1.4430  1.100      2.689914     -0.419824     -1.454850
   14   H     14    1.4430  1.100      3.229986      0.662435     -0.136999
   15   H     15    1.4430  1.100      0.327907      1.405974      1.510546
   16   H     16    1.4430  1.100      1.484742      1.834786      0.218400
   17   H     17    1.4430  1.100     -0.365423      3.379090      0.113112
   18   H     18    1.4430  1.100     -0.438965      2.337698     -1.329218
   19   H     19    1.4430  1.100     -1.571727      2.078363      0.026652
 ------------------------------------------------------------------------------
 One-electron integrals computed using PRISM.
 NBasis=   297 RedAO= T EigKep=  2.81D-05  NBF=   297
 NBsUse=   297 1.00D-06 EigRej= -1.00D+00 NBFU=   297
 Initial guess from the checkpoint file:  "/inspire/hdd/project/materialscienceresearch/lipenghui-253107030018/g16/00-B-DFT-Shift/04-output/BF3OEt2_C6D6/BF3OEt2_C6D6.chk"
 B after Tr=     0.000000   -0.000000    0.000000
         Rot=    0.999978    0.004478    0.003449   -0.003456 Ang=   0.76 deg.
 ExpMin= 2.38D-02 ExpMax= 1.47D+04 ExpMxC= 5.03D+02 IAcc=3 IRadAn=         5 AccDes= 0.00D+00
 Harris functional with IExCor= 4639 and IRadAn=       5 diagonalized for initial guess.
 HarFok:  IExCor= 4639 AccDes= 0.00D+00 IRadAn=         5 IDoV= 1 UseB2=F ITyADJ=14
 ICtDFT=  3500011 ScaDFX=  1.000000  1.000000  1.000000  1.000000
 FoFCou: FMM=F IPFlag=           0 FMFlag=      100000 FMFlg1=           0
         NFxFlg=           0 DoJE=T BraDBF=F KetDBF=T FulRan=T
         wScrn=  0.000000 ICntrl=       500 IOpCl=  0 I1Cent=   200000004 NGrid=           0
         NMat0=    1 NMatS0=      1 NMatT0=    0 NMatD0=    1 NMtDS0=    0 NMtDT0=    0
 Petite list used in FoFCou.
 Requested convergence on RMS density matrix=1.00D-08 within 128 cycles.
 Requested convergence on MAX density matrix=1.00D-06.
 Requested convergence on             energy=1.00D-06.
 No special actions if energy rises.
 Inv3:  Mode=1 IEnd=     7004352.
 Iteration    1 A*A^-1 deviation from unit magnitude is 3.33D-15 for   1513.
 Iteration    1 A*A^-1 deviation from orthogonality  is 2.05D-15 for   1516   1264.
 Iteration    1 A^-1*A deviation from unit magnitude is 3.33D-15 for   1513.
 Iteration    1 A^-1*A deviation from orthogonality  is 1.61D-15 for   1324    372.
 Error on total polarization charges =  0.00638
 SCF Done:  E(RwB97XD) =  -558.145113094     A.U. after   11 cycles
            NFock= 11  Conv=0.26D-08     -V/T= 2.0061
 D1PCM: C-PCM CHGder 1st derivatives, ID1Alg=3 FixD1E=F DoIter=F DoCFld=F I1PDM=0.
 Calling FoFJK, ICntrl=      2127 FMM=F ISym2X=0 I1Cent= 0 IOpClX= 0 NMat=1 NMatS=1 NMatT=0.
 ***** Axes restored to original set *****
 -------------------------------------------------------------------
 Center     Atomic                   Forces (Hartrees/Bohr)
 Number     Number              X              Y              Z
 -------------------------------------------------------------------
      1        5           0.003318155   -0.001732195   -0.000643279
      2        9          -0.000367130   -0.000227855    0.000523565
      3        9          -0.000178749   -0.000047015   -0.000501033
      4        9           0.000373458    0.000369339    0.000244931
      5        8          -0.004919049    0.001566139   -0.000018812
      6        6           0.000170028   -0.003073419   -0.000425280
      7        6           0.000256429    0.000330857   -0.000098753
      8        6           0.002505993    0.002073215    0.001089882
      9        6           0.000003208    0.000505292    0.000017759
     10        1           0.000267801    0.000429379   -0.000318199
     11        1           0.000009612    0.000531615    0.000337077
     12        1          -0.000263105    0.000314071    0.000070796
     13        1          -0.000071268   -0.000070448    0.000206759
     14        1          -0.000198968    0.000398161   -0.000122577
     15        1          -0.000449511    0.000070466   -0.000403643
     16        1          -0.000584054   -0.000523789    0.000018219
     17        1          -0.000044085   -0.000476321    0.000017520
     18        1          -0.000133496   -0.000103464    0.000259913
     19        1           0.000304730   -0.000334028   -0.000254844
 -------------------------------------------------------------------
 Cartesian Forces:  Max     0.004919049 RMS     0.001082490

 GradGradGradGradGradGradGradGradGradGradGradGradGradGradGradGradGradGrad
 Berny optimization.
 Using GEDIIS/GDIIS optimizer.
 FormGI is forming the generalized inverse of G from B-inverse, IUseBI=4.
 Internal  Forces:  Max     0.003543028 RMS     0.000578820
 Search for a local minimum.
 Step number   9 out of a maximum of   97
 All quantities printed in internal units (Hartrees-Bohrs-Radians)
 Mixed Optimization -- En-DIIS/RFO-DIIS
 Swapping is turned off.
 Update second derivatives using D2CorX and points    6    7    8    9
 DE= -1.01D-04 DEPred=-9.01D-05 R= 1.13D+00
 TightC=F SS=  1.41D+00  RLast= 2.37D-01 DXNew= 1.4270D+00 7.1193D-01
 Trust test= 1.13D+00 RLast= 2.37D-01 DXMaxT set to 8.49D-01
 ITU=  1  1  1  1  1  1  1  1  0
     Eigenvalues ---    0.00101   0.00283   0.00326   0.01418   0.01476
     Eigenvalues ---    0.02532   0.04384   0.04599   0.05194   0.05305
     Eigenvalues ---    0.05420   0.05684   0.05802   0.05890   0.09693
     Eigenvalues ---    0.10323   0.12808   0.12870   0.13247   0.13470
     Eigenvalues ---    0.14986   0.16000   0.16004   0.16008   0.16069
     Eigenvalues ---    0.16107   0.17413   0.19106   0.20682   0.22813
     Eigenvalues ---    0.24968   0.25115   0.28326   0.28443   0.28583
     Eigenvalues ---    0.28768   0.30455   0.31725   0.31830   0.31939
     Eigenvalues ---    0.32014   0.32090   0.32131   0.32156   0.32185
     Eigenvalues ---    0.32265   0.34804   0.37648   0.39822   0.47273
     Eigenvalues ---    0.59326
 En-DIIS/RFO-DIIS/Sim-DIIS IScMMF=       -3 using points:     9    8    7    6
 RFO step:  Lambda=-1.71313150D-04.
 DidBck=F Rises=F RFO-DIIS coefs:    2.13315   -2.00000    0.73878    0.12806
 Iteration  1 RMS(Cart)=  0.07971762 RMS(Int)=  0.00292152
 Iteration  2 RMS(Cart)=  0.00365794 RMS(Int)=  0.00002265
 Iteration  3 RMS(Cart)=  0.00000719 RMS(Int)=  0.00002201
 Iteration  4 RMS(Cart)=  0.00000000 RMS(Int)=  0.00002201
 Variable       Old X    -DE/DX   Delta X   Delta X   Delta X     New X
                                 (Linear)    (Quad)   (Total)
    R1        2.59735  -0.00056  -0.00004  -0.00115  -0.00119   2.59615
    R2        2.61035  -0.00046  -0.00050  -0.00229  -0.00279   2.60756
    R3        2.60362  -0.00057   0.00002  -0.00252  -0.00250   2.60112
    R4        3.15518  -0.00354   0.00202   0.01346   0.01549   3.17067
    R5        2.75798   0.00104  -0.00067  -0.00754  -0.00821   2.74977
    R6        2.75628   0.00211   0.00020  -0.00744  -0.00725   2.74903
    R7        2.86330  -0.00070  -0.00086   0.00154   0.00068   2.86399
    R8        2.07622  -0.00035  -0.00002   0.00006   0.00004   2.07626
    R9        2.05977  -0.00028   0.00025   0.00100   0.00125   2.06102
   R10        2.07473  -0.00026   0.00017   0.00008   0.00025   2.07498
   R11        2.07293  -0.00021   0.00008  -0.00011  -0.00003   2.07291
   R12        2.07210  -0.00014   0.00026   0.00095   0.00120   2.07331
   R13        2.85745  -0.00038  -0.00031   0.00137   0.00106   2.85850
   R14        2.07492  -0.00029   0.00017   0.00002   0.00018   2.07510
   R15        2.06723  -0.00020   0.00069   0.00125   0.00194   2.06917
   R16        2.07498  -0.00019   0.00011  -0.00019  -0.00008   2.07490
   R17        2.07142  -0.00028   0.00016   0.00042   0.00059   2.07201
   R18        2.06766  -0.00049   0.00001   0.00059   0.00060   2.06826
    A1        2.00103  -0.00041   0.00010   0.00173   0.00186   2.00289
    A2        1.97655  -0.00013   0.00088   0.00250   0.00341   1.97996
    A3        1.81821   0.00072  -0.00068  -0.00470  -0.00536   1.81285
    A4        1.98911  -0.00024   0.00067   0.00253   0.00321   1.99232
    A5        1.82378   0.00044  -0.00121  -0.00070  -0.00190   1.82188
    A6        1.82935  -0.00018  -0.00038  -0.00311  -0.00348   1.82588
    A7        2.02338   0.00034   0.00386   0.00923   0.01309   2.03646
    A8        2.02029   0.00050   0.00051  -0.00325  -0.00281   2.01748
    A9        1.95117  -0.00063  -0.00075   0.00082   0.00001   1.95117
   A10        1.94922  -0.00096  -0.00337  -0.00359  -0.00697   1.94225
   A11        1.88190  -0.00001  -0.00062   0.00332   0.00268   1.88458
   A12        1.83603   0.00014   0.00241   0.00851   0.01092   1.84695
   A13        1.96489   0.00039  -0.00001  -0.00099  -0.00098   1.96391
   A14        1.92613   0.00054   0.00125  -0.00207  -0.00078   1.92535
   A15        1.90039  -0.00012   0.00038  -0.00453  -0.00407   1.89632
   A16        1.88604  -0.00036  -0.00005   0.00586   0.00582   1.89186
   A17        1.92732   0.00002  -0.00047  -0.00104  -0.00152   1.92581
   A18        1.97801  -0.00026  -0.00081  -0.00419  -0.00500   1.97301
   A19        1.88931   0.00013   0.00029   0.00251   0.00281   1.89212
   A20        1.87316   0.00042   0.00129   0.00113   0.00243   1.87559
   A21        1.90719   0.00008  -0.00020  -0.00377  -0.00398   1.90321
   A22        1.96164   0.00107  -0.00016  -0.00201  -0.00218   1.95946
   A23        1.87554  -0.00058  -0.00041   0.00395   0.00355   1.87909
   A24        1.84898  -0.00076  -0.00030   0.00355   0.00325   1.85223
   A25        1.95113  -0.00003   0.00010  -0.00011   0.00000   1.95113
   A26        1.91725   0.00007   0.00074  -0.00078  -0.00003   1.91722
   A27        1.90567   0.00017  -0.00011  -0.00447  -0.00451   1.90116
   A28        1.87440  -0.00058  -0.00038   0.00401   0.00364   1.87804
   A29        1.93928  -0.00009  -0.00036  -0.00124  -0.00159   1.93769
   A30        1.95943   0.00013  -0.00018  -0.00073  -0.00092   1.95851
   A31        1.89333   0.00026   0.00027   0.00077   0.00104   1.89437
   A32        1.88897   0.00031   0.00083  -0.00063   0.00020   1.88917
   A33        1.90644  -0.00001  -0.00015  -0.00200  -0.00216   1.90428
    D1       -2.60165  -0.00006   0.00257   0.01697   0.01955  -2.58209
    D2        1.34519  -0.00001  -0.00114   0.00889   0.00773   1.35292
    D3        1.57599  -0.00011   0.00321   0.01746   0.02070   1.59669
    D4       -0.76036  -0.00007  -0.00050   0.00938   0.00887  -0.75149
    D5       -0.52115   0.00004   0.00317   0.01633   0.01951  -0.50165
    D6       -2.85750   0.00008  -0.00054   0.00825   0.00768  -2.84982
    D7        2.57716  -0.00033  -0.02071  -0.09189  -0.11263   2.46453
    D8       -1.53856  -0.00048  -0.02338  -0.09318  -0.11658  -1.65514
    D9        0.48743  -0.00055  -0.02188  -0.09268  -0.11459   0.37285
   D10       -1.33894   0.00011  -0.01667  -0.08615  -0.10280  -1.44174
   D11        0.82852  -0.00004  -0.01934  -0.08744  -0.10675   0.72177
   D12        2.85451  -0.00011  -0.01784  -0.08693  -0.10476   2.74976
   D13       -0.94940  -0.00020  -0.01116  -0.03671  -0.04789  -0.99729
   D14        1.20437   0.00004  -0.01143  -0.03538  -0.04682   1.15756
   D15       -3.04335  -0.00041  -0.01176  -0.03689  -0.04870  -3.09204
   D16        2.96525  -0.00057  -0.01681  -0.04834  -0.06512   2.90013
   D17       -1.16417  -0.00032  -0.01708  -0.04701  -0.06404  -1.22821
   D18        0.87129  -0.00078  -0.01741  -0.04852  -0.06592   0.80537
   D19       -2.99617  -0.00014  -0.01789  -0.04319  -0.06108  -3.05725
   D20       -0.93274  -0.00018  -0.01781  -0.03724  -0.05506  -0.98779
   D21        1.21355  -0.00026  -0.01898  -0.04599  -0.06496   1.14859
   D22        1.16690   0.00030  -0.01460  -0.04417  -0.05879   1.10811
   D23       -3.05285   0.00025  -0.01452  -0.03822  -0.05277  -3.10562
   D24       -0.90656   0.00018  -0.01569  -0.04697  -0.06267  -0.96923
   D25       -0.96037  -0.00021  -0.01620  -0.03615  -0.05233  -1.01270
   D26        1.10306  -0.00025  -0.01612  -0.03021  -0.04631   1.05675
   D27       -3.03383  -0.00033  -0.01728  -0.03895  -0.05621  -3.09004
   D28       -3.01782   0.00014  -0.00283   0.00340   0.00057  -3.01725
   D29       -0.94974   0.00005  -0.00291   0.00606   0.00315  -0.94659
   D30        1.19105   0.00006  -0.00350   0.00203  -0.00147   1.18958
   D31        1.15446   0.00015  -0.00226  -0.00021  -0.00247   1.15199
   D32       -3.06065   0.00007  -0.00234   0.00246   0.00011  -3.06055
   D33       -0.91986   0.00007  -0.00292  -0.00158  -0.00451  -0.92438
   D34       -0.96392  -0.00010  -0.00283   0.00606   0.00325  -0.96068
   D35        1.10415  -0.00019  -0.00291   0.00873   0.00583   1.10997
   D36       -3.03825  -0.00018  -0.00349   0.00469   0.00121  -3.03704
         Item               Value     Threshold  Converged?
 Maximum Force            0.003543     0.000450     NO 
 RMS     Force            0.000579     0.000300     NO 
 Maximum Displacement     0.328283     0.001800     NO 
 RMS     Displacement     0.080130     0.001200     NO 
 Predicted change in Energy=-7.133772D-05
 GradGradGradGradGradGradGradGradGradGradGradGradGradGradGradGradGradGrad

                          Input orientation:                          
 ---------------------------------------------------------------------
 Center     Atomic      Atomic             Coordinates (Angstroms)
 Number     Number       Type             X           Y           Z
 ---------------------------------------------------------------------
      1          5           0       -1.823729    0.725651   -0.170748
      2          9           0       -1.631155    1.716429   -1.102772
      3          9           0       -2.038382    1.176256    1.115678
      4          9           0       -2.705882   -0.248089   -0.580948
      5          8           0       -0.338754   -0.051960   -0.097737
      6          6           0       -0.361554   -1.478364    0.188995
      7          6           0        0.680553   -2.219680   -0.624253
      8          6           0        0.693780    0.635301    0.662373
      9          6           0        0.956034    2.030948    0.141297
     10          1           0       -0.222251   -1.609053    1.270974
     11          1           0       -1.362688   -1.819282   -0.077475
     12          1           0        0.564642   -3.295547   -0.437832
     13          1           0        0.530398   -2.035489   -1.695137
     14          1           0        1.708781   -1.947762   -0.354921
     15          1           0        0.381648    0.645182    1.715127
     16          1           0        1.598623    0.026297    0.565878
     17          1           0        1.826833    2.428125    0.679390
     18          1           0        1.186589    2.013752   -0.930509
     19          1           0        0.110055    2.703263    0.315035
 ---------------------------------------------------------------------
                    Distance matrix (angstroms):
                    1          2          3          4          5
     1  B    0.000000
     2  F    1.373825   0.000000
     3  F    1.379859   2.319298   0.000000
     4  F    1.376455   2.299276   2.313624   0.000000
     5  O    1.677844   2.409895   2.422731   2.423893   0.000000
     6  C    2.669280   3.672500   3.273760   2.757221   1.455117
     7  C    3.892566   4.589764   4.685334   3.918800   2.452594
     8  C    2.653320   3.112860   2.821848   3.726114   1.454723
     9  C    3.086787   2.887937   3.262889   4.373246   2.464167
    10  H    3.177127   4.321864   3.328722   3.383823   2.076411
    11  H    2.588039   3.691146   3.294454   2.127511   2.042616
    12  H    4.684622   5.512129   5.402421   4.472562   3.384176
    13  H    3.935680   4.370366   4.981428   3.861312   2.691004
    14  H    4.433924   5.014055   5.095427   4.735950   2.802250
    15  H    2.902876   3.624845   2.549102   3.950030   2.071585
    16  H    3.569903   4.009040   3.853893   4.463100   2.049375
    17  H    4.116765   3.954781   4.086246   5.412585   3.382974
    18  H    3.361318   2.838619   3.910079   4.515468   2.699509
    19  H    2.808284   2.452719   2.754734   4.176454   2.821890
                    6          7          8          9         10
     6  C    0.000000
     7  C    1.515556   0.000000
     8  C    2.409440   3.131533   0.000000
     9  C    3.748812   4.327794   1.512656   0.000000
    10  H    1.098709   2.186277   2.499327   3.989252   0.000000
    11  H    1.090642   2.152701   3.286551   4.499845   1.778512
    12  H    2.133753   1.098033   4.083956   5.372162   2.526555
    13  H    2.157759   1.096935   3.566184   4.482139   3.089683
    14  H    2.191453   1.097147   2.955897   4.079582   2.546987
    15  H    2.718617   3.710725   1.098097   2.174215   2.375614
    16  H    2.499668   2.702532   1.094960   2.147513   2.546981
    17  H    4.504463   4.961405   2.120923   1.097991   4.565909
    18  H    3.980568   4.274555   2.163391   1.096458   4.467222
    19  H    4.210025   5.044116   2.176659   1.094474   4.429483
                   11         12         13         14         15
    11  H    0.000000
    12  H    2.454346   0.000000
    13  H    2.499471   1.780375   0.000000
    14  H    3.086650   1.769874   1.786746   0.000000
    15  H    3.511369   4.494226   4.340280   3.573477   0.000000
    16  H    3.548158   3.620939   3.241027   2.181035   1.784607
    17  H    5.365292   5.966719   5.219480   4.498013   2.517975
    18  H    4.681734   5.368259   4.172721   4.037026   3.085499
    19  H    4.772468   6.062935   5.164616   4.963547   2.503941
                   16         17         18         19
    16  H    0.000000
    17  H    2.415314   0.000000
    18  H    2.521690   1.781401   0.000000
    19  H    3.073256   1.776452   1.784862   0.000000
 Stoichiometry    C4H10BF3O
 Framework group  C1[X(C4H10BF3O)]
 Deg. of freedom    51
 Full point group                 C1      NOp   1
 Largest Abelian subgroup         C1      NOp   1
 Largest concise Abelian subgroup C1      NOp   1
                         Standard orientation:                         
 ---------------------------------------------------------------------
 Center     Atomic      Atomic             Coordinates (Angstroms)
 Number     Number       Type             X           Y           Z
 ---------------------------------------------------------------------
      1          5           0       -1.036468   -0.676710   -0.040654
      2          9           0       -1.705380   -0.142937   -1.115381
      3          9           0       -1.578761   -0.366415    1.189650
      4          9           0       -0.721199   -2.007334   -0.197732
      5          8           0        0.443517    0.113603   -0.055180
      6          6           0        1.592030   -0.641256    0.422807
      7          6           0        2.824995   -0.353122   -0.410072
      8          6           0        0.435597    1.472101    0.465052
      9          6           0       -0.542509    2.361664   -0.269872
     10          1           0        1.736604   -0.402174    1.485398
     11          1           0        1.313912   -1.692302    0.336483
     12          1           0        3.636343   -1.008175   -0.066129
     13          1           0        2.629842   -0.569404   -1.467618
     14          1           0        3.175115    0.682312   -0.315079
     15          1           0        0.209302    1.416645    1.538146
     16          1           0        1.453998    1.853089    0.336036
     17          1           0       -0.395221    3.387627    0.092468
     18          1           0       -0.355802    2.343281   -1.350160
     19          1           0       -1.582514    2.077677   -0.081160
 ---------------------------------------------------------------------
 Rotational constants (GHZ):           1.7936662           1.3778071           0.9856841
 Standard basis: Aug-CC-pVDZ (5D, 7F)
 There are   315 symmetry adapted cartesian basis functions of A   symmetry.
 There are   297 symmetry adapted basis functions of A   symmetry.
   297 basis functions,   497 primitive gaussians,   315 cartesian basis functions
    37 alpha electrons       37 beta electrons
       nuclear repulsion energy       522.8279535033 Hartrees.
 NAtoms=   19 NActive=   19 NUniq=   19 SFac= 1.00D+00 NAtFMM=   60 NAOKFM=F Big=F
 Integral buffers will be    131072 words long.
 Raffenetti 2 integral format.
 Two-electron integral symmetry is turned on.
 Nuclear repulsion after empirical dispersion term =      522.8159563499 Hartrees.
 Force PCM accuracy= 1.00D-12.
 ------------------------------------------------------------------------------
 Polarizable Continuum Model (PCM)
 =================================
 Model                : C-PCM.
 Atomic radii         : UFF (Universal Force Field).
 Polarization charges : Total charges.
 Charge compensation  : None.
 Solution method      : On-the-fly selection.
 Cavity type          : Scaled VdW (van der Waals Surface) (Alpha=1.100).
 Cavity algorithm     : GePol (No added spheres)
                        Default sphere list used, NSphG=   19.
                        Lebedev-Laikov grids with approx.  5.0 points / Ang**2.
                        Smoothing algorithm: York/Karplus (Gamma=1.0000).
                        Polarization charges: spherical gaussians, with
                                              point-specific exponents (IZeta= 3).
                        Self-potential: point-specific (ISelfS= 7).
                        Self-field    : sphere-specific E.n sum rule (ISelfD= 2).
 1st derivatives      : Analytical E(r).r(x)/FMM algorithm (CHGder, D1EAlg=3).
                        Cavity 1st derivative terms included.
 Solvent              : Benzene, Eps=   2.270600 Eps(inf)=   2.253301
 ------------------------------------------------------------------------------
 Spheres list:
 ISph  on   Nord     Re0    Alpha      Xe            Ye            Ze
    1   B      1    2.0415  1.100     -1.036468     -0.676710     -0.040654
    2   F      2    1.6820  1.100     -1.705380     -0.142937     -1.115381
    3   F      3    1.6820  1.100     -1.578761     -0.366415      1.189650
    4   F      4    1.6820  1.100     -0.721199     -2.007334     -0.197732
    5   O      5    1.7500  1.100      0.443517      0.113603     -0.055180
    6   C      6    1.9255  1.100      1.592030     -0.641256      0.422807
    7   C      7    1.9255  1.100      2.824995     -0.353122     -0.410072
    8   C      8    1.9255  1.100      0.435597      1.472101      0.465052
    9   C      9    1.9255  1.100     -0.542509      2.361664     -0.269872
   10   H     10    1.4430  1.100      1.736604     -0.402174      1.485398
   11   H     11    1.4430  1.100      1.313912     -1.692302      0.336483
   12   H     12    1.4430  1.100      3.636343     -1.008175     -0.066129
   13   H     13    1.4430  1.100      2.629842     -0.569404     -1.467618
   14   H     14    1.4430  1.100      3.175115      0.682312     -0.315079
   15   H     15    1.4430  1.100      0.209302      1.416645      1.538146
   16   H     16    1.4430  1.100      1.453998      1.853089      0.336036
   17   H     17    1.4430  1.100     -0.395221      3.387627      0.092468
   18   H     18    1.4430  1.100     -0.355802      2.343281     -1.350160
   19   H     19    1.4430  1.100     -1.582514      2.077677     -0.081160
 ------------------------------------------------------------------------------
 One-electron integrals computed using PRISM.
 NBasis=   297 RedAO= T EigKep=  2.63D-05  NBF=   297
 NBsUse=   297 1.00D-06 EigRej= -1.00D+00 NBFU=   297
 Initial guess from the checkpoint file:  "/inspire/hdd/project/materialscienceresearch/lipenghui-253107030018/g16/00-B-DFT-Shift/04-output/BF3OEt2_C6D6/BF3OEt2_C6D6.chk"
 B after Tr=    -0.000000    0.000000    0.000000
         Rot=    0.999971    0.004386    0.004609   -0.004242 Ang=   0.88 deg.
 ExpMin= 2.38D-02 ExpMax= 1.47D+04 ExpMxC= 5.03D+02 IAcc=3 IRadAn=         5 AccDes= 0.00D+00
 Harris functional with IExCor= 4639 and IRadAn=       5 diagonalized for initial guess.
 HarFok:  IExCor= 4639 AccDes= 0.00D+00 IRadAn=         5 IDoV= 1 UseB2=F ITyADJ=14
 ICtDFT=  3500011 ScaDFX=  1.000000  1.000000  1.000000  1.000000
 FoFCou: FMM=F IPFlag=           0 FMFlag=      100000 FMFlg1=           0
         NFxFlg=           0 DoJE=T BraDBF=F KetDBF=T FulRan=T
         wScrn=  0.000000 ICntrl=       500 IOpCl=  0 I1Cent=   200000004 NGrid=           0
         NMat0=    1 NMatS0=      1 NMatT0=    0 NMatD0=    1 NMtDS0=    0 NMtDT0=    0
 Petite list used in FoFCou.
 Requested convergence on RMS density matrix=1.00D-08 within 128 cycles.
 Requested convergence on MAX density matrix=1.00D-06.
 Requested convergence on             energy=1.00D-06.
 No special actions if energy rises.
 Inv3:  Mode=1 IEnd=     6858432.
 Iteration    1 A*A^-1 deviation from unit magnitude is 4.77D-15 for   1505.
 Iteration    1 A*A^-1 deviation from orthogonality  is 1.58D-15 for   1502   1259.
 Iteration    1 A^-1*A deviation from unit magnitude is 4.77D-15 for   1505.
 Iteration    1 A^-1*A deviation from orthogonality  is 1.66D-15 for   1431   1013.
 Error on total polarization charges =  0.00642
 SCF Done:  E(RwB97XD) =  -558.145308869     A.U. after   11 cycles
            NFock= 11  Conv=0.34D-08     -V/T= 2.0061
 D1PCM: C-PCM CHGder 1st derivatives, ID1Alg=3 FixD1E=F DoIter=F DoCFld=F I1PDM=0.
 Calling FoFJK, ICntrl=      2127 FMM=F ISym2X=0 I1Cent= 0 IOpClX= 0 NMat=1 NMatS=1 NMatT=0.
 ***** Axes restored to original set *****
 -------------------------------------------------------------------
 Center     Atomic                   Forces (Hartrees/Bohr)
 Number     Number              X              Y              Z
 -------------------------------------------------------------------
      1        5           0.004233649   -0.002199014   -0.000836776
      2        9          -0.000592956   -0.000106257    0.000569106
      3        9          -0.000127485    0.000098975   -0.000463164
      4        9           0.000191378    0.000258667    0.000155771
      5        8          -0.006579611    0.002724039   -0.000584951
      6        6           0.000030844   -0.005513486   -0.000145627
      7        6           0.000432229    0.000769060   -0.000101834
      8        6           0.004382887    0.002940987    0.002002765
      9        6          -0.000353726    0.000462094   -0.000190862
     10        1           0.000272960    0.000717699   -0.000471811
     11        1           0.000106505    0.000945999    0.000334427
     12        1          -0.000359875    0.000395443    0.000074733
     13        1          -0.000028911   -0.000139322    0.000273572
     14        1          -0.000296056    0.000489888    0.000008827
     15        1          -0.000658147   -0.000015878   -0.000605845
     16        1          -0.000838238   -0.000669692   -0.000282148
     17        1          -0.000056680   -0.000555102    0.000042737
     18        1          -0.000099008   -0.000113764    0.000346316
     19        1           0.000340242   -0.000490335   -0.000125235
 -------------------------------------------------------------------
 Cartesian Forces:  Max     0.006579611 RMS     0.001591792

 GradGradGradGradGradGradGradGradGradGradGradGradGradGradGradGradGradGrad
 Berny optimization.
 Using GEDIIS/GDIIS optimizer.
 FormGI is forming the generalized inverse of G from B-inverse, IUseBI=4.
 Internal  Forces:  Max     0.004155745 RMS     0.000773681
 Search for a local minimum.
 Step number  10 out of a maximum of   97
 All quantities printed in internal units (Hartrees-Bohrs-Radians)
 Mixed Optimization -- En-DIIS/RFO-DIIS
 Swapping is turned off.
 Update second derivatives using D2CorX and points    8    9   10
 DE= -1.96D-04 DEPred=-7.13D-05 R= 2.74D+00
 TightC=F SS=  1.41D+00  RLast= 3.51D-01 DXNew= 1.4270D+00 1.0545D+00
 Trust test= 2.74D+00 RLast= 3.51D-01 DXMaxT set to 1.05D+00
 ITU=  1  1  1  1  1  1  1  1  1  0
     Eigenvalues ---    0.00093   0.00283   0.00346   0.01340   0.01441
     Eigenvalues ---    0.02500   0.04416   0.04604   0.05226   0.05323
     Eigenvalues ---    0.05438   0.05759   0.05806   0.05913   0.09636
     Eigenvalues ---    0.10316   0.12600   0.12843   0.13274   0.13499
     Eigenvalues ---    0.14358   0.16001   0.16003   0.16007   0.16073
     Eigenvalues ---    0.16152   0.16970   0.18964   0.20894   0.22896
     Eigenvalues ---    0.25024   0.25092   0.28043   0.28391   0.28558
     Eigenvalues ---    0.28646   0.29460   0.31742   0.31838   0.31939
     Eigenvalues ---    0.32021   0.32090   0.32131   0.32157   0.32186
     Eigenvalues ---    0.32264   0.34296   0.37860   0.39907   0.47773
     Eigenvalues ---    0.59729
 En-DIIS/RFO-DIIS/Sim-DIIS IScMMF=       -3 using points:    10    9    8    7    6
 RFO step:  Lambda=-2.78743942D-04.
 DIIS inversion failure, remove point   5.
 RFO-DIIS uses    4 points instead of    5
 DidBck=F Rises=F RFO-DIIS coefs:    1.37208   -2.00000    2.16383   -0.53591    0.00000
 Iteration  1 RMS(Cart)=  0.02628869 RMS(Int)=  0.00031989
 Iteration  2 RMS(Cart)=  0.00040779 RMS(Int)=  0.00001568
 Iteration  3 RMS(Cart)=  0.00000011 RMS(Int)=  0.00001568
 Variable       Old X    -DE/DX   Delta X   Delta X   Delta X     New X
                                 (Linear)    (Quad)   (Total)
    R1        2.59615  -0.00055   0.00099   0.00069   0.00168   2.59783
    R2        2.60756  -0.00038   0.00274  -0.00109   0.00164   2.60920
    R3        2.60112  -0.00035   0.00141   0.00100   0.00240   2.60353
    R4        3.17067  -0.00416  -0.01982  -0.00782  -0.02764   3.14303
    R5        2.74977   0.00228   0.00835  -0.00481   0.00354   2.75331
    R6        2.74903   0.00329   0.00813  -0.00362   0.00451   2.75354
    R7        2.86399  -0.00105  -0.00141  -0.00113  -0.00255   2.86144
    R8        2.07626  -0.00052  -0.00066  -0.00042  -0.00108   2.07518
    R9        2.06102  -0.00047  -0.00056   0.00015  -0.00041   2.06060
   R10        2.07498  -0.00034  -0.00022  -0.00020  -0.00043   2.07456
   R11        2.07291  -0.00028  -0.00019  -0.00004  -0.00023   2.07268
   R12        2.07331  -0.00016  -0.00090   0.00138   0.00048   2.07379
   R13        2.85850  -0.00070  -0.00115  -0.00070  -0.00185   2.85665
   R14        2.07510  -0.00039  -0.00064   0.00000  -0.00064   2.07447
   R15        2.06917  -0.00029  -0.00162   0.00187   0.00025   2.06942
   R16        2.07490  -0.00022  -0.00005  -0.00016  -0.00021   2.07469
   R17        2.07201  -0.00036  -0.00057   0.00035  -0.00022   2.07178
   R18        2.06826  -0.00058  -0.00087   0.00043  -0.00044   2.06782
    A1        2.00289  -0.00065  -0.00321  -0.00259  -0.00578   1.99711
    A2        1.97996  -0.00028  -0.00255   0.00000  -0.00254   1.97742
    A3        1.81285   0.00119   0.00611  -0.00049   0.00563   1.81848
    A4        1.99232  -0.00022  -0.00302   0.00053  -0.00249   1.98983
    A5        1.82188   0.00039   0.00380   0.00037   0.00419   1.82607
    A6        1.82588  -0.00011   0.00108   0.00274   0.00382   1.82970
    A7        2.03646   0.00025  -0.00651   0.01358   0.00704   2.04350
    A8        2.01748   0.00097   0.00325  -0.00088   0.00239   2.01987
    A9        1.95117  -0.00093   0.00239  -0.00296  -0.00059   1.95059
   A10        1.94225  -0.00139   0.00321  -0.01042  -0.00723   1.93503
   A11        1.88458   0.00000  -0.00351  -0.00005  -0.00355   1.88104
   A12        1.84695   0.00003  -0.00728   0.01113   0.00388   1.85083
   A13        1.96391   0.00048   0.00145  -0.00150  -0.00010   1.96381
   A14        1.92535   0.00099   0.00243   0.00427   0.00667   1.93202
   A15        1.89632  -0.00014   0.00309  -0.00265   0.00047   1.89679
   A16        1.89186  -0.00045  -0.00269   0.00354   0.00085   1.89271
   A17        1.92581   0.00014   0.00133  -0.00032   0.00102   1.92683
   A18        1.97301  -0.00050   0.00007  -0.00598  -0.00590   1.96711
   A19        1.89212   0.00012  -0.00127   0.00274   0.00146   1.89358
   A20        1.87559   0.00057   0.00043   0.00374   0.00417   1.87975
   A21        1.90321   0.00016   0.00195  -0.00321  -0.00125   1.90196
   A22        1.95946   0.00095   0.00187  -0.00290  -0.00103   1.95843
   A23        1.87909  -0.00066  -0.00381   0.00128  -0.00252   1.87657
   A24        1.85223  -0.00097  -0.00499   0.00144  -0.00354   1.84869
   A25        1.95113   0.00003   0.00140   0.00057   0.00196   1.95309
   A26        1.91722   0.00032   0.00145   0.00200   0.00344   1.92066
   A27        1.90116   0.00026   0.00380  -0.00241   0.00137   1.90253
   A28        1.87804  -0.00067  -0.00328   0.00186  -0.00141   1.87662
   A29        1.93769  -0.00006   0.00034  -0.00106  -0.00072   1.93697
   A30        1.95851  -0.00004   0.00097  -0.00250  -0.00153   1.95698
   A31        1.89437   0.00028   0.00004   0.00129   0.00133   1.89570
   A32        1.88917   0.00041   0.00122   0.00128   0.00250   1.89167
   A33        1.90428   0.00010   0.00064  -0.00065  -0.00000   1.90428
    D1       -2.58209  -0.00009  -0.01059   0.01327   0.00267  -2.57942
    D2        1.35292  -0.00003  -0.01077   0.00324  -0.00754   1.34538
    D3        1.59669  -0.00006  -0.01144   0.01623   0.00480   1.60148
    D4       -0.75149   0.00000  -0.01162   0.00620  -0.00541  -0.75690
    D5       -0.50165   0.00007  -0.01026   0.01423   0.00397  -0.49768
    D6       -2.84982   0.00013  -0.01043   0.00420  -0.00624  -2.85606
    D7        2.46453  -0.00024   0.04991  -0.07322  -0.02330   2.44123
    D8       -1.65514  -0.00055   0.05138  -0.08195  -0.03050  -1.68564
    D9        0.37285  -0.00069   0.04975  -0.07945  -0.02971   0.34313
   D10       -1.44174   0.00050   0.05069  -0.06302  -0.01235  -1.45410
   D11        0.72177   0.00020   0.05217  -0.07175  -0.01956   0.70222
   D12        2.74976   0.00006   0.05053  -0.06925  -0.01877   2.73099
   D13       -0.99729  -0.00005   0.01366  -0.03471  -0.02104  -1.01833
   D14        1.15756   0.00014   0.01395  -0.03498  -0.02100   1.13655
   D15       -3.09204  -0.00036   0.01402  -0.03643  -0.02239  -3.11443
   D16        2.90013  -0.00047   0.01756  -0.05157  -0.03402   2.86611
   D17       -1.22821  -0.00027   0.01786  -0.05183  -0.03398  -1.26220
   D18        0.80537  -0.00077   0.01793  -0.05328  -0.03537   0.77000
   D19       -3.05725  -0.00017   0.01804  -0.04581  -0.02777  -3.08503
   D20       -0.98779  -0.00022   0.01565  -0.04054  -0.02488  -1.01268
   D21        1.14859  -0.00027   0.01928  -0.04918  -0.02991   1.11869
   D22        1.10811   0.00049   0.01920  -0.03716  -0.01795   1.09015
   D23       -3.10562   0.00044   0.01681  -0.03189  -0.01506  -3.12068
   D24       -0.96923   0.00039   0.02044  -0.04053  -0.02009  -0.98932
   D25       -1.01270  -0.00037   0.01252  -0.03577  -0.02327  -1.03597
   D26        1.05675  -0.00042   0.01013  -0.03050  -0.02038   1.03638
   D27       -3.09004  -0.00047   0.01376  -0.03914  -0.02541  -3.11545
   D28       -3.01725   0.00015   0.00127   0.00211   0.00338  -3.01386
   D29       -0.94659   0.00004  -0.00049   0.00421   0.00372  -0.94287
   D30        1.18958   0.00010   0.00130   0.00081   0.00211   1.19169
   D31        1.15199   0.00030   0.00386   0.00211   0.00597   1.15796
   D32       -3.06055   0.00020   0.00210   0.00421   0.00632  -3.05423
   D33       -0.92438   0.00026   0.00389   0.00081   0.00470  -0.91967
   D34       -0.96068  -0.00026  -0.00284   0.00341   0.00056  -0.96012
   D35        1.10997  -0.00037  -0.00460   0.00551   0.00090   1.11088
   D36       -3.03704  -0.00031  -0.00281   0.00211  -0.00071  -3.03775
         Item               Value     Threshold  Converged?
 Maximum Force            0.004156     0.000450     NO 
 RMS     Force            0.000774     0.000300     NO 
 Maximum Displacement     0.091668     0.001800     NO 
 RMS     Displacement     0.026373     0.001200     NO 
 Predicted change in Energy=-6.572560D-05
 GradGradGradGradGradGradGradGradGradGradGradGradGradGradGradGradGradGrad

                          Input orientation:                          
 ---------------------------------------------------------------------
 Center     Atomic      Atomic             Coordinates (Angstroms)
 Number     Number       Type             X           Y           Z
 ---------------------------------------------------------------------
      1          5           0       -1.819753    0.717009   -0.171460
      2          9           0       -1.625978    1.712980   -1.099001
      3          9           0       -2.052703    1.169554    1.112030
      4          9           0       -2.701029   -0.255037   -0.591713
      5          8           0       -0.347386   -0.051727   -0.084982
      6          6           0       -0.360975   -1.481490    0.195044
      7          6           0        0.676074   -2.204295   -0.638569
      8          6           0        0.682774    0.638779    0.679966
      9          6           0        0.968712    2.020085    0.136461
     10          1           0       -0.200271   -1.613467    1.273314
     11          1           0       -1.364684   -1.827723   -0.053382
     12          1           0        0.592269   -3.280797   -0.440321
     13          1           0        0.495696   -2.032147   -1.706663
     14          1           0        1.702000   -1.899253   -0.396251
     15          1           0        0.351889    0.670758    1.726182
     16          1           0        1.579453    0.014221    0.608421
     17          1           0        1.837660    2.415327    0.678730
     18          1           0        1.211854    1.979020   -0.931788
     19          1           0        0.127939    2.704182    0.286398
 ---------------------------------------------------------------------
                    Distance matrix (angstroms):
                    1          2          3          4          5
     1  B    0.000000
     2  F    1.374714   0.000000
     3  F    1.380728   2.316477   0.000000
     4  F    1.377727   2.299167   2.313553   0.000000
     5  O    1.663219   2.403585   2.415051   2.416143   0.000000
     6  C    2.663786   3.671434   3.275797   2.756634   1.456991
     7  C    3.870576   4.566890   4.679068   3.899568   2.446932
     8  C    2.644559   3.106279   2.819794   3.723734   1.457112
     9  C    3.093277   2.890172   3.286957   4.378746   2.464459
    10  H    3.184527   4.327328   3.347047   3.402565   2.075005
    11  H    2.587797   3.701105   3.288651   2.132830   2.046963
    12  H    4.676814   5.503843   5.404748   4.474814   3.381732
    13  H    3.908453   4.347037   4.968929   3.823648   2.694940
    14  H    4.392961   4.961605   5.078414   4.704075   2.776729
    15  H    2.884305   3.602755   2.531411   3.943354   2.071542
    16  H    3.557630   4.009471   3.844604   4.453689   2.048870
    17  H    4.121138   3.956059   4.107874   5.417063   3.382904
    18  H    3.370669   2.855175   3.935703   4.518552   2.696709
    19  H    2.819929   2.445002   2.791407   4.187018   2.821151
                    6          7          8          9         10
     6  C    0.000000
     7  C    1.514209   0.000000
     8  C    2.412489   3.133950   0.000000
     9  C    3.746002   4.304846   1.511676   0.000000
    10  H    1.098139   2.184572   2.490872   3.982669   0.000000
    11  H    1.090424   2.156141   3.288391   4.504043   1.778169
    12  H    2.133042   1.097808   4.077537   5.345441   2.518860
    13  H    2.157220   1.096813   3.586759   4.476766   3.088678
    14  H    2.186326   1.097402   2.939162   4.022774   2.547108
    15  H    2.735823   3.736719   1.097760   2.174481   2.393251
    16  H    2.484611   2.700535   1.095091   2.149243   2.501773
    17  H    4.500348   4.942212   2.118935   1.097881   4.553885
    18  H    3.964678   4.227666   2.161925   1.096340   4.445507
    19  H    4.215120   5.024854   2.174541   1.094243   4.441151
                   11         12         13         14         15
    11  H    0.000000
    12  H    2.467957   0.000000
    13  H    2.497227   1.781033   0.000000
    14  H    3.086620   1.772599   1.786060   0.000000
    15  H    3.515093   4.512904   4.371590   3.596176   0.000000
    16  H    3.535348   3.596045   3.274411   2.164664   1.785314
    17  H    5.366048   5.937096   5.222164   4.448550   2.519562
    18  H    4.679897   5.318938   4.147622   3.945636   3.084785
    19  H    4.783465   6.046793   5.151733   4.912769   2.501589
                   16         17         18         19
    16  H    0.000000
    17  H    2.415973   0.000000
    18  H    2.523452   1.782068   0.000000
    19  H    3.073513   1.777782   1.784575   0.000000
 Stoichiometry    C4H10BF3O
 Framework group  C1[X(C4H10BF3O)]
 Deg. of freedom    51
 Full point group                 C1      NOp   1
 Largest Abelian subgroup         C1      NOp   1
 Largest concise Abelian subgroup C1      NOp   1
                         Standard orientation:                         
 ---------------------------------------------------------------------
 Center     Atomic      Atomic             Coordinates (Angstroms)
 Number     Number       Type             X           Y           Z
 ---------------------------------------------------------------------
      1          5           0       -1.032898   -0.668761   -0.042866
      2          9           0       -1.699305   -0.126506   -1.116040
      3          9           0       -1.587426   -0.367349    1.185165
      4          9           0       -0.727683   -2.002059   -0.208065
      5          8           0        0.437916    0.107770   -0.041507
      6          6           0        1.588086   -0.650745    0.432399
      7          6           0        2.807663   -0.370190   -0.420096
      8          6           0        0.434797    1.467646    0.481851
      9          6           0       -0.508915    2.370640   -0.279185
     10          1           0        1.745698   -0.395686    1.488814
     11          1           0        1.304499   -1.701514    0.365408
     12          1           0        3.631892   -1.003095   -0.066174
     13          1           0        2.605502   -0.616824   -1.469525
     14          1           0        3.137932    0.674387   -0.356285
     15          1           0        0.177266    1.411032    1.547473
     16          1           0        1.463312    1.830224    0.382265
     17          1           0       -0.354411    3.394068    0.086965
     18          1           0       -0.293481    2.347177   -1.353894
     19          1           0       -1.557098    2.100998   -0.118023
 ---------------------------------------------------------------------
 Rotational constants (GHZ):           1.7895554           1.3840861           0.9894960
 Standard basis: Aug-CC-pVDZ (5D, 7F)
 There are   315 symmetry adapted cartesian basis functions of A   symmetry.
 There are   297 symmetry adapted basis functions of A   symmetry.
   297 basis functions,   497 primitive gaussians,   315 cartesian basis functions
    37 alpha electrons       37 beta electrons
       nuclear repulsion energy       523.2153320204 Hartrees.
 NAtoms=   19 NActive=   19 NUniq=   19 SFac= 1.00D+00 NAtFMM=   60 NAOKFM=F Big=F
 Integral buffers will be    131072 words long.
 Raffenetti 2 integral format.
 Two-electron integral symmetry is turned on.
 Nuclear repulsion after empirical dispersion term =      523.2033294540 Hartrees.
 Force PCM accuracy= 1.00D-12.
 ------------------------------------------------------------------------------
 Polarizable Continuum Model (PCM)
 =================================
 Model                : C-PCM.
 Atomic radii         : UFF (Universal Force Field).
 Polarization charges : Total charges.
 Charge compensation  : None.
 Solution method      : On-the-fly selection.
 Cavity type          : Scaled VdW (van der Waals Surface) (Alpha=1.100).
 Cavity algorithm     : GePol (No added spheres)
                        Default sphere list used, NSphG=   19.
                        Lebedev-Laikov grids with approx.  5.0 points / Ang**2.
                        Smoothing algorithm: York/Karplus (Gamma=1.0000).
                        Polarization charges: spherical gaussians, with
                                              point-specific exponents (IZeta= 3).
                        Self-potential: point-specific (ISelfS= 7).
                        Self-field    : sphere-specific E.n sum rule (ISelfD= 2).
 1st derivatives      : Analytical E(r).r(x)/FMM algorithm (CHGder, D1EAlg=3).
                        Cavity 1st derivative terms included.
 Solvent              : Benzene, Eps=   2.270600 Eps(inf)=   2.253301
 ------------------------------------------------------------------------------
 Spheres list:
 ISph  on   Nord     Re0    Alpha      Xe            Ye            Ze
    1   B      1    2.0415  1.100     -1.032898     -0.668761     -0.042866
    2   F      2    1.6820  1.100     -1.699305     -0.126506     -1.116040
    3   F      3    1.6820  1.100     -1.587426     -0.367349      1.185165
    4   F      4    1.6820  1.100     -0.727683     -2.002059     -0.208065
    5   O      5    1.7500  1.100      0.437916      0.107770     -0.041507
    6   C      6    1.9255  1.100      1.588086     -0.650745      0.432399
    7   C      7    1.9255  1.100      2.807663     -0.370190     -0.420096
    8   C      8    1.9255  1.100      0.434797      1.467646      0.481851
    9   C      9    1.9255  1.100     -0.508915      2.370640     -0.279185
   10   H     10    1.4430  1.100      1.745698     -0.395686      1.488814
   11   H     11    1.4430  1.100      1.304499     -1.701514      0.365408
   12   H     12    1.4430  1.100      3.631892     -1.003095     -0.066174
   13   H     13    1.4430  1.100      2.605502     -0.616824     -1.469525
   14   H     14    1.4430  1.100      3.137932      0.674387     -0.356285
   15   H     15    1.4430  1.100      0.177266      1.411032      1.547473
   16   H     16    1.4430  1.100      1.463312      1.830224      0.382265
   17   H     17    1.4430  1.100     -0.354411      3.394068      0.086965
   18   H     18    1.4430  1.100     -0.293481      2.347177     -1.353894
   19   H     19    1.4430  1.100     -1.557098      2.100998     -0.118023
 ------------------------------------------------------------------------------
 One-electron integrals computed using PRISM.
 NBasis=   297 RedAO= T EigKep=  2.60D-05  NBF=   297
 NBsUse=   297 1.00D-06 EigRej= -1.00D+00 NBFU=   297
 Initial guess from the checkpoint file:  "/inspire/hdd/project/materialscienceresearch/lipenghui-253107030018/g16/00-B-DFT-Shift/04-output/BF3OEt2_C6D6/BF3OEt2_C6D6.chk"
 B after Tr=     0.000000    0.000000   -0.000000
         Rot=    0.999993   -0.000875    0.001161    0.003345 Ang=  -0.42 deg.
 ExpMin= 2.38D-02 ExpMax= 1.47D+04 ExpMxC= 5.03D+02 IAcc=3 IRadAn=         5 AccDes= 0.00D+00
 Harris functional with IExCor= 4639 and IRadAn=       5 diagonalized for initial guess.
 HarFok:  IExCor= 4639 AccDes= 0.00D+00 IRadAn=         5 IDoV= 1 UseB2=F ITyADJ=14
 ICtDFT=  3500011 ScaDFX=  1.000000  1.000000  1.000000  1.000000
 FoFCou: FMM=F IPFlag=           0 FMFlag=      100000 FMFlg1=           0
         NFxFlg=           0 DoJE=T BraDBF=F KetDBF=T FulRan=T
         wScrn=  0.000000 ICntrl=       500 IOpCl=  0 I1Cent=   200000004 NGrid=           0
         NMat0=    1 NMatS0=      1 NMatT0=    0 NMatD0=    1 NMtDS0=    0 NMtDT0=    0
 Petite list used in FoFCou.
 Requested convergence on RMS density matrix=1.00D-08 within 128 cycles.
 Requested convergence on MAX density matrix=1.00D-06.
 Requested convergence on             energy=1.00D-06.
 No special actions if energy rises.
 Inv3:  Mode=1 IEnd=     6849363.
 Iteration    1 A*A^-1 deviation from unit magnitude is 5.11D-15 for   1476.
 Iteration    1 A*A^-1 deviation from orthogonality  is 3.05D-15 for   1501   1253.
 Iteration    1 A^-1*A deviation from unit magnitude is 4.88D-15 for   1476.
 Iteration    1 A^-1*A deviation from orthogonality  is 3.16D-15 for   1509    884.
 Error on total polarization charges =  0.00641
 SCF Done:  E(RwB97XD) =  -558.145570862     A.U. after   10 cycles
            NFock= 10  Conv=0.57D-08     -V/T= 2.0060
 D1PCM: C-PCM CHGder 1st derivatives, ID1Alg=3 FixD1E=F DoIter=F DoCFld=F I1PDM=0.
 Calling FoFJK, ICntrl=      2127 FMM=F ISym2X=0 I1Cent= 0 IOpClX= 0 NMat=1 NMatS=1 NMatT=0.
 ***** Axes restored to original set *****
 -------------------------------------------------------------------
 Center     Atomic                   Forces (Hartrees/Bohr)
 Number     Number              X              Y              Z
 -------------------------------------------------------------------
      1        5           0.003026792   -0.001780318   -0.000768226
      2        9          -0.000386650    0.000032709    0.000158613
      3        9          -0.000194643    0.000128799    0.000050868
      4        9           0.000288088    0.000096910    0.000132416
      5        8          -0.005405794    0.002160115   -0.000527977
      6        6           0.000361298   -0.004317854    0.000133794
      7        6           0.000407341    0.000600388   -0.000268603
      8        6           0.003637589    0.001995714    0.001748927
      9        6          -0.000321839    0.000382961   -0.000207506
     10        1           0.000161459    0.000526574   -0.000212678
     11        1          -0.000000234    0.001027524    0.000066469
     12        1          -0.000126550    0.000242302    0.000033858
     13        1          -0.000068537   -0.000137530    0.000254270
     14        1          -0.000300068   -0.000044803   -0.000094680
     15        1          -0.000531035   -0.000031257   -0.000494860
     16        1          -0.000835055   -0.000253519   -0.000203611
     17        1          -0.000059730   -0.000308606    0.000004085
     18        1          -0.000009809   -0.000048092    0.000279481
     19        1           0.000357377   -0.000272018   -0.000084641
 -------------------------------------------------------------------
 Cartesian Forces:  Max     0.005405794 RMS     0.001262011

 GradGradGradGradGradGradGradGradGradGradGradGradGradGradGradGradGradGrad
 Berny optimization.
 Using GEDIIS/GDIIS optimizer.
 FormGI is forming the generalized inverse of G from B-inverse, IUseBI=4.
 Internal  Forces:  Max     0.003100808 RMS     0.000588261
 Search for a local minimum.
 Step number  11 out of a maximum of   97
 All quantities printed in internal units (Hartrees-Bohrs-Radians)
 Mixed Optimization -- En-DIIS/RFO-DIIS
 Swapping is turned off.
 Update second derivatives using D2CorX and points    9   10   11
 DE= -2.62D-04 DEPred=-6.57D-05 R= 3.99D+00
 TightC=F SS=  1.41D+00  RLast= 1.21D-01 DXNew= 1.7734D+00 3.6188D-01
 Trust test= 3.99D+00 RLast= 1.21D-01 DXMaxT set to 1.05D+00
 ITU=  1  1  1  1  1  1  1  1  1  1  0
     Eigenvalues ---    0.00083   0.00283   0.00340   0.01118   0.01432
     Eigenvalues ---    0.02346   0.04478   0.04780   0.05170   0.05329
     Eigenvalues ---    0.05426   0.05602   0.05774   0.05839   0.06628
     Eigenvalues ---    0.09705   0.10425   0.12807   0.12905   0.13278
     Eigenvalues ---    0.13549   0.16001   0.16003   0.16010   0.16036
     Eigenvalues ---    0.16355   0.16464   0.19833   0.20939   0.23658
     Eigenvalues ---    0.24591   0.25128   0.25270   0.28407   0.28515
     Eigenvalues ---    0.28660   0.29337   0.31825   0.31861   0.31968
     Eigenvalues ---    0.31996   0.32096   0.32154   0.32164   0.32188
     Eigenvalues ---    0.32364   0.32954   0.37772   0.40627   0.44142
     Eigenvalues ---    0.48594
 En-DIIS/RFO-DIIS/Sim-DIIS IScMMF=       -3 using points:    11   10    9    8    7    6
 RFO step:  Lambda=-7.34837681D-04.
 DIIS inversion failure, remove point   6.
 RFO-DIIS uses    5 points instead of    6
 DidBck=T Rises=F RFO-DIIS coefs:    0.24814    0.67952   -2.00000    2.92149   -0.84915
                  RFO-DIIS coefs:    0.00000
 Iteration  1 RMS(Cart)=  0.02104308 RMS(Int)=  0.00018185
 Iteration  2 RMS(Cart)=  0.00023021 RMS(Int)=  0.00005647
 Iteration  3 RMS(Cart)=  0.00000003 RMS(Int)=  0.00005647
 Variable       Old X    -DE/DX   Delta X   Delta X   Delta X     New X
                                 (Linear)    (Quad)   (Total)
    R1        2.59783  -0.00014   0.00023   0.00563   0.00586   2.60369
    R2        2.60920   0.00012   0.00305   0.00480   0.00785   2.61705
    R3        2.60353  -0.00029   0.00075   0.00486   0.00561   2.60914
    R4        3.14303  -0.00310  -0.00850  -0.05652  -0.06502   3.07801
    R5        2.75331   0.00204   0.01031   0.00351   0.01382   2.76713
    R6        2.75354   0.00282   0.00870   0.00763   0.01632   2.76986
    R7        2.86144  -0.00033   0.00032  -0.00280  -0.00248   2.85896
    R8        2.07518  -0.00025   0.00008  -0.00144  -0.00136   2.07382
    R9        2.06060  -0.00034  -0.00098  -0.00060  -0.00158   2.05902
   R10        2.07456  -0.00022  -0.00010  -0.00079  -0.00090   2.07366
   R11        2.07268  -0.00026  -0.00006  -0.00077  -0.00083   2.07184
   R12        2.07379  -0.00031  -0.00197   0.00087  -0.00111   2.07268
   R13        2.85665  -0.00023  -0.00025  -0.00181  -0.00206   2.85459
   R14        2.07447  -0.00031  -0.00035  -0.00126  -0.00161   2.07285
   R15        2.06942  -0.00053  -0.00306   0.00038  -0.00268   2.06674
   R16        2.07469  -0.00016   0.00010  -0.00043  -0.00033   2.07437
   R17        2.07178  -0.00027  -0.00079  -0.00018  -0.00097   2.07081
   R18        2.06782  -0.00046  -0.00093  -0.00080  -0.00173   2.06609
    A1        1.99711  -0.00034  -0.00005  -0.01014  -0.01029   1.98682
    A2        1.97742  -0.00013  -0.00280  -0.00452  -0.00740   1.97003
    A3        1.81848   0.00084   0.00513   0.01005   0.01510   1.83358
    A4        1.98983  -0.00010  -0.00316  -0.00396  -0.00718   1.98265
    A5        1.82607   0.00035   0.00229   0.00811   0.01033   1.83640
    A6        1.82970  -0.00047   0.00012   0.00515   0.00522   1.83491
    A7        2.04350  -0.00021  -0.01952   0.02130   0.00171   2.04521
    A8        2.01987   0.00080   0.00295   0.00648   0.00956   2.02943
    A9        1.95059  -0.00038   0.00312  -0.00252   0.00068   1.95127
   A10        1.93503  -0.00026   0.01315  -0.01734  -0.00415   1.93087
   A11        1.88104  -0.00018  -0.00219  -0.00371  -0.00579   1.87525
   A12        1.85083  -0.00052  -0.01644   0.00451  -0.01193   1.83890
   A13        1.96381   0.00031   0.00207   0.00395   0.00599   1.96980
   A14        1.93202   0.00054  -0.00244   0.01223   0.00961   1.94164
   A15        1.89679   0.00004   0.00471   0.00023   0.00481   1.90160
   A16        1.89271  -0.00024  -0.00622   0.00429  -0.00194   1.89077
   A17        1.92683  -0.00002   0.00147   0.00007   0.00159   1.92842
   A18        1.96711   0.00006   0.00709  -0.00942  -0.00231   1.96480
   A19        1.89358   0.00005  -0.00385   0.00336  -0.00048   1.89310
   A20        1.87975   0.00012  -0.00417   0.00642   0.00222   1.88197
   A21        1.90196   0.00004   0.00493  -0.00405   0.00095   1.90291
   A22        1.95843   0.00081   0.00415  -0.00148   0.00269   1.96111
   A23        1.87657  -0.00059  -0.00371  -0.00537  -0.00909   1.86748
   A24        1.84869  -0.00069  -0.00421  -0.00574  -0.00996   1.83873
   A25        1.95309   0.00005  -0.00002   0.00467   0.00462   1.95771
   A26        1.92066   0.00012  -0.00137   0.00639   0.00499   1.92565
   A27        1.90253   0.00023   0.00510   0.00081   0.00578   1.90831
   A28        1.87662  -0.00039  -0.00405  -0.00062  -0.00467   1.87195
   A29        1.93697  -0.00004   0.00173  -0.00193  -0.00019   1.93678
   A30        1.95698   0.00013   0.00269  -0.00229   0.00041   1.95739
   A31        1.89570   0.00012  -0.00152   0.00178   0.00025   1.89595
   A32        1.89167   0.00016  -0.00091   0.00357   0.00266   1.89432
   A33        1.90428   0.00002   0.00176  -0.00024   0.00153   1.90581
    D1       -2.57942   0.00011  -0.02320   0.02237  -0.00085  -2.58026
    D2        1.34538   0.00001  -0.00905  -0.00681  -0.01581   1.32957
    D3        1.60148  -0.00004  -0.02648   0.02562  -0.00092   1.60056
    D4       -0.75690  -0.00014  -0.01233  -0.00356  -0.01589  -0.77279
    D5       -0.49768   0.00013  -0.02401   0.02402  -0.00001  -0.49768
    D6       -2.85606   0.00003  -0.00986  -0.00516  -0.01497  -2.87103
    D7        2.44123  -0.00046   0.12979  -0.13053  -0.00062   2.44061
    D8       -1.68564  -0.00036   0.13940  -0.13914   0.00034  -1.68530
    D9        0.34313  -0.00066   0.13567  -0.13840  -0.00271   0.34042
   D10       -1.45410   0.00013   0.11666  -0.09914   0.01749  -1.43661
   D11        0.70222   0.00023   0.12627  -0.10776   0.01845   0.72067
   D12        2.73099  -0.00006   0.12254  -0.10701   0.01540   2.74639
   D13       -1.01833  -0.00017   0.05577  -0.07334  -0.01748  -1.03581
   D14        1.13655   0.00001   0.05582  -0.07217  -0.01629   1.12027
   D15       -3.11443  -0.00035   0.05779  -0.07664  -0.01873  -3.13317
   D16        2.86611  -0.00030   0.07943  -0.11118  -0.03184   2.83427
   D17       -1.26220  -0.00012   0.07948  -0.11001  -0.03064  -1.29284
   D18        0.77000  -0.00048   0.08145  -0.11448  -0.03309   0.73691
   D19       -3.08503   0.00009   0.07393  -0.06024   0.01369  -3.07133
   D20       -1.01268  -0.00001   0.06637  -0.05351   0.01287  -0.99981
   D21        1.11869   0.00007   0.07896  -0.06529   0.01363   1.13232
   D22        1.09015   0.00029   0.06578  -0.04590   0.01995   1.11010
   D23       -3.12068   0.00019   0.05821  -0.03917   0.01913  -3.10156
   D24       -0.98932   0.00027   0.07081  -0.05096   0.01989  -0.96943
   D25       -1.03597  -0.00037   0.06015  -0.05781   0.00231  -1.03367
   D26        1.03638  -0.00047   0.05259  -0.05107   0.00148   1.03786
   D27       -3.11545  -0.00039   0.06518  -0.06286   0.00224  -3.11320
   D28       -3.01386   0.00009  -0.00011   0.00468   0.00456  -3.00930
   D29       -0.94287  -0.00002  -0.00345   0.00536   0.00192  -0.94095
   D30        1.19169   0.00007   0.00203   0.00203   0.00405   1.19574
   D31        1.15796   0.00023   0.00175   0.00934   0.01111   1.16907
   D32       -3.05423   0.00012  -0.00159   0.01002   0.00846  -3.04577
   D33       -0.91967   0.00021   0.00389   0.00669   0.01060  -0.90907
   D34       -0.96012  -0.00018  -0.00366   0.00075  -0.00294  -0.96306
   D35        1.11088  -0.00029  -0.00700   0.00143  -0.00558   1.10529
   D36       -3.03775  -0.00020  -0.00152  -0.00190  -0.00345  -3.04120
         Item               Value     Threshold  Converged?
 Maximum Force            0.003101     0.000450     NO 
 RMS     Force            0.000588     0.000300     NO 
 Maximum Displacement     0.063464     0.001800     NO 
 RMS     Displacement     0.021043     0.001200     NO 
 Predicted change in Energy=-2.071154D-04
 GradGradGradGradGradGradGradGradGradGradGradGradGradGradGradGradGradGrad

                          Input orientation:                          
 ---------------------------------------------------------------------
 Center     Atomic      Atomic             Coordinates (Angstroms)
 Number     Number       Type             X           Y           Z
 ---------------------------------------------------------------------
      1          5           0       -1.811180    0.697301   -0.161695
      2          9           0       -1.637963    1.709651   -1.080127
      3          9           0       -2.067232    1.145326    1.123457
      4          9           0       -2.691506   -0.274592   -0.593872
      5          8           0       -0.365058   -0.047151   -0.074782
      6          6           0       -0.368699   -1.486080    0.196603
      7          6           0        0.678153   -2.188879   -0.639477
      8          6           0        0.677769    0.647557    0.685684
      9          6           0        0.983384    2.016172    0.124119
     10          1           0       -0.212243   -1.617906    1.274785
     11          1           0       -1.371854   -1.825580   -0.059553
     12          1           0        0.594377   -3.268434   -0.461483
     13          1           0        0.508892   -1.998563   -1.705854
     14          1           0        1.699110   -1.883881   -0.379425
     15          1           0        0.337731    0.694136    1.727514
     16          1           0        1.560133    0.004607    0.621109
     17          1           0        1.858838    2.401152    0.662947
     18          1           0        1.227072    1.956897   -0.942624
     19          1           0        0.153816    2.714248    0.265089
 ---------------------------------------------------------------------
                    Distance matrix (angstroms):
                    1          2          3          4          5
     1  B    0.000000
     2  F    1.377814   0.000000
     3  F    1.384885   2.314847   0.000000
     4  F    1.380698   2.298612   2.314110   0.000000
     5  O    1.628813   2.391099   2.398994   2.394482   0.000000
     6  C    2.641266   3.667938   3.266248   2.736419   1.464302
     7  C    3.841236   4.555996   4.664976   3.875717   2.448300
     8  C    2.629714   3.099798   2.823907   3.720167   1.465748
     9  C    3.103337   2.900969   3.326155   4.389525   2.472885
    10  H    3.159155   4.318671   3.331567   3.382768   2.076525
    11  H    2.562883   3.689206   3.272514   2.105360   2.043693
    12  H    4.647971   5.490664   5.392354   4.447207   3.383301
    13  H    3.877479   4.330285   4.952318   3.801464   2.689274
    14  H    4.362573   4.953838   5.061629   4.681166   2.779780
    15  H    2.861284   3.580152   2.520378   3.937455   2.071640
    16  H    3.529640   4.003648   3.835541   4.430640   2.047756
    17  H    4.129428   3.967883   4.147673   5.426309   3.388826
    18  H    3.380444   2.878969   3.972376   4.522878   2.702635
    19  H    2.848057   2.455462   2.851555   4.215073   2.830206
                    6          7          8          9         10
     6  C    0.000000
     7  C    1.512896   0.000000
     8  C    2.426253   3.130723   0.000000
     9  C    3.754884   4.284706   1.510584   0.000000
    10  H    1.097421   2.187056   2.504293   3.995007   0.000000
    11  H    1.089586   2.161210   3.297384   4.509983   1.779967
    12  H    2.130112   1.097333   4.081414   5.331165   2.527747
    13  H    2.156884   1.096372   3.570704   4.437572   3.090169
    14  H    2.183091   1.096815   2.930149   3.997029   2.541737
    15  H    2.756098   3.745706   1.096907   2.176126   2.419292
    16  H    2.474419   2.679244   1.093673   2.150821   2.490213
    17  H    4.504439   4.915151   2.114364   1.097709   4.562516
    18  H    3.962122   4.192931   2.160437   1.095827   4.446093
    19  H    4.233258   5.013365   2.173164   1.093328   4.463300
                   11         12         13         14         15
    11  H    0.000000
    12  H    2.471728   0.000000
    13  H    2.505481   1.779983   0.000000
    14  H    3.088129   1.773177   1.785829   0.000000
    15  H    3.530618   4.534263   4.366686   3.597043   0.000000
    16  H    3.522703   3.580152   3.245390   2.141675   1.787135
    17  H    5.368859   5.916706   5.176009   4.412886   2.522097
    18  H    4.673474   5.285441   4.091939   3.910446   3.084660
    19  H    4.800323   6.042722   5.120673   4.893478   2.500673
                   16         17         18         19
    16  H    0.000000
    17  H    2.415450   0.000000
    18  H    2.523415   1.781670   0.000000
    19  H    3.073538   1.778601   1.784385   0.000000
 Stoichiometry    C4H10BF3O
 Framework group  C1[X(C4H10BF3O)]
 Deg. of freedom    51
 Full point group                 C1      NOp   1
 Largest Abelian subgroup         C1      NOp   1
 Largest concise Abelian subgroup C1      NOp   1
                         Standard orientation:                         
 ---------------------------------------------------------------------
 Center     Atomic      Atomic             Coordinates (Angstroms)
 Number     Number       Type             X           Y           Z
 ---------------------------------------------------------------------
      1          5           0       -1.019120   -0.659058   -0.045071
      2          9           0       -1.703107   -0.110046   -1.107672
      3          9           0       -1.585742   -0.382876    1.188043
      4          9           0       -0.722346   -1.994702   -0.230291
      5          8           0        0.422440    0.099086   -0.032651
      6          6           0        1.578732   -0.670025    0.431719
      7          6           0        2.793060   -0.373947   -0.420690
      8          6           0        0.431677    1.467061    0.493633
      9          6           0       -0.479927    2.387808   -0.282941
     10          1           0        1.731743   -0.426837    1.490860
     11          1           0        1.282718   -1.715265    0.347788
     12          1           0        3.614560   -1.020765   -0.087670
     13          1           0        2.584569   -0.592234   -1.474688
     14          1           0        3.127299    0.666788   -0.330358
     15          1           0        0.152779    1.405109    1.552681
     16          1           0        1.469582    1.801902    0.411438
     17          1           0       -0.306869    3.406300    0.088123
     18          1           0       -0.245634    2.360583   -1.353083
     19          1           0       -1.535169    2.140262   -0.139579
 ---------------------------------------------------------------------
 Rotational constants (GHZ):           1.7824336           1.3940226           0.9929520
 Standard basis: Aug-CC-pVDZ (5D, 7F)
 There are   315 symmetry adapted cartesian basis functions of A   symmetry.
 There are   297 symmetry adapted basis functions of A   symmetry.
   297 basis functions,   497 primitive gaussians,   315 cartesian basis functions
    37 alpha electrons       37 beta electrons
       nuclear repulsion energy       523.7000975809 Hartrees.
 NAtoms=   19 NActive=   19 NUniq=   19 SFac= 1.00D+00 NAtFMM=   60 NAOKFM=F Big=F
 Integral buffers will be    131072 words long.
 Raffenetti 2 integral format.
 Two-electron integral symmetry is turned on.
 Nuclear repulsion after empirical dispersion term =      523.6881003692 Hartrees.
 Force PCM accuracy= 1.00D-12.
 ------------------------------------------------------------------------------
 Polarizable Continuum Model (PCM)
 =================================
 Model                : C-PCM.
 Atomic radii         : UFF (Universal Force Field).
 Polarization charges : Total charges.
 Charge compensation  : None.
 Solution method      : On-the-fly selection.
 Cavity type          : Scaled VdW (van der Waals Surface) (Alpha=1.100).
 Cavity algorithm     : GePol (No added spheres)
                        Default sphere list used, NSphG=   19.
                        Lebedev-Laikov grids with approx.  5.0 points / Ang**2.
                        Smoothing algorithm: York/Karplus (Gamma=1.0000).
                        Polarization charges: spherical gaussians, with
                                              point-specific exponents (IZeta= 3).
                        Self-potential: point-specific (ISelfS= 7).
                        Self-field    : sphere-specific E.n sum rule (ISelfD= 2).
 1st derivatives      : Analytical E(r).r(x)/FMM algorithm (CHGder, D1EAlg=3).
                        Cavity 1st derivative terms included.
 Solvent              : Benzene, Eps=   2.270600 Eps(inf)=   2.253301
 ------------------------------------------------------------------------------
 Spheres list:
 ISph  on   Nord     Re0    Alpha      Xe            Ye            Ze
    1   B      1    2.0415  1.100     -1.019120     -0.659058     -0.045071
    2   F      2    1.6820  1.100     -1.703107     -0.110046     -1.107672
    3   F      3    1.6820  1.100     -1.585742     -0.382876      1.188043
    4   F      4    1.6820  1.100     -0.722346     -1.994702     -0.230291
    5   O      5    1.7500  1.100      0.422440      0.099086     -0.032651
    6   C      6    1.9255  1.100      1.578732     -0.670025      0.431719
    7   C      7    1.9255  1.100      2.793060     -0.373947     -0.420690
    8   C      8    1.9255  1.100      0.431677      1.467061      0.493633
    9   C      9    1.9255  1.100     -0.479927      2.387808     -0.282941
   10   H     10    1.4430  1.100      1.731743     -0.426837      1.490860
   11   H     11    1.4430  1.100      1.282718     -1.715265      0.347788
   12   H     12    1.4430  1.100      3.614560     -1.020765     -0.087670
   13   H     13    1.4430  1.100      2.584569     -0.592234     -1.474688
   14   H     14    1.4430  1.100      3.127299      0.666788     -0.330358
   15   H     15    1.4430  1.100      0.152779      1.405109      1.552681
   16   H     16    1.4430  1.100      1.469582      1.801902      0.411438
   17   H     17    1.4430  1.100     -0.306869      3.406300      0.088123
   18   H     18    1.4430  1.100     -0.245634      2.360583     -1.353083
   19   H     19    1.4430  1.100     -1.535169      2.140262     -0.139579
 ------------------------------------------------------------------------------
 One-electron integrals computed using PRISM.
 NBasis=   297 RedAO= T EigKep=  2.59D-05  NBF=   297
 NBsUse=   297 1.00D-06 EigRej= -1.00D+00 NBFU=   297
 Initial guess from the checkpoint file:  "/inspire/hdd/project/materialscienceresearch/lipenghui-253107030018/g16/00-B-DFT-Shift/04-output/BF3OEt2_C6D6/BF3OEt2_C6D6.chk"
 B after Tr=    -0.000000   -0.000000    0.000000
         Rot=    0.999991   -0.003405    0.000447    0.002322 Ang=  -0.48 deg.
 ExpMin= 2.38D-02 ExpMax= 1.47D+04 ExpMxC= 5.03D+02 IAcc=3 IRadAn=         5 AccDes= 0.00D+00
 Harris functional with IExCor= 4639 and IRadAn=       5 diagonalized for initial guess.
 HarFok:  IExCor= 4639 AccDes= 0.00D+00 IRadAn=         5 IDoV= 1 UseB2=F ITyADJ=14
 ICtDFT=  3500011 ScaDFX=  1.000000  1.000000  1.000000  1.000000
 FoFCou: FMM=F IPFlag=           0 FMFlag=      100000 FMFlg1=           0
         NFxFlg=           0 DoJE=T BraDBF=F KetDBF=T FulRan=T
         wScrn=  0.000000 ICntrl=       500 IOpCl=  0 I1Cent=   200000004 NGrid=           0
         NMat0=    1 NMatS0=      1 NMatT0=    0 NMatD0=    1 NMtDS0=    0 NMtDT0=    0
 Petite list used in FoFCou.
 Requested convergence on RMS density matrix=1.00D-08 within 128 cycles.
 Requested convergence on MAX density matrix=1.00D-06.
 Requested convergence on             energy=1.00D-06.
 No special actions if energy rises.
 Inv3:  Mode=1 IEnd=     6858432.
 Iteration    1 A*A^-1 deviation from unit magnitude is 4.44D-15 for   1494.
 Iteration    1 A*A^-1 deviation from orthogonality  is 2.13D-15 for   1491   1137.
 Iteration    1 A^-1*A deviation from unit magnitude is 4.44D-15 for   1494.
 Iteration    1 A^-1*A deviation from orthogonality  is 1.17D-15 for   1495   1494.
 Error on total polarization charges =  0.00639
 SCF Done:  E(RwB97XD) =  -558.145767892     A.U. after   10 cycles
            NFock= 10  Conv=0.72D-08     -V/T= 2.0060
 D1PCM: C-PCM CHGder 1st derivatives, ID1Alg=3 FixD1E=F DoIter=F DoCFld=F I1PDM=0.
 Calling FoFJK, ICntrl=      2127 FMM=F ISym2X=0 I1Cent= 0 IOpClX= 0 NMat=1 NMatS=1 NMatT=0.
 ***** Axes restored to original set *****
 -------------------------------------------------------------------
 Center     Atomic                   Forces (Hartrees/Bohr)
 Number     Number              X              Y              Z
 -------------------------------------------------------------------
      1        5          -0.000071541    0.000149691   -0.000194573
      2        9           0.000227472   -0.000015461    0.000181429
      3        9          -0.000059401    0.000019110   -0.000086234
      4        9          -0.000417006    0.000252536   -0.000134829
      5        8           0.000166023    0.000330866    0.000337651
      6        6           0.000075733   -0.000593819   -0.000381567
      7        6          -0.000045638    0.000460249    0.000004659
      8        6           0.000218327   -0.000079707    0.000417769
      9        6          -0.000261401   -0.000335660   -0.000210403
     10        1           0.000291272    0.000151635   -0.000034073
     11        1           0.000211224   -0.000185613    0.000098133
     12        1           0.000082916   -0.000066482    0.000134573
     13        1          -0.000242940   -0.000046011    0.000070292
     14        1           0.000097986   -0.000298558   -0.000192265
     15        1          -0.000122310    0.000133842   -0.000109923
     16        1          -0.000087004   -0.000036073    0.000132385
     17        1          -0.000008376    0.000043615    0.000010543
     18        1           0.000040718    0.000004849   -0.000030126
     19        1          -0.000096053    0.000110992   -0.000013444
 -------------------------------------------------------------------
 Cartesian Forces:  Max     0.000593819 RMS     0.000203773

 GradGradGradGradGradGradGradGradGradGradGradGradGradGradGradGradGradGrad
 Berny optimization.
 Using GEDIIS/GDIIS optimizer.
 FormGI is forming the generalized inverse of G from B-inverse, IUseBI=4.
 Internal  Forces:  Max     0.001158097 RMS     0.000304529
 Search for a local minimum.
 Step number  12 out of a maximum of   97
 All quantities printed in internal units (Hartrees-Bohrs-Radians)
 Mixed Optimization -- En-DIIS/RFO-DIIS
 Swapping is turned off.
 Update second derivatives using D2CorX and points    9   10   11   12
 DE= -1.97D-04 DEPred=-2.07D-04 R= 9.51D-01
 TightC=F SS=  1.41D+00  RLast= 1.18D-01 DXNew= 1.7734D+00 3.5339D-01
 Trust test= 9.51D-01 RLast= 1.18D-01 DXMaxT set to 1.05D+00
 ITU=  1  1  1  1  1  1  1  1  1  1  1  0
     Eigenvalues ---    0.00071   0.00283   0.00334   0.01170   0.01466
     Eigenvalues ---    0.02234   0.04456   0.04735   0.05143   0.05304
     Eigenvalues ---    0.05392   0.05430   0.05769   0.05876   0.07249
     Eigenvalues ---    0.09730   0.10498   0.12801   0.12906   0.13176
     Eigenvalues ---    0.13397   0.16001   0.16006   0.16009   0.16029
     Eigenvalues ---    0.16328   0.16711   0.20034   0.20972   0.23642
     Eigenvalues ---    0.25068   0.25212   0.26140   0.28407   0.28552
     Eigenvalues ---    0.28658   0.29324   0.31835   0.31852   0.31966
     Eigenvalues ---    0.31990   0.32096   0.32154   0.32164   0.32189
     Eigenvalues ---    0.32358   0.32833   0.37840   0.40693   0.43226
     Eigenvalues ---    0.49835
 En-DIIS/RFO-DIIS/Sim-DIIS IScMMF=       -3 using points:    12   11   10    9    8    7    6
 RFO step:  Lambda=-5.24371981D-04.
 DIIS inversion failure, remove point   7.
 DIIS inversion failure, remove point   6.
 RFO-DIIS uses    5 points instead of    7
 DidBck=T Rises=F RFO-DIIS coefs:    0.56148    0.43831    1.16376   -2.00000    0.83645
                  RFO-DIIS coefs:    0.00000    0.00000
 Iteration  1 RMS(Cart)=  0.11779733 RMS(Int)=  0.00651222
 Iteration  2 RMS(Cart)=  0.00827493 RMS(Int)=  0.00010507
 Iteration  3 RMS(Cart)=  0.00004344 RMS(Int)=  0.00010006
 Iteration  4 RMS(Cart)=  0.00000000 RMS(Int)=  0.00010006
 Variable       Old X    -DE/DX   Delta X   Delta X   Delta X     New X
                                 (Linear)    (Quad)   (Total)
    R1        2.60369  -0.00011  -0.00254   0.00343   0.00088   2.60458
    R2        2.61705  -0.00006  -0.00356   0.00361   0.00005   2.61710
    R3        2.60914   0.00013  -0.00319   0.00387   0.00068   2.60982
    R4        3.07801   0.00048   0.02611  -0.03028  -0.00416   3.07385
    R5        2.76713   0.00051  -0.00622   0.00525  -0.00097   2.76616
    R6        2.76986  -0.00020  -0.00637   0.00576  -0.00060   2.76926
    R7        2.85896  -0.00010   0.00007  -0.00191  -0.00184   2.85712
    R8        2.07382  -0.00001   0.00007  -0.00114  -0.00107   2.07276
    R9        2.05902  -0.00016   0.00145  -0.00140   0.00006   2.05908
   R10        2.07366   0.00008   0.00053  -0.00040   0.00013   2.07379
   R11        2.07184  -0.00004   0.00024  -0.00089  -0.00065   2.07119
   R12        2.07268  -0.00004   0.00088   0.00047   0.00135   2.07403
   R13        2.85459  -0.00013   0.00068  -0.00162  -0.00094   2.85365
   R14        2.07285  -0.00006   0.00042  -0.00129  -0.00088   2.07198
   R15        2.06674  -0.00006   0.00182  -0.00035   0.00147   2.06821
   R16        2.07437   0.00001   0.00009  -0.00021  -0.00012   2.07425
   R17        2.07081   0.00004   0.00056  -0.00011   0.00045   2.07126
   R18        2.06609   0.00014   0.00060  -0.00024   0.00036   2.06645
    A1        1.98682  -0.00008   0.00349  -0.00785  -0.00428   1.98254
    A2        1.97003  -0.00013   0.00459  -0.00419   0.00048   1.97050
    A3        1.83358  -0.00060  -0.00648   0.00522  -0.00120   1.83239
    A4        1.98265  -0.00025   0.00378  -0.00219   0.00164   1.98429
    A5        1.83640   0.00008  -0.00369   0.00523   0.00159   1.83799
    A6        1.83491   0.00108  -0.00465   0.00683   0.00223   1.83714
    A7        2.04521   0.00116   0.00664   0.01941   0.02587   2.07108
    A8        2.02943  -0.00086  -0.00372   0.00548   0.00129   2.03072
    A9        1.95127  -0.00021   0.00152  -0.00316  -0.00216   1.94911
   A10        1.93087   0.00012  -0.00302  -0.01204  -0.01511   1.91576
   A11        1.87525  -0.00026   0.00156  -0.00522  -0.00373   1.87152
   A12        1.83890   0.00029   0.00930   0.00308   0.01246   1.85137
   A13        1.96980   0.00014  -0.00219   0.00346   0.00113   1.97093
   A14        1.94164  -0.00038  -0.00216   0.00824   0.00614   1.94778
   A15        1.90160   0.00010  -0.00267   0.00211  -0.00047   1.90113
   A16        1.89077  -0.00010   0.00344   0.00277   0.00622   1.89699
   A17        1.92842  -0.00035  -0.00103  -0.00116  -0.00222   1.92621
   A18        1.96480   0.00060  -0.00354  -0.00300  -0.00655   1.95825
   A19        1.89310   0.00010   0.00161   0.00159   0.00319   1.89630
   A20        1.88197  -0.00025   0.00202   0.00148   0.00353   1.88550
   A21        1.90291  -0.00002  -0.00220  -0.00141  -0.00366   1.89926
   A22        1.96111  -0.00085  -0.00202  -0.00540  -0.00742   1.95370
   A23        1.86748   0.00022   0.00354  -0.00428  -0.00073   1.86675
   A24        1.83873   0.00031   0.00289  -0.00430  -0.00139   1.83734
   A25        1.95771   0.00019  -0.00076   0.00362   0.00283   1.96054
   A26        1.92565   0.00023  -0.00040   0.00682   0.00640   1.93205
   A27        1.90831  -0.00009  -0.00305   0.00294  -0.00010   1.90821
   A28        1.87195   0.00004   0.00218   0.00111   0.00330   1.87525
   A29        1.93678   0.00000  -0.00110  -0.00060  -0.00170   1.93508
   A30        1.95739   0.00004  -0.00025  -0.00214  -0.00240   1.95499
   A31        1.89595  -0.00002   0.00092   0.00022   0.00114   1.89710
   A32        1.89432  -0.00004   0.00044   0.00043   0.00087   1.89520
   A33        1.90581  -0.00002  -0.00205   0.00107  -0.00099   1.90482
    D1       -2.58026  -0.00024   0.00904   0.01709   0.02626  -2.55401
    D2        1.32957  -0.00027   0.00362  -0.00858  -0.00509   1.32448
    D3        1.60056   0.00009   0.00972   0.02108   0.03095   1.63151
    D4       -0.77279   0.00007   0.00430  -0.00458  -0.00040  -0.77319
    D5       -0.49768  -0.00018   0.00927   0.01788   0.02727  -0.47041
    D6       -2.87103  -0.00020   0.00385  -0.00778  -0.00407  -2.87510
    D7        2.44061  -0.00024  -0.06257  -0.10487  -0.16759   2.27302
    D8       -1.68530  -0.00017  -0.06632  -0.11159  -0.17790  -1.86320
    D9        0.34042  -0.00003  -0.06394  -0.11008  -0.17412   0.16630
   D10       -1.43661  -0.00053  -0.05967  -0.07724  -0.13690  -1.57351
   D11        0.72067  -0.00045  -0.06342  -0.08396  -0.14721   0.57346
   D12        2.74639  -0.00032  -0.06105  -0.08245  -0.14343   2.60296
   D13       -1.03581   0.00024  -0.02597  -0.03953  -0.06564  -1.10145
   D14        1.12027   0.00010  -0.02577  -0.04142  -0.06731   1.05296
   D15       -3.13317   0.00024  -0.02618  -0.04208  -0.06842   3.08160
   D16        2.83427  -0.00038  -0.03363  -0.07325  -0.10675   2.72752
   D17       -1.29284  -0.00053  -0.03343  -0.07514  -0.10842  -1.40126
   D18        0.73691  -0.00039  -0.03384  -0.07580  -0.10953   0.62738
   D19       -3.07133  -0.00012  -0.05075  -0.04462  -0.09537   3.11648
   D20       -0.99981  -0.00027  -0.04731  -0.04169  -0.08899  -1.08880
   D21        1.13232  -0.00012  -0.05341  -0.04645  -0.09983   1.03249
   D22        1.11010   0.00003  -0.04903  -0.03175  -0.08080   1.02931
   D23       -3.10156  -0.00011  -0.04558  -0.02881  -0.07442   3.10721
   D24       -0.96943   0.00003  -0.05169  -0.03358  -0.08526  -1.05469
   D25       -1.03367   0.00008  -0.04242  -0.04325  -0.08568  -1.11934
   D26        1.03786  -0.00006  -0.03897  -0.04031  -0.07930   0.95856
   D27       -3.11320   0.00008  -0.04508  -0.04508  -0.09014   3.07985
   D28       -3.00930  -0.00008  -0.00266   0.00410   0.00144  -3.00786
   D29       -0.94095  -0.00008  -0.00083   0.00470   0.00387  -0.93708
   D30        1.19574  -0.00008  -0.00445   0.00411  -0.00033   1.19541
   D31        1.16907   0.00011  -0.00526   0.01093   0.00567   1.17474
   D32       -3.04577   0.00010  -0.00343   0.01152   0.00809  -3.03767
   D33       -0.90907   0.00011  -0.00706   0.01094   0.00389  -0.90518
   D34       -0.96306  -0.00008  -0.00057  -0.00022  -0.00080  -0.96386
   D35        1.10529  -0.00008   0.00126   0.00037   0.00162   1.10691
   D36       -3.04120  -0.00008  -0.00236  -0.00021  -0.00258  -3.04378
         Item               Value     Threshold  Converged?
 Maximum Force            0.001158     0.000450     NO 
 RMS     Force            0.000305     0.000300     NO 
 Maximum Displacement     0.473635     0.001800     NO 
 RMS     Displacement     0.119202     0.001200     NO 
 Predicted change in Energy=-3.192384D-04
 GradGradGradGradGradGradGradGradGradGradGradGradGradGradGradGradGradGrad

                          Input orientation:                          
 ---------------------------------------------------------------------
 Center     Atomic      Atomic             Coordinates (Angstroms)
 Number     Number       Type             X           Y           Z
 ---------------------------------------------------------------------
      1          5           0       -1.806583    0.676961   -0.194505
      2          9           0       -1.596228    1.675545   -1.120920
      3          9           0       -2.129097    1.149845    1.066582
      4          9           0       -2.658007   -0.309631   -0.651704
      5          8           0       -0.361432   -0.049898   -0.023996
      6          6           0       -0.326192   -1.489492    0.238706
      7          6           0        0.632922   -2.160511   -0.718239
      8          6           0        0.639080    0.669652    0.768911
      9          6           0        1.019224    1.987123    0.136363
     10          1           0       -0.042750   -1.621056    1.290106
     11          1           0       -1.346319   -1.846504    0.100336
     12          1           0        0.665168   -3.233277   -0.489276
     13          1           0        0.291977   -2.032866   -1.752038
     14          1           0        1.652334   -1.763526   -0.630062
     15          1           0        0.220041    0.795742    1.774243
     16          1           0        1.503667    0.000402    0.818070
     17          1           0        1.862726    2.395318    0.707949
     18          1           0        1.335652    1.844275   -0.903264
     19          1           0        0.197357    2.707879    0.165153
 ---------------------------------------------------------------------
                    Distance matrix (angstroms):
                    1          2          3          4          5
     1  B    0.000000
     2  F    1.378282   0.000000
     3  F    1.384910   2.312029   0.000000
     4  F    1.381057   2.299665   2.315668   0.000000
     5  O    1.626610   2.388539   2.398621   2.394939   0.000000
     6  C    2.659464   3.671380   3.301809   2.760845   1.463791
     7  C    3.778456   4.454951   4.666132   3.776294   2.434215
     8  C    2.628592   3.095139   2.825243   3.721280   1.465428
     9  C    3.132281   2.918636   3.387960   4.406604   2.466046
    10  H    3.255160   4.369659   3.475730   3.511415   2.072911
    11  H    2.581986   3.736141   3.244145   2.155938   2.052621
    12  H    4.635343   5.441454   5.425898   4.429174   3.377025
    13  H    3.764708   4.209031   4.892429   3.589245   2.710209
    14  H    4.255561   4.756186   5.066118   4.548991   2.712764
    15  H    2.827947   3.529144   2.478835   3.923038   2.070479
    16  H    3.527152   4.021833   3.818370   4.424465   2.046998
    17  H    4.151025   3.978342   4.196960   5.440812   3.385514
    18  H    3.426164   2.944786   4.045616   4.544436   2.690928
    19  H    2.875718   2.436523   2.941502   4.233878   2.820170
                    6          7          8          9         10
     6  C    0.000000
     7  C    1.511923   0.000000
     8  C    2.423792   3.197105   0.000000
     9  C    3.729272   4.252346   1.510085   0.000000
    10  H    1.096855   2.186549   2.446197   3.934192   0.000000
    11  H    1.089617   2.164731   3.274117   4.504863   1.779233
    12  H    2.133902   1.097402   4.100801   5.269664   2.503318
    13  H    2.154170   1.096028   3.712044   4.500584   3.088085
    14  H    2.178168   1.097531   2.983985   3.880155   2.565279
    15  H    2.806873   3.888750   1.096442   2.177322   2.478782
    16  H    2.429779   2.790697   1.094451   2.155567   2.289836
    17  H    4.483670   4.929707   2.116353   1.097647   4.483415
    18  H    3.896128   4.070181   2.158962   1.096064   4.326590
    19  H    4.230536   4.967024   2.171178   1.093519   4.479158
                   11         12         13         14         15
    11  H    0.000000
    12  H    2.513337   0.000000
    13  H    2.479926   1.781805   0.000000
    14  H    3.087441   1.776087   1.783801   0.000000
    15  H    3.498130   4.642699   4.521157   3.792361   0.000000
    16  H    3.471113   3.587326   3.493970   2.287057   1.787325
    17  H    5.353524   5.877804   5.303547   4.373845   2.528644
    18  H    4.671405   5.138333   4.103888   3.631962   3.084324
    19  H    4.809318   5.995370   5.114610   4.768940   2.499191
                   16         17         18         19
    16  H    0.000000
    17  H    2.424185   0.000000
    18  H    2.528060   1.782544   0.000000
    19  H    3.076229   1.779263   1.784108   0.000000
 Stoichiometry    C4H10BF3O
 Framework group  C1[X(C4H10BF3O)]
 Deg. of freedom    51
 Full point group                 C1      NOp   1
 Largest Abelian subgroup         C1      NOp   1
 Largest concise Abelian subgroup C1      NOp   1
                         Standard orientation:                         
 ---------------------------------------------------------------------
 Center     Atomic      Atomic             Coordinates (Angstroms)
 Number     Number       Type             X           Y           Z
 ---------------------------------------------------------------------
      1          5           0       -1.005416   -0.670108   -0.050194
      2          9           0       -1.653899   -0.130312   -1.140035
      3          9           0       -1.632750   -0.404515    1.155579
      4          9           0       -0.678086   -2.000480   -0.224216
      5          8           0        0.417402    0.114719    0.023919
      6          6           0        1.596271   -0.612006    0.498075
      7          6           0        2.741070   -0.416376   -0.469952
      8          6           0        0.378909    1.483340    0.546294
      9          6           0       -0.443059    2.398592   -0.329512
     10          1           0        1.821485   -0.243312    1.506258
     11          1           0        1.299849   -1.658547    0.562500
     12          1           0        3.621560   -0.946321   -0.085002
     13          1           0        2.484856   -0.829753   -1.452170
     14          1           0        3.006804    0.641765   -0.589526
     15          1           0       -0.011375    1.424328    1.569222
     16          1           0        1.422964    1.810359    0.575148
     17          1           0       -0.309964    3.421095    0.046788
     18          1           0       -0.097257    2.358920   -1.368841
     19          1           0       -1.507593    2.150721   -0.296158
 ---------------------------------------------------------------------
 Rotational constants (GHZ):           1.7542289           1.4079040           1.0023741
 Standard basis: Aug-CC-pVDZ (5D, 7F)
 There are   315 symmetry adapted cartesian basis functions of A   symmetry.
 There are   297 symmetry adapted basis functions of A   symmetry.
   297 basis functions,   497 primitive gaussians,   315 cartesian basis functions
    37 alpha electrons       37 beta electrons
       nuclear repulsion energy       523.6225601549 Hartrees.
 NAtoms=   19 NActive=   19 NUniq=   19 SFac= 1.00D+00 NAtFMM=   60 NAOKFM=F Big=F
 Integral buffers will be    131072 words long.
 Raffenetti 2 integral format.
 Two-electron integral symmetry is turned on.
 Nuclear repulsion after empirical dispersion term =      523.6105419909 Hartrees.
 Force PCM accuracy= 1.00D-12.
 ------------------------------------------------------------------------------
 Polarizable Continuum Model (PCM)
 =================================
 Model                : C-PCM.
 Atomic radii         : UFF (Universal Force Field).
 Polarization charges : Total charges.
 Charge compensation  : None.
 Solution method      : On-the-fly selection.
 Cavity type          : Scaled VdW (van der Waals Surface) (Alpha=1.100).
 Cavity algorithm     : GePol (No added spheres)
                        Default sphere list used, NSphG=   19.
                        Lebedev-Laikov grids with approx.  5.0 points / Ang**2.
                        Smoothing algorithm: York/Karplus (Gamma=1.0000).
                        Polarization charges: spherical gaussians, with
                                              point-specific exponents (IZeta= 3).
                        Self-potential: point-specific (ISelfS= 7).
                        Self-field    : sphere-specific E.n sum rule (ISelfD= 2).
 1st derivatives      : Analytical E(r).r(x)/FMM algorithm (CHGder, D1EAlg=3).
                        Cavity 1st derivative terms included.
 Solvent              : Benzene, Eps=   2.270600 Eps(inf)=   2.253301
 ------------------------------------------------------------------------------
 Spheres list:
 ISph  on   Nord     Re0    Alpha      Xe            Ye            Ze
    1   B      1    2.0415  1.100     -1.005416     -0.670108     -0.050194
    2   F      2    1.6820  1.100     -1.653899     -0.130312     -1.140035
    3   F      3    1.6820  1.100     -1.632750     -0.404515      1.155579
    4   F      4    1.6820  1.100     -0.678086     -2.000480     -0.224216
    5   O      5    1.7500  1.100      0.417402      0.114719      0.023919
    6   C      6    1.9255  1.100      1.596271     -0.612006      0.498075
    7   C      7    1.9255  1.100      2.741070     -0.416376     -0.469952
    8   C      8    1.9255  1.100      0.378909      1.483340      0.546294
    9   C      9    1.9255  1.100     -0.443059      2.398592     -0.329512
   10   H     10    1.4430  1.100      1.821485     -0.243312      1.506258
   11   H     11    1.4430  1.100      1.299849     -1.658547      0.562500
   12   H     12    1.4430  1.100      3.621560     -0.946321     -0.085002
   13   H     13    1.4430  1.100      2.484856     -0.829753     -1.452170
   14   H     14    1.4430  1.100      3.006804      0.641765     -0.589526
   15   H     15    1.4430  1.100     -0.011375      1.424328      1.569222
   16   H     16    1.4430  1.100      1.422964      1.810359      0.575148
   17   H     17    1.4430  1.100     -0.309964      3.421095      0.046788
   18   H     18    1.4430  1.100     -0.097257      2.358920     -1.368841
   19   H     19    1.4430  1.100     -1.507593      2.150721     -0.296158
 ------------------------------------------------------------------------------
 One-electron integrals computed using PRISM.
 NBasis=   297 RedAO= T EigKep=  2.75D-05  NBF=   297
 NBsUse=   297 1.00D-06 EigRej= -1.00D+00 NBFU=   297
 Initial guess from the checkpoint file:  "/inspire/hdd/project/materialscienceresearch/lipenghui-253107030018/g16/00-B-DFT-Shift/04-output/BF3OEt2_C6D6/BF3OEt2_C6D6.chk"
 B after Tr=    -0.000000    0.000000   -0.000000
         Rot=    0.999958    0.006132    0.006399   -0.002136 Ang=   1.04 deg.
 ExpMin= 2.38D-02 ExpMax= 1.47D+04 ExpMxC= 5.03D+02 IAcc=3 IRadAn=         5 AccDes= 0.00D+00
 Harris functional with IExCor= 4639 and IRadAn=       5 diagonalized for initial guess.
 HarFok:  IExCor= 4639 AccDes= 0.00D+00 IRadAn=         5 IDoV= 1 UseB2=F ITyADJ=14
 ICtDFT=  3500011 ScaDFX=  1.000000  1.000000  1.000000  1.000000
 FoFCou: FMM=F IPFlag=           0 FMFlag=      100000 FMFlg1=           0
         NFxFlg=           0 DoJE=T BraDBF=F KetDBF=T FulRan=T
         wScrn=  0.000000 ICntrl=       500 IOpCl=  0 I1Cent=   200000004 NGrid=           0
         NMat0=    1 NMatS0=      1 NMatT0=    0 NMatD0=    1 NMtDS0=    0 NMtDT0=    0
 Petite list used in FoFCou.
 Requested convergence on RMS density matrix=1.00D-08 within 128 cycles.
 Requested convergence on MAX density matrix=1.00D-06.
 Requested convergence on             energy=1.00D-06.
 No special actions if energy rises.
 Inv3:  Mode=1 IEnd=     6922083.
 Iteration    1 A*A^-1 deviation from unit magnitude is 3.44D-15 for   1502.
 Iteration    1 A*A^-1 deviation from orthogonality  is 2.82D-15 for   1484    815.
 Iteration    1 A^-1*A deviation from unit magnitude is 3.55D-15 for   1513.
 Iteration    1 A^-1*A deviation from orthogonality  is 1.59D-15 for   1511    782.
 Error on total polarization charges =  0.00640
 SCF Done:  E(RwB97XD) =  -558.145885849     A.U. after   11 cycles
            NFock= 11  Conv=0.64D-08     -V/T= 2.0060
 D1PCM: C-PCM CHGder 1st derivatives, ID1Alg=3 FixD1E=F DoIter=F DoCFld=F I1PDM=0.
 Calling FoFJK, ICntrl=      2127 FMM=F ISym2X=0 I1Cent= 0 IOpClX= 0 NMat=1 NMatS=1 NMatT=0.
 ***** Axes restored to original set *****
 -------------------------------------------------------------------
 Center     Atomic                   Forces (Hartrees/Bohr)
 Number     Number              X              Y              Z
 -------------------------------------------------------------------
      1        5          -0.000483320   -0.000127100   -0.000418543
      2        9           0.000236883   -0.000001806    0.000031435
      3        9          -0.000081889   -0.000196407   -0.000046740
      4        9           0.000626445   -0.000306706    0.000312407
      5        8           0.000171071    0.000372046    0.001248398
      6        6          -0.000382874   -0.000201621   -0.000535978
      7        6          -0.000118945   -0.000147323    0.000046390
      8        6           0.000316426    0.000372072   -0.000319899
      9        6          -0.000002513   -0.000055119    0.000078375
     10        1          -0.000166849   -0.000163725   -0.000283275
     11        1          -0.000486235   -0.000099538   -0.000060813
     12        1           0.000016411   -0.000169337   -0.000143069
     13        1          -0.000029841    0.000003210   -0.000108867
     14        1          -0.000114017    0.000050910    0.000403869
     15        1           0.000145642    0.000026551    0.000126334
     16        1           0.000238574    0.000477268   -0.000329942
     17        1           0.000033665    0.000140147   -0.000011354
     18        1           0.000049226   -0.000029712    0.000048929
     19        1           0.000032140    0.000056191   -0.000037658
 -------------------------------------------------------------------
 Cartesian Forces:  Max     0.001248398 RMS     0.000289943

 GradGradGradGradGradGradGradGradGradGradGradGradGradGradGradGradGradGrad
 Berny optimization.
 Using GEDIIS/GDIIS optimizer.
 FormGI is forming the generalized inverse of G from B-inverse, IUseBI=4.
 Internal  Forces:  Max     0.002297178 RMS     0.000463192
 Search for a local minimum.
 Step number  13 out of a maximum of   97
 All quantities printed in internal units (Hartrees-Bohrs-Radians)
 Mixed Optimization -- En-DIIS/RFO-DIIS
 Swapping is turned off.
 Update second derivatives using D2CorX and points   11   12   13
 DE= -1.18D-04 DEPred=-3.19D-04 R= 3.69D-01
 Trust test= 3.69D-01 RLast= 5.21D-01 DXMaxT set to 1.05D+00
 ITU=  0  1  1  1  1  1  1  1  1  1  1  1  0
     Eigenvalues ---    0.00193   0.00284   0.00360   0.01015   0.01467
     Eigenvalues ---    0.02053   0.04217   0.04555   0.05113   0.05302
     Eigenvalues ---    0.05409   0.05485   0.05744   0.05859   0.06953
     Eigenvalues ---    0.09664   0.10485   0.12715   0.12864   0.13143
     Eigenvalues ---    0.13414   0.16000   0.16008   0.16018   0.16026
     Eigenvalues ---    0.16374   0.16747   0.21148   0.21615   0.23558
     Eigenvalues ---    0.25039   0.25232   0.26742   0.28419   0.28563
     Eigenvalues ---    0.28683   0.29319   0.31854   0.31888   0.31974
     Eigenvalues ---    0.32025   0.32097   0.32155   0.32172   0.32189
     Eigenvalues ---    0.32343   0.32775   0.37846   0.40670   0.42399
     Eigenvalues ---    0.49841
 En-DIIS/RFO-DIIS/Sim-DIIS IScMMF=       -3 using points:    13   12   11   10    9    8    7    6
 RFO step:  Lambda=-1.56846231D-04.
 DIIS inversion failure, remove point   8.
 RFO-DIIS uses    7 points instead of    8
 DidBck=T Rises=F RFO-DIIS coefs:    0.47435    0.44412   -0.46809    0.97165   -1.54540
                  RFO-DIIS coefs:    1.31327   -0.18991    0.00000
 Iteration  1 RMS(Cart)=  0.09328808 RMS(Int)=  0.00414587
 Iteration  2 RMS(Cart)=  0.00504792 RMS(Int)=  0.00006460
 Iteration  3 RMS(Cart)=  0.00001379 RMS(Int)=  0.00006388
 Iteration  4 RMS(Cart)=  0.00000000 RMS(Int)=  0.00006388
 Variable       Old X    -DE/DX   Delta X   Delta X   Delta X     New X
                                 (Linear)    (Quad)   (Total)
    R1        2.60458   0.00002  -0.00094  -0.00004  -0.00097   2.60360
    R2        2.61710  -0.00009   0.00064  -0.00092  -0.00028   2.61682
    R3        2.60982  -0.00027  -0.00094   0.00054  -0.00040   2.60942
    R4        3.07385  -0.00053   0.00681  -0.00004   0.00676   3.08061
    R5        2.76616   0.00057   0.00415  -0.00137   0.00278   2.76894
    R6        2.76926   0.00080   0.00331  -0.00156   0.00176   2.77101
    R7        2.85712  -0.00017   0.00108  -0.00087   0.00021   2.85733
    R8        2.07276  -0.00029   0.00067  -0.00046   0.00021   2.07297
    R9        2.05908   0.00050   0.00004   0.00025   0.00029   2.05937
   R10        2.07379   0.00014   0.00013   0.00015   0.00027   2.07406
   R11        2.07119   0.00011   0.00040   0.00021   0.00061   2.07180
   R12        2.07403  -0.00005  -0.00151   0.00054  -0.00097   2.07306
   R13        2.85365   0.00009   0.00063  -0.00034   0.00029   2.85394
   R14        2.07198   0.00006   0.00044   0.00019   0.00063   2.07260
   R15        2.06821  -0.00012  -0.00175   0.00068  -0.00107   2.06714
   R16        2.07425   0.00007   0.00019   0.00011   0.00030   2.07455
   R17        2.07126  -0.00003  -0.00042   0.00011  -0.00031   2.07095
   R18        2.06645   0.00001  -0.00050   0.00041  -0.00009   2.06636
    A1        1.98254   0.00026   0.00358  -0.00017   0.00343   1.98597
    A2        1.97050   0.00066   0.00012   0.00029   0.00044   1.97095
    A3        1.83239  -0.00021   0.00108  -0.00146  -0.00036   1.83202
    A4        1.98429   0.00022  -0.00107  -0.00007  -0.00112   1.98317
    A5        1.83799   0.00024  -0.00119   0.00001  -0.00117   1.83682
    A6        1.83714  -0.00141  -0.00322   0.00139  -0.00181   1.83534
    A7        2.07108  -0.00230  -0.02124   0.00121  -0.01999   2.05108
    A8        2.03072   0.00045   0.00001   0.00144   0.00172   2.03245
    A9        1.94911   0.00201   0.00343   0.00228   0.00601   1.95512
   A10        1.91576   0.00034   0.01350  -0.00260   0.01092   1.92668
   A11        1.87152   0.00014   0.00123   0.00008   0.00141   1.87294
   A12        1.85137  -0.00030  -0.01276   0.00488  -0.00793   1.84344
   A13        1.97093  -0.00025   0.00023  -0.00196  -0.00166   1.96927
   A14        1.94778   0.00007  -0.00511   0.00091  -0.00429   1.94349
   A15        1.90113   0.00000   0.00224  -0.00091   0.00133   1.90246
   A16        1.89699   0.00027  -0.00557   0.00060  -0.00497   1.89202
   A17        1.92621   0.00010   0.00145  -0.00015   0.00133   1.92754
   A18        1.95825  -0.00057   0.00627  -0.00140   0.00489   1.96314
   A19        1.89630  -0.00012  -0.00330   0.00046  -0.00283   1.89347
   A20        1.88550   0.00008  -0.00336   0.00013  -0.00324   1.88226
   A21        1.89926   0.00025   0.00393   0.00042   0.00441   1.90366
   A22        1.95370  -0.00009   0.00539  -0.00185   0.00354   1.95724
   A23        1.86675   0.00012  -0.00080   0.00181   0.00101   1.86775
   A24        1.83734   0.00028  -0.00077   0.00205   0.00127   1.83861
   A25        1.96054  -0.00004  -0.00162  -0.00057  -0.00219   1.95835
   A26        1.93205  -0.00036  -0.00396  -0.00110  -0.00507   1.92698
   A27        1.90821   0.00012   0.00196  -0.00007   0.00187   1.91008
   A28        1.87525   0.00016  -0.00336   0.00123  -0.00213   1.87312
   A29        1.93508  -0.00009   0.00140  -0.00009   0.00132   1.93640
   A30        1.95499   0.00010   0.00279  -0.00085   0.00195   1.95695
   A31        1.89710  -0.00006  -0.00116  -0.00012  -0.00128   1.89582
   A32        1.89520  -0.00011  -0.00066  -0.00055  -0.00121   1.89398
   A33        1.90482  -0.00001   0.00074   0.00039   0.00114   1.90596
    D1       -2.55401   0.00062  -0.02248   0.00289  -0.01967  -2.57368
    D2        1.32448  -0.00046  -0.00151  -0.00471  -0.00612   1.31836
    D3        1.63151   0.00031  -0.02653   0.00377  -0.02286   1.60865
    D4       -0.77319  -0.00077  -0.00555  -0.00383  -0.00930  -0.78249
    D5       -0.47041   0.00062  -0.02326   0.00318  -0.02017  -0.49058
    D6       -2.87510  -0.00046  -0.00229  -0.00441  -0.00662  -2.88172
    D7        2.27302  -0.00010   0.13051  -0.00443   0.12620   2.39921
    D8       -1.86320  -0.00011   0.14002  -0.00834   0.13173  -1.73147
    D9        0.16630  -0.00019   0.13701  -0.00697   0.13007   0.29637
   D10       -1.57351   0.00042   0.10963   0.00253   0.11214  -1.46137
   D11        0.57346   0.00040   0.11913  -0.00138   0.11768   0.69113
   D12        2.60296   0.00033   0.11612  -0.00001   0.11601   2.71897
   D13       -1.10145  -0.00028   0.05286   0.00719   0.06016  -1.04129
   D14        1.05296  -0.00030   0.05369   0.00655   0.06035   1.11331
   D15        3.08160   0.00003   0.05518   0.00826   0.06355  -3.13803
   D16        2.72752   0.00043   0.08314   0.00052   0.08354   2.81106
   D17       -1.40126   0.00041   0.08397  -0.00012   0.08373  -1.31753
   D18        0.62738   0.00074   0.08546   0.00159   0.08693   0.71432
   D19        3.11648   0.00013   0.07014  -0.00022   0.06991  -3.09679
   D20       -1.08880   0.00021   0.06360   0.00062   0.06421  -1.02459
   D21        1.03249   0.00022   0.07417   0.00009   0.07421   1.10670
   D22        1.02931  -0.00011   0.05883   0.00275   0.06161   1.09092
   D23        3.10721  -0.00003   0.05229   0.00359   0.05591  -3.12006
   D24       -1.05469  -0.00003   0.06286   0.00306   0.06591  -0.98877
   D25       -1.11934   0.00002   0.05961   0.00472   0.06435  -1.05500
   D26        0.95856   0.00010   0.05308   0.00556   0.05865   1.01721
   D27        3.07985   0.00010   0.06364   0.00503   0.06865  -3.13469
   D28       -3.00786  -0.00001  -0.00324  -0.00133  -0.00457  -3.01242
   D29       -0.93708  -0.00003  -0.00588  -0.00078  -0.00666  -0.94374
   D30        1.19541  -0.00003  -0.00191  -0.00094  -0.00286   1.19255
   D31        1.17474  -0.00008  -0.00489  -0.00194  -0.00684   1.16791
   D32       -3.03767  -0.00010  -0.00754  -0.00139  -0.00893  -3.04660
   D33       -0.90518  -0.00010  -0.00357  -0.00156  -0.00513  -0.91031
   D34       -0.96386   0.00006  -0.00339  -0.00064  -0.00404  -0.96790
   D35        1.10691   0.00004  -0.00604  -0.00009  -0.00613   1.10079
   D36       -3.04378   0.00003  -0.00207  -0.00026  -0.00233  -3.04611
         Item               Value     Threshold  Converged?
 Maximum Force            0.002297     0.000450     NO 
 RMS     Force            0.000463     0.000300     NO 
 Maximum Displacement     0.370941     0.001800     NO 
 RMS     Displacement     0.093390     0.001200     NO 
 Predicted change in Energy=-1.777856D-05
 GradGradGradGradGradGradGradGradGradGradGradGradGradGradGradGradGradGrad

                          Input orientation:                          
 ---------------------------------------------------------------------
 Center     Atomic      Atomic             Coordinates (Angstroms)
 Number     Number       Type             X           Y           Z
 ---------------------------------------------------------------------
      1          5           0       -1.809984    0.694565   -0.169707
      2          9           0       -1.620538    1.705294   -1.086646
      3          9           0       -2.087683    1.145884    1.109653
      4          9           0       -2.682419   -0.278869   -0.614699
      5          8           0       -0.363407   -0.048618   -0.057425
      6          6           0       -0.361418   -1.489749    0.207387
      7          6           0        0.667673   -2.182778   -0.656860
      8          6           0        0.673396    0.652234    0.706807
      9          6           0        0.988881    2.010044    0.125740
     10          1           0       -0.176377   -1.624239    1.280238
     11          1           0       -1.369707   -1.832102   -0.024449
     12          1           0        0.609732   -3.262149   -0.466572
     13          1           0        0.458420   -2.005161   -1.718296
     14          1           0        1.691024   -1.856543   -0.433769
     15          1           0        0.319847    0.716795    1.743026
     16          1           0        1.553644    0.004349    0.662168
     17          1           0        1.857256    2.404474    0.669362
     18          1           0        1.247146    1.931295   -0.936377
     19          1           0        0.158053    2.711255    0.242833
 ---------------------------------------------------------------------
                    Distance matrix (angstroms):
                    1          2          3          4          5
     1  B    0.000000
     2  F    1.377767   0.000000
     3  F    1.384762   2.314065   0.000000
     4  F    1.380846   2.299398   2.314524   0.000000
     5  O    1.630189   2.390791   2.400424   2.396119   0.000000
     6  C    2.647975   3.669906   3.277291   2.743920   1.465261
     7  C    3.828212   4.531858   4.668249   3.853539   2.444808
     8  C    2.633866   3.096377   2.833644   3.724893   1.466357
     9  C    3.106674   2.893410   3.343667   4.389285   2.469883
    10  H    3.185571   4.332843   3.369832   3.417754   2.075308
    11  H    2.568850   3.701939   3.266508   2.117578   2.048059
    12  H    4.647445   5.480336   5.402896   4.445239   3.382482
    13  H    3.851274   4.299829   4.940549   3.750051   2.694802
    14  H    4.339924   4.907074   5.067084   4.652826   2.762411
    15  H    2.862730   3.570612   2.526160   3.945100   2.072273
    16  H    3.533046   4.003374   3.842214   4.433377   2.048342
    17  H    4.132369   3.958215   4.164186   5.427502   3.387804
    18  H    3.385754   2.880499   3.990513   4.519932   2.699350
    19  H    2.847876   2.437798   2.871427   4.212420   2.824707
                    6          7          8          9         10
     6  C    0.000000
     7  C    1.512032   0.000000
     8  C    2.430711   3.145936   0.000000
     9  C    3.752137   4.277311   1.510238   0.000000
    10  H    1.096967   2.185574   2.496651   3.987318   0.000000
    11  H    1.089771   2.161906   3.298626   4.510830   1.780295
    12  H    2.130435   1.097546   4.086962   5.318891   2.520330
    13  H    2.155468   1.096349   3.604038   4.450139   3.088572
    14  H    2.181316   1.097016   2.937761   3.969452   2.545382
    15  H    2.773292   3.779941   1.096775   2.176170   2.437386
    16  H    2.471158   2.703387   1.093884   2.151633   2.455052
    17  H    4.505653   4.921061   2.115010   1.097803   4.554048
    18  H    3.949585   4.164074   2.159916   1.095899   4.425112
    19  H    4.233148   5.002071   2.172652   1.093472   4.470409
                   11         12         13         14         15
    11  H    0.000000
    12  H    2.481670   0.000000
    13  H    2.498223   1.780373   0.000000
    14  H    3.088076   1.773695   1.786452   0.000000
    15  H    3.532059   4.560520   4.405565   3.638767   0.000000
    16  H    3.519940   3.582601   3.302160   2.163994   1.788319
    17  H    5.370590   5.912467   5.206009   4.404633   2.522824
    18  H    4.673616   5.253462   4.090131   3.846733   3.084492
    19  H    4.800789   6.032314   5.116720   4.865446   2.500925
                   16         17         18         19
    16  H    0.000000
    17  H    2.419262   0.000000
    18  H    2.522381   1.781720   0.000000
    19  H    3.074224   1.778575   1.784656   0.000000
 Stoichiometry    C4H10BF3O
 Framework group  C1[X(C4H10BF3O)]
 Deg. of freedom    51
 Full point group                 C1      NOp   1
 Largest Abelian subgroup         C1      NOp   1
 Largest concise Abelian subgroup C1      NOp   1
                         Standard orientation:                         
 ---------------------------------------------------------------------
 Center     Atomic      Atomic             Coordinates (Angstroms)
 Number     Number       Type             X           Y           Z
 ---------------------------------------------------------------------
      1          5           0       -1.016096   -0.662773   -0.046531
      2          9           0       -1.690543   -0.108984   -1.112683
      3          9           0       -1.598030   -0.396802    1.181548
      4          9           0       -0.710592   -1.995848   -0.237087
      5          8           0        0.422274    0.103754   -0.014215
      6          6           0        1.585330   -0.658386    0.447773
      7          6           0        2.781954   -0.379260   -0.433375
      8          6           0        0.420483    1.474202    0.507392
      9          6           0       -0.477537    2.386882   -0.293479
     10          1           0        1.756998   -0.387996    1.496942
     11          1           0        1.289503   -1.705914    0.395128
     12          1           0        3.618956   -0.999419   -0.087778
     13          1           0        2.560675   -0.642736   -1.474336
     14          1           0        3.099994    0.669702   -0.388955
     15          1           0        0.119605    1.416374    1.560503
     16          1           0        1.459730    1.809575    0.443568
     17          1           0       -0.318247    3.408412    0.075677
     18          1           0       -0.219232    2.355224   -1.358031
     19          1           0       -1.534594    2.134684   -0.172207
 ---------------------------------------------------------------------
 Rotational constants (GHZ):           1.7759187           1.3962444           0.9946789
 Standard basis: Aug-CC-pVDZ (5D, 7F)
 There are   315 symmetry adapted cartesian basis functions of A   symmetry.
 There are   297 symmetry adapted basis functions of A   symmetry.
   297 basis functions,   497 primitive gaussians,   315 cartesian basis functions
    37 alpha electrons       37 beta electrons
       nuclear repulsion energy       523.5588323535 Hartrees.
 NAtoms=   19 NActive=   19 NUniq=   19 SFac= 1.00D+00 NAtFMM=   60 NAOKFM=F Big=F
 Integral buffers will be    131072 words long.
 Raffenetti 2 integral format.
 Two-electron integral symmetry is turned on.
 Nuclear repulsion after empirical dispersion term =      523.5468283924 Hartrees.
 Force PCM accuracy= 1.00D-12.
 ------------------------------------------------------------------------------
 Polarizable Continuum Model (PCM)
 =================================
 Model                : C-PCM.
 Atomic radii         : UFF (Universal Force Field).
 Polarization charges : Total charges.
 Charge compensation  : None.
 Solution method      : On-the-fly selection.
 Cavity type          : Scaled VdW (van der Waals Surface) (Alpha=1.100).
 Cavity algorithm     : GePol (No added spheres)
                        Default sphere list used, NSphG=   19.
                        Lebedev-Laikov grids with approx.  5.0 points / Ang**2.
                        Smoothing algorithm: York/Karplus (Gamma=1.0000).
                        Polarization charges: spherical gaussians, with
                                              point-specific exponents (IZeta= 3).
                        Self-potential: point-specific (ISelfS= 7).
                        Self-field    : sphere-specific E.n sum rule (ISelfD= 2).
 1st derivatives      : Analytical E(r).r(x)/FMM algorithm (CHGder, D1EAlg=3).
                        Cavity 1st derivative terms included.
 Solvent              : Benzene, Eps=   2.270600 Eps(inf)=   2.253301
 ------------------------------------------------------------------------------
 Spheres list:
 ISph  on   Nord     Re0    Alpha      Xe            Ye            Ze
    1   B      1    2.0415  1.100     -1.016096     -0.662773     -0.046531
    2   F      2    1.6820  1.100     -1.690543     -0.108984     -1.112683
    3   F      3    1.6820  1.100     -1.598030     -0.396802      1.181548
    4   F      4    1.6820  1.100     -0.710592     -1.995848     -0.237087
    5   O      5    1.7500  1.100      0.422274      0.103754     -0.014215
    6   C      6    1.9255  1.100      1.585330     -0.658386      0.447773
    7   C      7    1.9255  1.100      2.781954     -0.379260     -0.433375
    8   C      8    1.9255  1.100      0.420483      1.474202      0.507392
    9   C      9    1.9255  1.100     -0.477537      2.386882     -0.293479
   10   H     10    1.4430  1.100      1.756998     -0.387996      1.496942
   11   H     11    1.4430  1.100      1.289503     -1.705914      0.395128
   12   H     12    1.4430  1.100      3.618956     -0.999419     -0.087778
   13   H     13    1.4430  1.100      2.560675     -0.642736     -1.474336
   14   H     14    1.4430  1.100      3.099994      0.669702     -0.388955
   15   H     15    1.4430  1.100      0.119605      1.416374      1.560503
   16   H     16    1.4430  1.100      1.459730      1.809575      0.443568
   17   H     17    1.4430  1.100     -0.318247      3.408412      0.075677
   18   H     18    1.4430  1.100     -0.219232      2.355224     -1.358031
   19   H     19    1.4430  1.100     -1.534594      2.134684     -0.172207
 ------------------------------------------------------------------------------
 One-electron integrals computed using PRISM.
 NBasis=   297 RedAO= T EigKep=  2.61D-05  NBF=   297
 NBsUse=   297 1.00D-06 EigRej= -1.00D+00 NBFU=   297
 Initial guess from the checkpoint file:  "/inspire/hdd/project/materialscienceresearch/lipenghui-253107030018/g16/00-B-DFT-Shift/04-output/BF3OEt2_C6D6/BF3OEt2_C6D6.chk"
 B after Tr=    -0.000000    0.000000   -0.000000
         Rot=    0.999971   -0.005671   -0.005010    0.000992 Ang=  -0.87 deg.
 ExpMin= 2.38D-02 ExpMax= 1.47D+04 ExpMxC= 5.03D+02 IAcc=3 IRadAn=         5 AccDes= 0.00D+00
 Harris functional with IExCor= 4639 and IRadAn=       5 diagonalized for initial guess.
 HarFok:  IExCor= 4639 AccDes= 0.00D+00 IRadAn=         5 IDoV= 1 UseB2=F ITyADJ=14
 ICtDFT=  3500011 ScaDFX=  1.000000  1.000000  1.000000  1.000000
 FoFCou: FMM=F IPFlag=           0 FMFlag=      100000 FMFlg1=           0
         NFxFlg=           0 DoJE=T BraDBF=F KetDBF=T FulRan=T
         wScrn=  0.000000 ICntrl=       500 IOpCl=  0 I1Cent=   200000004 NGrid=           0
         NMat0=    1 NMatS0=      1 NMatT0=    0 NMatD0=    1 NMtDS0=    0 NMtDT0=    0
 Petite list used in FoFCou.
 Requested convergence on RMS density matrix=1.00D-08 within 128 cycles.
 Requested convergence on MAX density matrix=1.00D-06.
 Requested convergence on             energy=1.00D-06.
 No special actions if energy rises.
 Inv3:  Mode=1 IEnd=     6885675.
 Iteration    1 A*A^-1 deviation from unit magnitude is 5.77D-15 for   1515.
 Iteration    1 A*A^-1 deviation from orthogonality  is 2.99D-15 for   1481    906.
 Iteration    1 A^-1*A deviation from unit magnitude is 5.77D-15 for   1515.
 Iteration    1 A^-1*A deviation from orthogonality  is 1.57D-15 for   1506    772.
 Error on total polarization charges =  0.00639
 SCF Done:  E(RwB97XD) =  -558.145853592     A.U. after   11 cycles
            NFock= 11  Conv=0.43D-08     -V/T= 2.0060
 D1PCM: C-PCM CHGder 1st derivatives, ID1Alg=3 FixD1E=F DoIter=F DoCFld=F I1PDM=0.
 Calling FoFJK, ICntrl=      2127 FMM=F ISym2X=0 I1Cent= 0 IOpClX= 0 NMat=1 NMatS=1 NMatT=0.
 ***** Axes restored to original set *****
 -------------------------------------------------------------------
 Center     Atomic                   Forces (Hartrees/Bohr)
 Number     Number              X              Y              Z
 -------------------------------------------------------------------
      1        5           0.000212490   -0.000071587   -0.000084717
      2        9          -0.000042178   -0.000044890    0.000010403
      3        9           0.000046149   -0.000056299   -0.000084323
      4        9          -0.000002297    0.000218109   -0.000012029
      5        8          -0.000397066    0.000010308    0.000185698
      6        6           0.000412020    0.000432708   -0.000040145
      7        6          -0.000043105   -0.000028561   -0.000184483
      8        6          -0.000424664   -0.000423511   -0.000094397
      9        6           0.000080639    0.000031350   -0.000005694
     10        1           0.000158086    0.000010430    0.000179435
     11        1           0.000107074    0.000134368    0.000081566
     12        1           0.000086788    0.000004176    0.000051023
     13        1          -0.000043454   -0.000016553    0.000065783
     14        1           0.000028537   -0.000194613   -0.000219211
     15        1          -0.000067465    0.000005032   -0.000030562
     16        1          -0.000105122   -0.000032579    0.000226344
     17        1          -0.000010090   -0.000011674    0.000011005
     18        1          -0.000014291    0.000015492    0.000007909
     19        1           0.000017952    0.000018293   -0.000063606
 -------------------------------------------------------------------
 Cartesian Forces:  Max     0.000432708 RMS     0.000154265

 GradGradGradGradGradGradGradGradGradGradGradGradGradGradGradGradGradGrad
 Berny optimization.
 Using GEDIIS/GDIIS optimizer.
 FormGI is forming the generalized inverse of G from B-inverse, IUseBI=4.
 Internal  Forces:  Max     0.000740944 RMS     0.000188336
 Search for a local minimum.
 Step number  14 out of a maximum of   97
 All quantities printed in internal units (Hartrees-Bohrs-Radians)
 Mixed Optimization -- En-DIIS/RFO-DIIS
 Swapping is turned off.
 Update second derivatives using D2CorX and points    9   10   11   12   13
                                                     14
 DE=  3.23D-05 DEPred=-1.78D-05 R=-1.81D+00
 Trust test=-1.81D+00 RLast= 4.05D-01 DXMaxT set to 5.27D-01
 ITU= -1  0  1  1  1  1  1  1  1  1  1  1  1  0
     Eigenvalues ---    0.00200   0.00280   0.00368   0.01211   0.01327
     Eigenvalues ---    0.01992   0.04462   0.04806   0.05215   0.05319
     Eigenvalues ---    0.05396   0.05433   0.05771   0.05870   0.07125
     Eigenvalues ---    0.09702   0.10483   0.12812   0.12894   0.13172
     Eigenvalues ---    0.13444   0.15993   0.16013   0.16019   0.16065
     Eigenvalues ---    0.16382   0.16734   0.20185   0.21394   0.24081
     Eigenvalues ---    0.25265   0.25531   0.26321   0.28416   0.28545
     Eigenvalues ---    0.28723   0.29765   0.31862   0.31873   0.31964
     Eigenvalues ---    0.32063   0.32097   0.32154   0.32189   0.32199
     Eigenvalues ---    0.32587   0.32825   0.38124   0.40473   0.41241
     Eigenvalues ---    0.48017
 En-DIIS/RFO-DIIS/Sim-DIIS IScMMF=       -3 using points:    14   13   12   11   10    9    8    7    6
 RFO step:  Lambda=-1.60143164D-04.
 DIIS inversion failure, remove point   9.
 DIIS inversion failure, remove point   8.
 RFO-DIIS uses    7 points instead of    9
 EnCoef did   100 forward-backward iterations
 EnCoef did   100 forward-backward iterations
 EnCoef did   100 forward-backward iterations
 EnCoef did   100 forward-backward iterations
 EnCoef did   100 forward-backward iterations
 EnCoef did   100 forward-backward iterations
 EnCoef did   100 forward-backward iterations
 DidBck=T Rises=T En-DIIS coefs:    0.47124    0.52876    0.00000    0.00000    0.00000
                  En-DIIS coefs:    0.00000    0.00000    0.00000    0.00000
 Iteration  1 RMS(Cart)=  0.05931891 RMS(Int)=  0.00151929
 Iteration  2 RMS(Cart)=  0.00195017 RMS(Int)=  0.00001278
 Iteration  3 RMS(Cart)=  0.00000195 RMS(Int)=  0.00001271
 Iteration  4 RMS(Cart)=  0.00000000 RMS(Int)=  0.00001271
 Variable       Old X    -DE/DX   Delta X   Delta X   Delta X     New X
                                 (Linear)    (Quad)   (Total)
    R1        2.60360  -0.00005   0.00052   0.00020   0.00072   2.60432
    R2        2.61682  -0.00010   0.00015  -0.00032  -0.00017   2.61665
    R3        2.60942  -0.00015   0.00021  -0.00054  -0.00032   2.60909
    R4        3.08061  -0.00016  -0.00358  -0.00140  -0.00497   3.07564
    R5        2.76894  -0.00035  -0.00147   0.00069  -0.00078   2.76816
    R6        2.77101  -0.00054  -0.00093   0.00086  -0.00006   2.77095
    R7        2.85733   0.00029  -0.00011  -0.00049  -0.00060   2.85673
    R8        2.07297   0.00020  -0.00011  -0.00044  -0.00056   2.07241
    R9        2.05937  -0.00016  -0.00015   0.00078   0.00063   2.06000
   R10        2.07406  -0.00000  -0.00014   0.00038   0.00024   2.07430
   R11        2.07180  -0.00006  -0.00032   0.00012  -0.00020   2.07160
   R12        2.07306  -0.00008   0.00051   0.00005   0.00056   2.07362
   R13        2.85394   0.00009  -0.00015   0.00011  -0.00005   2.85389
   R14        2.07260  -0.00001  -0.00033   0.00006  -0.00028   2.07233
   R15        2.06714  -0.00007   0.00057   0.00005   0.00061   2.06776
   R16        2.07455  -0.00001  -0.00016   0.00022   0.00006   2.07461
   R17        2.07095  -0.00001   0.00017  -0.00002   0.00014   2.07109
   R18        2.06636  -0.00001   0.00005   0.00001   0.00006   2.06642
    A1        1.98597   0.00001  -0.00181   0.00063  -0.00118   1.98479
    A2        1.97095  -0.00014  -0.00023   0.00124   0.00100   1.97195
    A3        1.83202   0.00003   0.00019   0.00016   0.00035   1.83237
    A4        1.98317  -0.00004   0.00059   0.00006   0.00065   1.98382
    A5        1.83682  -0.00011   0.00062   0.00044   0.00106   1.83788
    A6        1.83534   0.00031   0.00095  -0.00295  -0.00200   1.83334
    A7        2.05108   0.00074   0.01057  -0.00132   0.00918   2.06026
    A8        2.03245  -0.00019  -0.00091   0.00455   0.00357   2.03602
    A9        1.95512  -0.00058  -0.00318   0.00562   0.00238   1.95750
   A10        1.92668   0.00033  -0.00577  -0.00048  -0.00625   1.92043
   A11        1.87294  -0.00017  -0.00075   0.00048  -0.00026   1.87267
   A12        1.84344  -0.00011   0.00419  -0.00042   0.00377   1.84721
   A13        1.96927   0.00009   0.00088   0.00004   0.00093   1.97020
   A14        1.94349  -0.00023   0.00227   0.00047   0.00273   1.94622
   A15        1.90246   0.00007  -0.00070  -0.00012  -0.00082   1.90164
   A16        1.89202  -0.00002   0.00263   0.00140   0.00403   1.89605
   A17        1.92754  -0.00014  -0.00070   0.00005  -0.00065   1.92689
   A18        1.96314   0.00043  -0.00259  -0.00208  -0.00467   1.95848
   A19        1.89347   0.00003   0.00150   0.00002   0.00152   1.89499
   A20        1.88226  -0.00019   0.00171  -0.00001   0.00171   1.88397
   A21        1.90366  -0.00012  -0.00233   0.00067  -0.00166   1.90201
   A22        1.95724   0.00009  -0.00187  -0.00008  -0.00195   1.95529
   A23        1.86775  -0.00012  -0.00053   0.00039  -0.00015   1.86761
   A24        1.83861   0.00001  -0.00067   0.00070   0.00003   1.83864
   A25        1.95835   0.00005   0.00116   0.00018   0.00135   1.95969
   A26        1.92698   0.00000   0.00268  -0.00161   0.00108   1.92806
   A27        1.91008  -0.00005  -0.00099   0.00051  -0.00047   1.90961
   A28        1.87312  -0.00003   0.00112   0.00076   0.00188   1.87500
   A29        1.93640   0.00000  -0.00070  -0.00050  -0.00120   1.93520
   A30        1.95695   0.00007  -0.00103   0.00037  -0.00066   1.95628
   A31        1.89582   0.00001   0.00068  -0.00021   0.00046   1.89628
   A32        1.89398  -0.00001   0.00064  -0.00022   0.00043   1.89441
   A33        1.90596  -0.00005  -0.00060  -0.00020  -0.00080   1.90516
    D1       -2.57368  -0.00016   0.01040   0.00638   0.01678  -2.55690
    D2        1.31836   0.00011   0.00324  -0.00744  -0.00420   1.31416
    D3        1.60865  -0.00013   0.01209   0.00538   0.01746   1.62611
    D4       -0.78249   0.00015   0.00492  -0.00844  -0.00352  -0.78601
    D5       -0.49058  -0.00017   0.01066   0.00650   0.01716  -0.47342
    D6       -2.88172   0.00010   0.00350  -0.00732  -0.00382  -2.88554
    D7        2.39921  -0.00032  -0.06673  -0.02341  -0.09014   2.30908
    D8       -1.73147  -0.00011  -0.06965  -0.02334  -0.09301  -1.82448
    D9        0.29637  -0.00017  -0.06877  -0.02346  -0.09224   0.20413
   D10       -1.46137  -0.00045  -0.05930  -0.01045  -0.06973  -1.53110
   D11        0.69113  -0.00025  -0.06222  -0.01038  -0.07260   0.61853
   D12        2.71897  -0.00030  -0.06134  -0.01050  -0.07184   2.64714
   D13       -1.04129   0.00001  -0.03181   0.00030  -0.03150  -1.07278
   D14        1.11331   0.00006  -0.03191   0.00075  -0.03115   1.08216
   D15       -3.13803  -0.00005  -0.03360   0.00185  -0.03174   3.11341
   D16        2.81106  -0.00027  -0.04417  -0.00990  -0.05408   2.75697
   D17       -1.31753  -0.00022  -0.04428  -0.00945  -0.05374  -1.37126
   D18        0.71432  -0.00033  -0.04597  -0.00835  -0.05433   0.65999
   D19       -3.09679   0.00004  -0.03696  -0.00063  -0.03760  -3.13439
   D20       -1.02459  -0.00002  -0.03395   0.00028  -0.03368  -1.05827
   D21        1.10670   0.00002  -0.03924  -0.00028  -0.03952   1.06718
   D22        1.09092  -0.00003  -0.03258  -0.00094  -0.03352   1.05741
   D23       -3.12006  -0.00009  -0.02957  -0.00003  -0.02959   3.13353
   D24       -0.98877  -0.00005  -0.03485  -0.00058  -0.03543  -1.02421
   D25       -1.05500  -0.00002  -0.03402  -0.00116  -0.03519  -1.09018
   D26        1.01721  -0.00008  -0.03101  -0.00025  -0.03127   0.98594
   D27       -3.13469  -0.00004  -0.03630  -0.00081  -0.03710   3.11139
   D28       -3.01242  -0.00004   0.00241  -0.00543  -0.00302  -3.01544
   D29       -0.94374  -0.00005   0.00352  -0.00551  -0.00200  -0.94574
   D30        1.19255  -0.00006   0.00151  -0.00587  -0.00436   1.18819
   D31        1.16791   0.00001   0.00361  -0.00601  -0.00240   1.16551
   D32       -3.04660   0.00000   0.00472  -0.00609  -0.00137  -3.04797
   D33       -0.91031  -0.00001   0.00271  -0.00644  -0.00374  -0.91404
   D34       -0.96790   0.00003   0.00213  -0.00564  -0.00351  -0.97140
   D35        1.10079   0.00003   0.00324  -0.00573  -0.00248   1.09830
   D36       -3.04611   0.00002   0.00123  -0.00608  -0.00485  -3.05095
         Item               Value     Threshold  Converged?
 Maximum Force            0.000741     0.000450     NO 
 RMS     Force            0.000188     0.000300     YES
 Maximum Displacement     0.227898     0.001800     NO 
 RMS     Displacement     0.059563     0.001200     NO 
 Predicted change in Energy=-8.507422D-05
 GradGradGradGradGradGradGradGradGradGradGradGradGradGradGradGradGradGrad

                          Input orientation:                          
 ---------------------------------------------------------------------
 Center     Atomic      Atomic             Coordinates (Angstroms)
 Number     Number       Type             X           Y           Z
 ---------------------------------------------------------------------
      1          5           0       -1.806870    0.680171   -0.186049
      2          9           0       -1.601824    1.683263   -1.108572
      3          9           0       -2.122120    1.143747    1.080057
      4          9           0       -2.657785   -0.306574   -0.642707
      5          8           0       -0.360344   -0.049029   -0.028652
      6          6           0       -0.340360   -1.490720    0.230006
      7          6           0        0.641435   -2.169682   -0.697556
      8          6           0        0.655869    0.666544    0.749404
      9          6           0        1.008168    1.998798    0.131561
     10          1           0       -0.091647   -1.628537    1.289174
     11          1           0       -1.359116   -1.838086    0.057383
     12          1           0        0.632603   -3.247447   -0.489651
     13          1           0        0.350473   -2.013291   -1.742845
     14          1           0        1.666837   -1.806164   -0.554367
     15          1           0        0.264655    0.771263    1.768511
     16          1           0        1.529076    0.007249    0.761010
     17          1           0        1.858581    2.407105    0.693103
     18          1           0        1.306035    1.876948   -0.916097
     19          1           0        0.179873    2.710423    0.188702
 ---------------------------------------------------------------------
                    Distance matrix (angstroms):
                    1          2          3          4          5
     1  B    0.000000
     2  F    1.378145   0.000000
     3  F    1.384670   2.313414   0.000000
     4  F    1.380674   2.300333   2.314797   0.000000
     5  O    1.627557   2.389212   2.399126   2.391992   0.000000
     6  C    2.652644   3.668412   3.292062   2.744865   1.464847
     7  C    3.791767   4.477313   4.666472   3.789331   2.438886
     8  C    2.634453   3.095637   2.838006   3.723605   1.466324
     9  C    3.124754   2.906811   3.380748   4.399254   2.468215
    10  H    3.232399   4.358651   3.442689   3.473444   2.074539
    11  H    2.569312   3.717292   3.243358   2.126545   2.050774
    12  H    4.633507   5.448636   5.416186   4.415746   3.380584
    13  H    3.785826   4.228271   4.904017   3.629435   2.702230
    14  H    4.287675   4.813251   5.072427   4.578092   2.733745
    15  H    2.849529   3.548675   2.511854   3.939081   2.072028
    16  H    3.532461   4.013339   3.837272   4.427042   2.048571
    17  H    4.146171   3.967919   4.194257   5.435623   3.387794
    18  H    3.414003   2.920651   4.034162   4.533693   2.696991
    19  H    2.865224   2.431548   2.923724   4.224431   2.820222
                    6          7          8          9         10
     6  C    0.000000
     7  C    1.511715   0.000000
     8  C    2.432289   3.184034   0.000000
     9  C    3.742319   4.265929   1.510213   0.000000
    10  H    1.096672   2.185714   2.473363   3.963233   0.000000
    11  H    1.090104   2.163814   3.288195   4.509015   1.779803
    12  H    2.133226   1.097671   4.105499   5.296229   2.511897
    13  H    2.154639   1.096242   3.672340   4.476920   3.088146
    14  H    2.177977   1.097313   2.972568   3.921999   2.553911
    15  H    2.801716   3.856502   1.096629   2.176983   2.473005
    16  H    2.453704   2.766649   1.094210   2.152631   2.362518
    17  H    4.499204   4.935823   2.116421   1.097837   4.521625
    18  H    3.919866   4.106661   2.159094   1.095974   4.370945
    19  H    4.233432   4.981357   2.172188   1.093502   4.484566
                   11         12         13         14         15
    11  H    0.000000
    12  H    2.500498   0.000000
    13  H    2.488817   1.781357   0.000000
    14  H    3.087336   1.775141   1.785551   0.000000
    15  H    3.517570   4.624361   4.482268   3.742327   0.000000
    16  H    3.498857   3.600119   3.426510   2.244473   1.788166
    17  H    5.364640   5.905581   5.267649   4.398247   2.524496
    18  H    4.674630   5.186019   4.090302   3.718379   3.084498
    19  H    4.803610   6.013430   5.106217   4.812772   2.502663
                   16         17         18         19
    16  H    0.000000
    17  H    2.423323   0.000000
    18  H    2.521549   1.782104   0.000000
    19  H    3.074904   1.778899   1.784237   0.000000
 Stoichiometry    C4H10BF3O
 Framework group  C1[X(C4H10BF3O)]
 Deg. of freedom    51
 Full point group                 C1      NOp   1
 Largest Abelian subgroup         C1      NOp   1
 Largest concise Abelian subgroup C1      NOp   1
                         Standard orientation:                         
 ---------------------------------------------------------------------
 Center     Atomic      Atomic             Coordinates (Angstroms)
 Number     Number       Type             X           Y           Z
 ---------------------------------------------------------------------
      1          5           0       -1.002819   -0.675538   -0.049391
      2          9           0       -1.663732   -0.133132   -1.130258
      3          9           0       -1.619254   -0.422967    1.164497
      4          9           0       -0.664808   -2.001404   -0.234020
      5          8           0        0.417133    0.117115    0.016785
      6          6           0        1.595390   -0.618344    0.482175
      7          6           0        2.755680   -0.386213   -0.458636
      8          6           0        0.381385    1.488674    0.534138
      9          6           0       -0.477548    2.393073   -0.317356
     10          1           0        1.803685   -0.286002    1.506309
     11          1           0        1.301747   -1.667941    0.503313
     12          1           0        3.622205   -0.952349   -0.093252
     13          1           0        2.507314   -0.739589   -1.466200
     14          1           0        3.041253    0.671949   -0.511913
     15          1           0        0.025619    1.431612    1.569884
     16          1           0        1.421348    1.828804    0.525031
     17          1           0       -0.347759    3.417196    0.056238
     18          1           0       -0.160134    2.359639   -1.365826
     19          1           0       -1.537545    2.131841   -0.254814
 ---------------------------------------------------------------------
 Rotational constants (GHZ):           1.7580118           1.4062706           0.9999846
 Standard basis: Aug-CC-pVDZ (5D, 7F)
 There are   315 symmetry adapted cartesian basis functions of A   symmetry.
 There are   297 symmetry adapted basis functions of A   symmetry.
   297 basis functions,   497 primitive gaussians,   315 cartesian basis functions
    37 alpha electrons       37 beta electrons
       nuclear repulsion energy       523.5674846929 Hartrees.
 NAtoms=   19 NActive=   19 NUniq=   19 SFac= 1.00D+00 NAtFMM=   60 NAOKFM=F Big=F
 Integral buffers will be    131072 words long.
 Raffenetti 2 integral format.
 Two-electron integral symmetry is turned on.
 Nuclear repulsion after empirical dispersion term =      523.5554698187 Hartrees.
 Force PCM accuracy= 1.00D-12.
 ------------------------------------------------------------------------------
 Polarizable Continuum Model (PCM)
 =================================
 Model                : C-PCM.
 Atomic radii         : UFF (Universal Force Field).
 Polarization charges : Total charges.
 Charge compensation  : None.
 Solution method      : On-the-fly selection.
 Cavity type          : Scaled VdW (van der Waals Surface) (Alpha=1.100).
 Cavity algorithm     : GePol (No added spheres)
                        Default sphere list used, NSphG=   19.
                        Lebedev-Laikov grids with approx.  5.0 points / Ang**2.
                        Smoothing algorithm: York/Karplus (Gamma=1.0000).
                        Polarization charges: spherical gaussians, with
                                              point-specific exponents (IZeta= 3).
                        Self-potential: point-specific (ISelfS= 7).
                        Self-field    : sphere-specific E.n sum rule (ISelfD= 2).
 1st derivatives      : Analytical E(r).r(x)/FMM algorithm (CHGder, D1EAlg=3).
                        Cavity 1st derivative terms included.
 Solvent              : Benzene, Eps=   2.270600 Eps(inf)=   2.253301
 ------------------------------------------------------------------------------
 Spheres list:
 ISph  on   Nord     Re0    Alpha      Xe            Ye            Ze
    1   B      1    2.0415  1.100     -1.002819     -0.675538     -0.049391
    2   F      2    1.6820  1.100     -1.663732     -0.133132     -1.130258
    3   F      3    1.6820  1.100     -1.619254     -0.422967      1.164497
    4   F      4    1.6820  1.100     -0.664808     -2.001404     -0.234020
    5   O      5    1.7500  1.100      0.417133      0.117115      0.016785
    6   C      6    1.9255  1.100      1.595390     -0.618344      0.482175
    7   C      7    1.9255  1.100      2.755680     -0.386213     -0.458636
    8   C      8    1.9255  1.100      0.381385      1.488674      0.534138
    9   C      9    1.9255  1.100     -0.477548      2.393073     -0.317356
   10   H     10    1.4430  1.100      1.803685     -0.286002      1.506309
   11   H     11    1.4430  1.100      1.301747     -1.667941      0.503313
   12   H     12    1.4430  1.100      3.622205     -0.952349     -0.093252
   13   H     13    1.4430  1.100      2.507314     -0.739589     -1.466200
   14   H     14    1.4430  1.100      3.041253      0.671949     -0.511913
   15   H     15    1.4430  1.100      0.025619      1.431612      1.569884
   16   H     16    1.4430  1.100      1.421348      1.828804      0.525031
   17   H     17    1.4430  1.100     -0.347759      3.417196      0.056238
   18   H     18    1.4430  1.100     -0.160134      2.359639     -1.365826
   19   H     19    1.4430  1.100     -1.537545      2.131841     -0.254814
 ------------------------------------------------------------------------------
 One-electron integrals computed using PRISM.
 NBasis=   297 RedAO= T EigKep=  2.69D-05  NBF=   297
 NBsUse=   297 1.00D-06 EigRej= -1.00D+00 NBFU=   297
 Initial guess from the checkpoint file:  "/inspire/hdd/project/materialscienceresearch/lipenghui-253107030018/g16/00-B-DFT-Shift/04-output/BF3OEt2_C6D6/BF3OEt2_C6D6.chk"
 B after Tr=     0.000000   -0.000000    0.000000
         Rot=    0.999978    0.002997    0.003438   -0.004801 Ang=   0.76 deg.
 ExpMin= 2.38D-02 ExpMax= 1.47D+04 ExpMxC= 5.03D+02 IAcc=3 IRadAn=         5 AccDes= 0.00D+00
 Harris functional with IExCor= 4639 and IRadAn=       5 diagonalized for initial guess.
 HarFok:  IExCor= 4639 AccDes= 0.00D+00 IRadAn=         5 IDoV= 1 UseB2=F ITyADJ=14
 ICtDFT=  3500011 ScaDFX=  1.000000  1.000000  1.000000  1.000000
 FoFCou: FMM=F IPFlag=           0 FMFlag=      100000 FMFlg1=           0
         NFxFlg=           0 DoJE=T BraDBF=F KetDBF=T FulRan=T
         wScrn=  0.000000 ICntrl=       500 IOpCl=  0 I1Cent=   200000004 NGrid=           0
         NMat0=    1 NMatS0=      1 NMatT0=    0 NMatD0=    1 NMtDS0=    0 NMtDT0=    0
 Petite list used in FoFCou.
 Requested convergence on RMS density matrix=1.00D-08 within 128 cycles.
 Requested convergence on MAX density matrix=1.00D-06.
 Requested convergence on             energy=1.00D-06.
 No special actions if energy rises.
 Inv3:  Mode=1 IEnd=     7022700.
 Iteration    1 A*A^-1 deviation from unit magnitude is 3.77D-15 for   1498.
 Iteration    1 A*A^-1 deviation from orthogonality  is 2.06D-15 for   1509   1144.
 Iteration    1 A^-1*A deviation from unit magnitude is 3.77D-15 for   1498.
 Iteration    1 A^-1*A deviation from orthogonality  is 1.66D-15 for   1204    198.
 Error on total polarization charges =  0.00640
 SCF Done:  E(RwB97XD) =  -558.145955443     A.U. after   11 cycles
            NFock= 11  Conv=0.28D-08     -V/T= 2.0060
 D1PCM: C-PCM CHGder 1st derivatives, ID1Alg=3 FixD1E=F DoIter=F DoCFld=F I1PDM=0.
 Calling FoFJK, ICntrl=      2127 FMM=F ISym2X=0 I1Cent= 0 IOpClX= 0 NMat=1 NMatS=1 NMatT=0.
 ***** Axes restored to original set *****
 -------------------------------------------------------------------
 Center     Atomic                   Forces (Hartrees/Bohr)
 Number     Number              X              Y              Z
 -------------------------------------------------------------------
      1        5           0.000302079   -0.000111182   -0.000135586
      2        9          -0.000090201   -0.000029409    0.000062275
      3        9           0.000007795    0.000025855   -0.000038666
      4        9          -0.000219386    0.000138975   -0.000124489
      5        8           0.000086946    0.000168281    0.000514772
      6        6          -0.000094225    0.000221692   -0.000148493
      7        6           0.000053325   -0.000064830   -0.000032221
      8        6          -0.000287018   -0.000353165   -0.000255389
      9        6          -0.000046789    0.000038763   -0.000024380
     10        1           0.000097536    0.000035929    0.000068716
     11        1           0.000205907    0.000027460    0.000124483
     12        1           0.000004717    0.000050130   -0.000018191
     13        1           0.000005517    0.000009116    0.000019956
     14        1           0.000016327   -0.000057873   -0.000031047
     15        1          -0.000003094   -0.000040379    0.000017859
     16        1          -0.000021639   -0.000032270    0.000002036
     17        1          -0.000037448   -0.000044400    0.000005905
     18        1          -0.000004582    0.000010440   -0.000005940
     19        1           0.000024232    0.000006866   -0.000001600
 -------------------------------------------------------------------
 Cartesian Forces:  Max     0.000514772 RMS     0.000130821

 GradGradGradGradGradGradGradGradGradGradGradGradGradGradGradGradGradGrad
 Berny optimization.
 Using GEDIIS/GDIIS optimizer.
 FormGI is forming the generalized inverse of G from B-inverse, IUseBI=4.
 Internal  Forces:  Max     0.000606412 RMS     0.000125856
 Search for a local minimum.
 Step number  15 out of a maximum of   97
 All quantities printed in internal units (Hartrees-Bohrs-Radians)
 Mixed Optimization -- En-DIIS/RFO-DIIS
 Swapping is turned off.
 Update second derivatives using D2CorX and points   10   11   12   13   14
                                                     15
 DE= -1.02D-04 DEPred=-8.51D-05 R= 1.20D+00
 TightC=F SS=  1.41D+00  RLast= 2.54D-01 DXNew= 8.8669D-01 7.6221D-01
 Trust test= 1.20D+00 RLast= 2.54D-01 DXMaxT set to 7.62D-01
 ITU=  1 -1  0  1  1  1  1  1  1  1  1  1  1  1  0
     Eigenvalues ---    0.00187   0.00279   0.00324   0.01180   0.01263
     Eigenvalues ---    0.01909   0.04485   0.04875   0.05243   0.05325
     Eigenvalues ---    0.05402   0.05464   0.05747   0.05859   0.06982
     Eigenvalues ---    0.09672   0.10439   0.12790   0.12888   0.13195
     Eigenvalues ---    0.13479   0.15982   0.16004   0.16018   0.16076
     Eigenvalues ---    0.16366   0.16706   0.19990   0.21548   0.24085
     Eigenvalues ---    0.25279   0.25573   0.27619   0.28491   0.28641
     Eigenvalues ---    0.28968   0.30044   0.31865   0.31961   0.31986
     Eigenvalues ---    0.32093   0.32146   0.32175   0.32189   0.32256
     Eigenvalues ---    0.32650   0.32829   0.38266   0.40745   0.42242
     Eigenvalues ---    0.47838
 En-DIIS/RFO-DIIS/Sim-DIIS IScMMF=       -3 using points:    15   14   13   12   11   10    9    8    7    6
 RFO step:  Lambda=-1.22569037D-05.
 DIIS inversion failure, remove point  10.
 DIIS inversion failure, remove point   9.
 RFO-DIIS uses    8 points instead of   10
 DidBck=F Rises=F RFO-DIIS coefs:    1.07914    0.69008    0.04544   -0.42154   -0.76982
                  RFO-DIIS coefs:    0.44746    0.36831   -0.43908    0.00000    0.00000
 Iteration  1 RMS(Cart)=  0.05186199 RMS(Int)=  0.00118768
 Iteration  2 RMS(Cart)=  0.00151973 RMS(Int)=  0.00007833
 Iteration  3 RMS(Cart)=  0.00000119 RMS(Int)=  0.00007832
 Iteration  4 RMS(Cart)=  0.00000000 RMS(Int)=  0.00007832
 Variable       Old X    -DE/DX   Delta X   Delta X   Delta X     New X
                                 (Linear)    (Quad)   (Total)
    R1        2.60432  -0.00008   0.00087  -0.00043   0.00044   2.60476
    R2        2.61665  -0.00003   0.00044  -0.00060  -0.00016   2.61649
    R3        2.60909   0.00008   0.00020   0.00011   0.00031   2.60940
    R4        3.07564   0.00003  -0.00192  -0.00033  -0.00225   3.07339
    R5        2.76816  -0.00021  -0.00013  -0.00102  -0.00115   2.76701
    R6        2.77095  -0.00061   0.00021  -0.00178  -0.00156   2.76939
    R7        2.85673   0.00011  -0.00040   0.00013  -0.00027   2.85645
    R8        2.07241   0.00009  -0.00058   0.00034  -0.00023   2.07218
    R9        2.06000  -0.00022   0.00030  -0.00057  -0.00026   2.05973
   R10        2.07430  -0.00005   0.00024  -0.00020   0.00005   2.07434
   R11        2.07160  -0.00002  -0.00027   0.00000  -0.00027   2.07133
   R12        2.07362  -0.00001   0.00039   0.00014   0.00054   2.07416
   R13        2.85389   0.00001   0.00018  -0.00031  -0.00013   2.85376
   R14        2.07233   0.00001  -0.00037   0.00015  -0.00022   2.07210
   R15        2.06776   0.00000   0.00026   0.00036   0.00062   2.06838
   R16        2.07461  -0.00004   0.00006  -0.00013  -0.00007   2.07455
   R17        2.07109   0.00001   0.00017   0.00000   0.00017   2.07126
   R18        2.06642  -0.00001   0.00021  -0.00014   0.00007   2.06649
    A1        1.98479  -0.00011  -0.00101  -0.00085  -0.00182   1.98297
    A2        1.97195  -0.00024   0.00047  -0.00072  -0.00022   1.97173
    A3        1.83237   0.00007  -0.00114   0.00122   0.00012   1.83249
    A4        1.98382  -0.00011   0.00050   0.00007   0.00059   1.98441
    A5        1.83788  -0.00004   0.00123  -0.00078   0.00047   1.83835
    A6        1.83334   0.00053  -0.00025   0.00140   0.00118   1.83451
    A7        2.06026   0.00042   0.00948   0.00193   0.01119   2.07145
    A8        2.03602   0.00002   0.00336   0.00017   0.00312   2.03913
    A9        1.95750  -0.00040   0.00259  -0.00278  -0.00062   1.95689
   A10        1.92043   0.00007  -0.00552  -0.00025  -0.00577   1.91465
   A11        1.87267  -0.00007  -0.00057  -0.00076  -0.00136   1.87131
   A12        1.84721   0.00002   0.00351   0.00097   0.00448   1.85169
   A13        1.97020  -0.00001   0.00122  -0.00067   0.00055   1.97075
   A14        1.94622  -0.00003   0.00158   0.00105   0.00268   1.94891
   A15        1.90164   0.00001  -0.00018  -0.00030  -0.00048   1.90116
   A16        1.89605  -0.00001   0.00308   0.00007   0.00315   1.89920
   A17        1.92689  -0.00003  -0.00145   0.00060  -0.00089   1.92600
   A18        1.95848   0.00009  -0.00164  -0.00130  -0.00296   1.95552
   A19        1.89499   0.00000   0.00098   0.00020   0.00118   1.89616
   A20        1.88397  -0.00004  -0.00010   0.00116   0.00108   1.88505
   A21        1.90201  -0.00003  -0.00066  -0.00068  -0.00138   1.90062
   A22        1.95529  -0.00003  -0.00308   0.00067  -0.00241   1.95288
   A23        1.86761   0.00000   0.00020  -0.00051  -0.00031   1.86730
   A24        1.83864  -0.00002   0.00026  -0.00068  -0.00042   1.83821
   A25        1.95969   0.00002   0.00114   0.00018   0.00133   1.96103
   A26        1.92806   0.00005   0.00111   0.00076   0.00187   1.92993
   A27        1.90961  -0.00002   0.00027  -0.00053  -0.00023   1.90938
   A28        1.87500  -0.00006   0.00230  -0.00100   0.00130   1.87631
   A29        1.93520   0.00002  -0.00073  -0.00001  -0.00075   1.93445
   A30        1.95628   0.00004  -0.00036  -0.00021  -0.00056   1.95572
   A31        1.89628   0.00002  -0.00025   0.00063   0.00039   1.89667
   A32        1.89441   0.00001  -0.00080   0.00094   0.00014   1.89455
   A33        1.90516  -0.00002  -0.00014  -0.00030  -0.00044   1.90472
    D1       -2.55690  -0.00013   0.01502  -0.00242   0.01269  -2.54421
    D2        1.31416  -0.00001  -0.00555  -0.00036  -0.00600   1.30817
    D3        1.62611  -0.00002   0.01606  -0.00167   0.01448   1.64060
    D4       -0.78601   0.00010  -0.00451   0.00040  -0.00420  -0.79021
    D5       -0.47342  -0.00013   0.01499  -0.00204   0.01303  -0.46038
    D6       -2.88554  -0.00001  -0.00558   0.00003  -0.00565  -2.89119
    D7        2.30908  -0.00007  -0.08183   0.00051  -0.08141   2.22766
    D8       -1.82448  -0.00007  -0.08405  -0.00096  -0.08510  -1.90957
    D9        0.20413  -0.00009  -0.08287  -0.00119  -0.08411   0.12002
   D10       -1.53110  -0.00003  -0.06202  -0.00041  -0.06237  -1.59347
   D11        0.61853  -0.00004  -0.06424  -0.00187  -0.06605   0.55248
   D12        2.64714  -0.00005  -0.06306  -0.00210  -0.06506   2.58207
   D13       -1.07278   0.00013  -0.02361   0.00081  -0.02289  -1.09567
   D14        1.08216   0.00013  -0.02399   0.00111  -0.02296   1.05921
   D15        3.11341   0.00010  -0.02342  -0.00006  -0.02357   3.08985
   D16        2.75697  -0.00008  -0.04608   0.00093  -0.04507   2.71191
   D17       -1.37126  -0.00007  -0.04646   0.00123  -0.04514  -1.41640
   D18        0.65999  -0.00011  -0.04589   0.00007  -0.04574   0.61424
   D19       -3.13439  -0.00002  -0.02918  -0.00025  -0.02944   3.11935
   D20       -1.05827  -0.00003  -0.02699   0.00039  -0.02660  -1.08487
   D21        1.06718  -0.00002  -0.03011  -0.00095  -0.03104   1.03615
   D22        1.05741   0.00002  -0.02540   0.00134  -0.02408   1.03333
   D23        3.13353   0.00001  -0.02320   0.00199  -0.02124   3.11229
   D24       -1.02421   0.00002  -0.02633   0.00065  -0.02567  -1.04988
   D25       -1.09018   0.00004  -0.02734   0.00143  -0.02591  -1.11609
   D26        0.98594   0.00002  -0.02515   0.00208  -0.02307   0.96287
   D27        3.11139   0.00004  -0.02827   0.00074  -0.02750   3.08389
   D28       -3.01544   0.00000  -0.00132  -0.00071  -0.00203  -3.01747
   D29       -0.94574  -0.00000  -0.00064  -0.00056  -0.00120  -0.94693
   D30        1.18819   0.00001  -0.00161  -0.00110  -0.00271   1.18549
   D31        1.16551   0.00001  -0.00019  -0.00066  -0.00086   1.16465
   D32       -3.04797   0.00001   0.00049  -0.00051  -0.00002  -3.04799
   D33       -0.91404   0.00002  -0.00048  -0.00105  -0.00154  -0.91558
   D34       -0.97140  -0.00001  -0.00221  -0.00065  -0.00286  -0.97426
   D35        1.09830  -0.00002  -0.00153  -0.00050  -0.00202   1.09628
   D36       -3.05095  -0.00000  -0.00251  -0.00104  -0.00354  -3.05449
         Item               Value     Threshold  Converged?
 Maximum Force            0.000606     0.000450     NO 
 RMS     Force            0.000126     0.000300     YES
 Maximum Displacement     0.197837     0.001800     NO 
 RMS     Displacement     0.052032     0.001200     NO 
 Predicted change in Energy=-2.858684D-05
 GradGradGradGradGradGradGradGradGradGradGradGradGradGradGradGradGradGrad

                          Input orientation:                          
 ---------------------------------------------------------------------
 Center     Atomic      Atomic             Coordinates (Angstroms)
 Number     Number       Type             X           Y           Z
 ---------------------------------------------------------------------
      1          5           0       -1.803220    0.668851   -0.202876
      2          9           0       -1.581551    1.665827   -1.128526
      3          9           0       -2.151245    1.143108    1.050533
      4          9           0       -2.638633   -0.325679   -0.671604
      5          8           0       -0.357923   -0.050070   -0.004522
      6          6           0       -0.319000   -1.491329    0.250919
      7          6           0        0.617340   -2.157760   -0.730906
      8          6           0        0.640053    0.677381    0.784490
      9          6           0        1.022808    1.987516    0.138283
     10          1           0       -0.011169   -1.627826    1.294483
     11          1           0       -1.342931   -1.846499    0.134979
     12          1           0        0.653149   -3.232832   -0.512102
     13          1           0        0.255034   -2.020772   -1.756286
     14          1           0        1.638850   -1.762698   -0.659058
     15          1           0        0.217875    0.814472    1.787141
     16          1           0        1.505472    0.009781    0.842578
     17          1           0        1.858069    2.407815    0.713486
     18          1           0        1.352234    1.830857   -0.895299
     19          1           0        0.198325    2.705838    0.146702
 ---------------------------------------------------------------------
                    Distance matrix (angstroms):
                    1          2          3          4          5
     1  B    0.000000
     2  F    1.378378   0.000000
     3  F    1.384585   2.312160   0.000000
     4  F    1.380837   2.300499   2.315305   0.000000
     5  O    1.626369   2.388504   2.398503   2.392195   0.000000
     6  C    2.659928   3.669405   3.307077   2.755083   1.464238
     7  C    3.758677   4.428661   4.662008   3.736495   2.433337
     8  C    2.635251   3.093894   2.842362   3.725066   1.465497
     9  C    3.137149   2.913928   3.408789   4.406012   2.465476
    10  H    3.275402   4.380094   3.509631   3.530531   2.072912
    11  H    2.579341   3.740296   3.229452   2.154603   2.053499
    12  H    4.620876   5.419476   5.427274   4.394634   3.377850
    13  H    3.726065   4.166310   4.866060   3.524653   2.707038
    14  H    4.238912   4.727173   5.072595   4.512431   2.710832
    15  H    2.840105   3.530418   2.502663   3.937640   2.070998
    16  H    3.531967   4.019633   3.833961   4.424804   2.047780
    17  H    4.155568   3.971717   4.217545   5.441579   3.386348
    18  H    3.433161   2.947664   4.066156   4.541773   2.693698
    19  H    2.877100   2.424002   2.963025   4.231790   2.815548
                    6          7          8          9         10
     6  C    0.000000
     7  C    1.511569   0.000000
     8  C    2.430594   3.214804   0.000000
     9  C    3.730349   4.254787   1.510145   0.000000
    10  H    1.096549   2.185876   2.449115   3.934032   0.000000
    11  H    1.089964   2.165479   3.274761   4.505153   1.779286
    12  H    2.135440   1.097696   4.119598   5.273678   2.506215
    13  H    2.153763   1.096100   3.726099   4.499471   3.087468
    14  H    2.175977   1.097597   3.005896   3.883216   2.560679
    15  H    2.822221   3.915903   1.096511   2.177770   2.501997
    16  H    2.435589   2.821855   1.094538   2.154166   2.277318
    17  H    4.489646   4.946732   2.117311   1.097802   4.485310
    18  H    3.891499   4.059084   2.158565   1.096064   4.314685
    19  H    4.230213   4.959875   2.171758   1.093540   4.487977
                   11         12         13         14         15
    11  H    0.000000
    12  H    2.514949   0.000000
    13  H    2.482085   1.782015   0.000000
    14  H    3.086832   1.776090   1.784785   0.000000
    15  H    3.499503   4.675109   4.538266   3.826860   0.000000
    16  H    3.472733   3.616096   3.527157   2.326883   1.788192
    17  H    5.355395   5.896676   5.318071   4.396034   2.526205
    18  H    4.674220   5.126061   4.096363   3.612699   3.084687
    19  H    4.806181   5.992386   5.095627   4.763630   2.503735
                   16         17         18         19
    16  H    0.000000
    17  H    2.427253   0.000000
    18  H    2.521907   1.782397   0.000000
    19  H    3.075971   1.778991   1.784058   0.000000
 Stoichiometry    C4H10BF3O
 Framework group  C1[X(C4H10BF3O)]
 Deg. of freedom    51
 Full point group                 C1      NOp   1
 Largest Abelian subgroup         C1      NOp   1
 Largest concise Abelian subgroup C1      NOp   1
                         Standard orientation:                         
 ---------------------------------------------------------------------
 Center     Atomic      Atomic             Coordinates (Angstroms)
 Number     Number       Type             X           Y           Z
 ---------------------------------------------------------------------
      1          5           0       -0.992211   -0.684741   -0.050788
      2          9           0       -1.640776   -0.150163   -1.143268
      3          9           0       -1.636417   -0.441610    1.150446
      4          9           0       -0.633111   -2.005901   -0.230500
      5          8           0        0.413571    0.127690    0.043076
      6          6           0        1.605438   -0.581853    0.512110
      7          6           0        2.730898   -0.398892   -0.480214
      8          6           0        0.351719    1.500035    0.553491
      9          6           0       -0.474134    2.395914   -0.338647
     10          1           0        1.845906   -0.189753    1.507525
     11          1           0        1.316894   -1.628841    0.604736
     12          1           0        3.622533   -0.916762   -0.103738
     13          1           0        2.458088   -0.830902   -1.449944
     14          1           0        2.987361    0.658890   -0.621785
     15          1           0       -0.047167    1.444850    1.573383
     16          1           0        1.390559    1.843067    0.587482
     17          1           0       -0.367523    3.422713    0.034831
     18          1           0       -0.110791    2.358924   -1.372073
     19          1           0       -1.534170    2.127844   -0.321618
 ---------------------------------------------------------------------
 Rotational constants (GHZ):           1.7443574           1.4142743           1.0046899
 Standard basis: Aug-CC-pVDZ (5D, 7F)
 There are   315 symmetry adapted cartesian basis functions of A   symmetry.
 There are   297 symmetry adapted basis functions of A   symmetry.
   297 basis functions,   497 primitive gaussians,   315 cartesian basis functions
    37 alpha electrons       37 beta electrons
       nuclear repulsion energy       523.5784870049 Hartrees.
 NAtoms=   19 NActive=   19 NUniq=   19 SFac= 1.00D+00 NAtFMM=   60 NAOKFM=F Big=F
 Integral buffers will be    131072 words long.
 Raffenetti 2 integral format.
 Two-electron integral symmetry is turned on.
 Nuclear repulsion after empirical dispersion term =      523.5664620149 Hartrees.
 Force PCM accuracy= 1.00D-12.
 ------------------------------------------------------------------------------
 Polarizable Continuum Model (PCM)
 =================================
 Model                : C-PCM.
 Atomic radii         : UFF (Universal Force Field).
 Polarization charges : Total charges.
 Charge compensation  : None.
 Solution method      : On-the-fly selection.
 Cavity type          : Scaled VdW (van der Waals Surface) (Alpha=1.100).
 Cavity algorithm     : GePol (No added spheres)
                        Default sphere list used, NSphG=   19.
                        Lebedev-Laikov grids with approx.  5.0 points / Ang**2.
                        Smoothing algorithm: York/Karplus (Gamma=1.0000).
                        Polarization charges: spherical gaussians, with
                                              point-specific exponents (IZeta= 3).
                        Self-potential: point-specific (ISelfS= 7).
                        Self-field    : sphere-specific E.n sum rule (ISelfD= 2).
 1st derivatives      : Analytical E(r).r(x)/FMM algorithm (CHGder, D1EAlg=3).
                        Cavity 1st derivative terms included.
 Solvent              : Benzene, Eps=   2.270600 Eps(inf)=   2.253301
 ------------------------------------------------------------------------------
 Spheres list:
 ISph  on   Nord     Re0    Alpha      Xe            Ye            Ze
    1   B      1    2.0415  1.100     -0.992211     -0.684741     -0.050788
    2   F      2    1.6820  1.100     -1.640776     -0.150163     -1.143268
    3   F      3    1.6820  1.100     -1.636417     -0.441610      1.150446
    4   F      4    1.6820  1.100     -0.633111     -2.005901     -0.230500
    5   O      5    1.7500  1.100      0.413571      0.127690      0.043076
    6   C      6    1.9255  1.100      1.605438     -0.581853      0.512110
    7   C      7    1.9255  1.100      2.730898     -0.398892     -0.480214
    8   C      8    1.9255  1.100      0.351719      1.500035      0.553491
    9   C      9    1.9255  1.100     -0.474134      2.395914     -0.338647
   10   H     10    1.4430  1.100      1.845906     -0.189753      1.507525
   11   H     11    1.4430  1.100      1.316894     -1.628841      0.604736
   12   H     12    1.4430  1.100      3.622533     -0.916762     -0.103738
   13   H     13    1.4430  1.100      2.458088     -0.830902     -1.449944
   14   H     14    1.4430  1.100      2.987361      0.658890     -0.621785
   15   H     15    1.4430  1.100     -0.047167      1.444850      1.573383
   16   H     16    1.4430  1.100      1.390559      1.843067      0.587482
   17   H     17    1.4430  1.100     -0.367523      3.422713      0.034831
   18   H     18    1.4430  1.100     -0.110791      2.358924     -1.372073
   19   H     19    1.4430  1.100     -1.534170      2.127844     -0.321618
 ------------------------------------------------------------------------------
 One-electron integrals computed using PRISM.
 NBasis=   297 RedAO= T EigKep=  2.80D-05  NBF=   297
 NBsUse=   297 1.00D-06 EigRej= -1.00D+00 NBFU=   297
 Initial guess from the checkpoint file:  "/inspire/hdd/project/materialscienceresearch/lipenghui-253107030018/g16/00-B-DFT-Shift/04-output/BF3OEt2_C6D6/BF3OEt2_C6D6.chk"
 B after Tr=     0.000000    0.000000    0.000000
         Rot=    0.999987    0.003110    0.002591   -0.003209 Ang=   0.59 deg.
 ExpMin= 2.38D-02 ExpMax= 1.47D+04 ExpMxC= 5.03D+02 IAcc=3 IRadAn=         5 AccDes= 0.00D+00
 Harris functional with IExCor= 4639 and IRadAn=       5 diagonalized for initial guess.
 HarFok:  IExCor= 4639 AccDes= 0.00D+00 IRadAn=         5 IDoV= 1 UseB2=F ITyADJ=14
 ICtDFT=  3500011 ScaDFX=  1.000000  1.000000  1.000000  1.000000
 FoFCou: FMM=F IPFlag=           0 FMFlag=      100000 FMFlg1=           0
         NFxFlg=           0 DoJE=T BraDBF=F KetDBF=T FulRan=T
         wScrn=  0.000000 ICntrl=       500 IOpCl=  0 I1Cent=   200000004 NGrid=           0
         NMat0=    1 NMatS0=      1 NMatT0=    0 NMatD0=    1 NMtDS0=    0 NMtDT0=    0
 Petite list used in FoFCou.
 Requested convergence on RMS density matrix=1.00D-08 within 128 cycles.
 Requested convergence on MAX density matrix=1.00D-06.
 Requested convergence on             energy=1.00D-06.
 No special actions if energy rises.
 Inv3:  Mode=1 IEnd=     7031883.
 Iteration    1 A*A^-1 deviation from unit magnitude is 5.11D-15 for   1525.
 Iteration    1 A*A^-1 deviation from orthogonality  is 2.96D-15 for   1514   1069.
 Iteration    1 A^-1*A deviation from unit magnitude is 5.11D-15 for   1525.
 Iteration    1 A^-1*A deviation from orthogonality  is 3.06D-15 for   1521    793.
 Error on total polarization charges =  0.00641
 SCF Done:  E(RwB97XD) =  -558.145904176     A.U. after   11 cycles
            NFock= 11  Conv=0.26D-08     -V/T= 2.0060
 D1PCM: C-PCM CHGder 1st derivatives, ID1Alg=3 FixD1E=F DoIter=F DoCFld=F I1PDM=0.
 Calling FoFJK, ICntrl=      2127 FMM=F ISym2X=0 I1Cent= 0 IOpClX= 0 NMat=1 NMatS=1 NMatT=0.
 ***** Axes restored to original set *****
 -------------------------------------------------------------------
 Center     Atomic                   Forces (Hartrees/Bohr)
 Number     Number              X              Y              Z
 -------------------------------------------------------------------
      1        5           0.000025870   -0.000152586   -0.000233206
      2        9          -0.000021544   -0.000046812    0.000004318
      3        9           0.000027322   -0.000056680    0.000066425
      4        9           0.000332898   -0.000213774    0.000120568
      5        8           0.000258883    0.000125364    0.000804172
      6        6          -0.000481871    0.000142348   -0.000373734
      7        6           0.000090181   -0.000298114    0.000086235
      8        6          -0.000052486    0.000168691   -0.000466074
      9        6           0.000038162    0.000146955    0.000110693
     10        1          -0.000128809   -0.000111131   -0.000164576
     11        1          -0.000207068   -0.000073785    0.000023042
     12        1          -0.000093014    0.000023377   -0.000096944
     13        1           0.000044811    0.000022085   -0.000078013
     14        1          -0.000090507    0.000135401    0.000281802
     15        1           0.000118633   -0.000016989    0.000114346
     16        1           0.000101845    0.000222162   -0.000237415
     17        1          -0.000006486   -0.000019636   -0.000000026
     18        1          -0.000014576   -0.000006699    0.000011197
     19        1           0.000057756    0.000009821    0.000027189
 -------------------------------------------------------------------
 Cartesian Forces:  Max     0.000804172 RMS     0.000194517

 GradGradGradGradGradGradGradGradGradGradGradGradGradGradGradGradGradGrad
 Berny optimization.
 Using GEDIIS/GDIIS optimizer.
 FormGI is forming the generalized inverse of G from B-inverse, IUseBI=4.
 Internal  Forces:  Max     0.001454030 RMS     0.000280594
 Search for a local minimum.
 Step number  16 out of a maximum of   97
 All quantities printed in internal units (Hartrees-Bohrs-Radians)
 Mixed Optimization -- En-DIIS/RFO-DIIS
 Swapping is turned off.
 Update second derivatives using D2CorX and points   12   13   14   15   16
 DE=  5.13D-05 DEPred=-2.86D-05 R=-1.79D+00
 Trust test=-1.79D+00 RLast= 2.20D-01 DXMaxT set to 3.81D-01
 ITU= -1  1 -1  0  1  1  1  1  1  1  1  1  1  1  1  0
     Eigenvalues ---    0.00228   0.00272   0.00288   0.01052   0.01277
     Eigenvalues ---    0.01924   0.04501   0.04879   0.05258   0.05318
     Eigenvalues ---    0.05407   0.05468   0.05731   0.05852   0.07162
     Eigenvalues ---    0.09657   0.10395   0.12755   0.12905   0.13188
     Eigenvalues ---    0.13500   0.15963   0.16004   0.16020   0.16070
     Eigenvalues ---    0.16425   0.16696   0.20392   0.21803   0.23932
     Eigenvalues ---    0.25303   0.25769   0.28113   0.28506   0.28662
     Eigenvalues ---    0.29451   0.30576   0.31868   0.31964   0.32034
     Eigenvalues ---    0.32099   0.32149   0.32184   0.32189   0.32487
     Eigenvalues ---    0.32805   0.33140   0.38171   0.40967   0.44450
     Eigenvalues ---    0.47713
 En-DIIS/RFO-DIIS/Sim-DIIS IScMMF=       -3 using points:    16   15   14   13   12   11   10    9    8    7
 RFO step:  Lambda=-1.11816925D-04.
 DIIS inversion failure, remove point  10.
 RFO-DIIS uses    9 points instead of   10
 EnCoef did   100 forward-backward iterations
 EnCoef did   100 forward-backward iterations
 EnCoef did   100 forward-backward iterations
 EnCoef did   100 forward-backward iterations
 EnCoef did   100 forward-backward iterations
 EnCoef did   100 forward-backward iterations
 EnCoef did   100 forward-backward iterations
 EnCoef did    18 forward-backward iterations
 DidBck=T Rises=T En-DIIS coefs:    0.23556    0.64195    0.00000    0.12249    0.00000
                  En-DIIS coefs:    0.00000    0.00000    0.00000    0.00000    0.00000
 Iteration  1 RMS(Cart)=  0.04105773 RMS(Int)=  0.00079377
 Iteration  2 RMS(Cart)=  0.00096756 RMS(Int)=  0.00000905
 Iteration  3 RMS(Cart)=  0.00000050 RMS(Int)=  0.00000904
 Variable       Old X    -DE/DX   Delta X   Delta X   Delta X     New X
                                 (Linear)    (Quad)   (Total)
    R1        2.60476  -0.00004  -0.00030   0.00003  -0.00027   2.60448
    R2        2.61649   0.00003   0.00018   0.00012   0.00030   2.61679
    R3        2.60940  -0.00009  -0.00015   0.00029   0.00015   2.60955
    R4        3.07339  -0.00053   0.00150  -0.00101   0.00048   3.07387
    R5        2.76701   0.00008   0.00064   0.00018   0.00082   2.76783
    R6        2.76939   0.00018   0.00099  -0.00068   0.00031   2.76970
    R7        2.85645  -0.00011   0.00026   0.00009   0.00035   2.85680
    R8        2.07218  -0.00018   0.00022  -0.00000   0.00022   2.07240
    R9        2.05973   0.00022   0.00009  -0.00021  -0.00012   2.05961
   R10        2.07434  -0.00004  -0.00010  -0.00002  -0.00012   2.07422
   R11        2.07133   0.00006   0.00016   0.00007   0.00023   2.07155
   R12        2.07416  -0.00002  -0.00036  -0.00009  -0.00045   2.07371
   R13        2.85376   0.00007   0.00007   0.00014   0.00021   2.85397
   R14        2.07210   0.00006   0.00013   0.00015   0.00028   2.07238
   R15        2.06838  -0.00007  -0.00042  -0.00011  -0.00053   2.06785
   R16        2.07455  -0.00001   0.00001  -0.00002  -0.00001   2.07454
   R17        2.07126  -0.00001  -0.00011  -0.00002  -0.00012   2.07114
   R18        2.06649  -0.00004  -0.00005  -0.00007  -0.00012   2.06637
    A1        1.98297   0.00012   0.00112  -0.00012   0.00100   1.98397
    A2        1.97173   0.00025  -0.00001  -0.00047  -0.00049   1.97125
    A3        1.83249   0.00017  -0.00009   0.00072   0.00064   1.83312
    A4        1.98441   0.00021  -0.00039  -0.00024  -0.00063   1.98377
    A5        1.83835  -0.00004  -0.00035  -0.00006  -0.00040   1.83795
    A6        1.83451  -0.00084  -0.00043   0.00035  -0.00008   1.83443
    A7        2.07145  -0.00145  -0.00723  -0.00110  -0.00829   2.06317
    A8        2.03913   0.00042  -0.00303   0.00302   0.00003   2.03917
    A9        1.95689   0.00108  -0.00056   0.00207   0.00157   1.95846
   A10        1.91465   0.00016   0.00384   0.00115   0.00499   1.91964
   A11        1.87131   0.00011   0.00090  -0.00036   0.00054   1.87185
   A12        1.85169  -0.00016  -0.00291  -0.00045  -0.00337   1.84832
   A13        1.97075  -0.00024  -0.00033  -0.00065  -0.00098   1.96977
   A14        1.94891   0.00015  -0.00186   0.00032  -0.00154   1.94736
   A15        1.90116  -0.00003   0.00030  -0.00002   0.00028   1.90144
   A16        1.89920   0.00007  -0.00230  -0.00004  -0.00233   1.89687
   A17        1.92600   0.00016   0.00060   0.00020   0.00080   1.92680
   A18        1.95552  -0.00049   0.00223  -0.00029   0.00194   1.95746
   A19        1.89616  -0.00006  -0.00074  -0.00035  -0.00109   1.89508
   A20        1.88505   0.00017  -0.00064  -0.00033  -0.00097   1.88408
   A21        1.90062   0.00015   0.00072   0.00078   0.00150   1.90213
   A22        1.95288   0.00029   0.00164   0.00058   0.00223   1.95511
   A23        1.86730   0.00002   0.00013   0.00020   0.00033   1.86763
   A24        1.83821  -0.00005   0.00017  -0.00024  -0.00007   1.83814
   A25        1.96103  -0.00015  -0.00091  -0.00006  -0.00098   1.96005
   A26        1.92993  -0.00020  -0.00094  -0.00087  -0.00182   1.92812
   A27        1.90938   0.00010   0.00000   0.00042   0.00043   1.90981
   A28        1.87631  -0.00003  -0.00097  -0.00054  -0.00151   1.87480
   A29        1.93445  -0.00002   0.00056   0.00012   0.00068   1.93513
   A30        1.95572   0.00005   0.00027   0.00065   0.00092   1.95664
   A31        1.89667   0.00001  -0.00020  -0.00012  -0.00032   1.89635
   A32        1.89455  -0.00002  -0.00001  -0.00025  -0.00026   1.89428
   A33        1.90472  -0.00000   0.00030   0.00011   0.00041   1.90513
    D1       -2.54421   0.00036  -0.00934   0.00015  -0.00920  -2.55342
    D2        1.30817  -0.00016   0.00585  -0.00637  -0.00051   1.30766
    D3        1.64060   0.00016  -0.01041  -0.00003  -0.01045   1.63014
    D4       -0.79021  -0.00036   0.00478  -0.00655  -0.00176  -0.79197
    D5       -0.46038   0.00034  -0.00960   0.00011  -0.00950  -0.46988
    D6       -2.89119  -0.00018   0.00560  -0.00641  -0.00080  -2.89199
    D7        2.22766   0.00012   0.05782  -0.00046   0.05736   2.28503
    D8       -1.90957   0.00000   0.06031  -0.00078   0.05952  -1.85005
    D9        0.12002  -0.00005   0.05966  -0.00120   0.05846   0.17849
   D10       -1.59347   0.00042   0.04248   0.00621   0.04870  -1.54478
   D11        0.55248   0.00030   0.04497   0.00589   0.05086   0.60334
   D12        2.58207   0.00025   0.04433   0.00547   0.04980   2.63187
   D13       -1.09567  -0.00012   0.01399   0.01017   0.02415  -1.07152
   D14        1.05921  -0.00011   0.01397   0.01059   0.02457   1.08377
   D15        3.08985  -0.00001   0.01412   0.01105   0.02517   3.11501
   D16        2.71191   0.00038   0.03084   0.00535   0.03619   2.74810
   D17       -1.41640   0.00039   0.03083   0.00578   0.03661  -1.37979
   D18        0.61424   0.00049   0.03098   0.00624   0.03721   0.65145
   D19        3.11935   0.00005   0.01855   0.01105   0.02959  -3.13424
   D20       -1.08487   0.00012   0.01660   0.01072   0.02731  -1.05755
   D21        1.03615   0.00009   0.01947   0.01166   0.03114   1.06728
   D22        1.03333  -0.00005   0.01497   0.01113   0.02610   1.05943
   D23        3.11229   0.00002   0.01301   0.01081   0.02382   3.13611
   D24       -1.04988  -0.00001   0.01589   0.01175   0.02764  -1.02224
   D25       -1.11609   0.00005   0.01623   0.01140   0.02764  -1.08846
   D26        0.96287   0.00012   0.01428   0.01108   0.02536   0.98823
   D27        3.08389   0.00009   0.01716   0.01202   0.02918   3.11307
   D28       -3.01747   0.00006   0.00248  -0.00033   0.00215  -3.01532
   D29       -0.94693   0.00004   0.00197  -0.00074   0.00124  -0.94569
   D30        1.18549   0.00007   0.00295  -0.00005   0.00290   1.18839
   D31        1.16465  -0.00007   0.00179  -0.00096   0.00083   1.16548
   D32       -3.04799  -0.00008   0.00128  -0.00137  -0.00009  -3.04808
   D33       -0.91558  -0.00006   0.00226  -0.00068   0.00158  -0.91400
   D34       -0.97426   0.00005   0.00311  -0.00082   0.00229  -0.97198
   D35        1.09628   0.00004   0.00260  -0.00123   0.00137   1.09765
   D36       -3.05449   0.00006   0.00358  -0.00055   0.00303  -3.05146
         Item               Value     Threshold  Converged?
 Maximum Force            0.001454     0.000450     NO 
 RMS     Force            0.000281     0.000300     YES
 Maximum Displacement     0.160081     0.001800     NO 
 RMS     Displacement     0.041051     0.001200     NO 
 Predicted change in Energy=-5.758028D-05
 GradGradGradGradGradGradGradGradGradGradGradGradGradGradGradGradGradGrad

                          Input orientation:                          
 ---------------------------------------------------------------------
 Center     Atomic      Atomic             Coordinates (Angstroms)
 Number     Number       Type             X           Y           Z
 ---------------------------------------------------------------------
      1          5           0       -1.804881    0.676676   -0.191902
      2          9           0       -1.594109    1.678761   -1.114358
      3          9           0       -2.132119    1.142733    1.070328
      4          9           0       -2.651306   -0.311510   -0.654478
      5          8           0       -0.359477   -0.049422   -0.020163
      6          6           0       -0.335095   -1.491140    0.236964
      7          6           0        0.634733   -2.167684   -0.704905
      8          6           0        0.653765    0.669303    0.757615
      9          6           0        1.009741    1.997649    0.133396
     10          1           0       -0.070361   -1.628825    1.292253
     11          1           0       -1.355691   -1.839790    0.079792
     12          1           0        0.630468   -3.245857   -0.499184
     13          1           0        0.329668   -2.009512   -1.745873
     14          1           0        1.661293   -1.802546   -0.574347
     15          1           0        0.258620    0.779932    1.774609
     16          1           0        1.526163    0.009007    0.775999
     17          1           0        1.858288    2.408256    0.696005
     18          1           0        1.311684    1.869331   -0.912346
     19          1           0        0.182154    2.710619    0.183011
 ---------------------------------------------------------------------
                    Distance matrix (angstroms):
                    1          2          3          4          5
     1  B    0.000000
     2  F    1.378232   0.000000
     3  F    1.384745   2.312928   0.000000
     4  F    1.380914   2.300072   2.315024   0.000000
     5  O    1.626624   2.389183   2.398471   2.392389   0.000000
     6  C    2.653984   3.668714   3.295616   2.747915   1.464671
     7  C    3.782232   4.464362   4.665382   3.774385   2.438106
     8  C    2.635636   3.094548   2.843075   3.725520   1.465662
     9  C    3.126162   2.904929   3.388217   4.399571   2.467558
    10  H    3.244474   4.365055   3.461450   3.490897   2.073774
    11  H    2.570641   3.723310   3.237198   2.133873   2.051305
    12  H    4.627269   5.438662   5.418024   4.405060   3.380333
    13  H    3.766528   4.207504   4.891629   3.600078   2.700916
    14  H    4.278688   4.796743   5.076377   4.563784   2.732046
    15  H    2.852344   3.547764   2.518585   3.944539   2.071492
    16  H    3.532488   4.012184   3.841223   4.427216   2.047664
    17  H    4.147958   3.965933   4.202977   5.436669   3.386969
    18  H    3.413861   2.919034   4.039644   4.530768   2.696365
    19  H    2.868064   2.429610   2.932824   4.226482   2.820013
                    6          7          8          9         10
     6  C    0.000000
     7  C    1.511752   0.000000
     8  C    2.432372   3.191837   0.000000
     9  C    3.740449   4.265370   1.510256   0.000000
    10  H    1.096666   2.185444   2.468114   3.957383   0.000000
    11  H    1.089898   2.164498   3.285256   4.508224   1.779507
    12  H    2.133836   1.097632   4.112002   5.295126   2.513006
    13  H    2.154591   1.096220   3.680834   4.477889   3.087905
    14  H    2.177329   1.097359   2.983165   3.920064   2.552058
    15  H    2.806175   3.870128   1.096656   2.177292   2.478509
    16  H    2.450567   2.779516   1.094261   2.152749   2.344760
    17  H    4.497437   4.939521   2.116278   1.097797   4.513670
    18  H    3.914787   4.098632   2.159096   1.095998   4.359748
    19  H    4.233821   4.979063   2.172455   1.093475   4.486085
                   11         12         13         14         15
    11  H    0.000000
    12  H    2.501413   0.000000
    13  H    2.490440   1.781366   0.000000
    14  H    3.087309   1.775217   1.785646   0.000000
    15  H    3.513026   4.638468   4.492198   3.762217   0.000000
    16  H    3.493972   3.608670   3.444686   2.263497   1.788354
    17  H    5.362395   5.908046   5.274099   4.402665   2.524632
    18  H    4.675126   5.176863   4.087120   3.703937   3.084715
    19  H    4.804357   6.012153   5.101176   4.809376   2.503315
                   16         17         18         19
    16  H    0.000000
    17  H    2.423448   0.000000
    18  H    2.521372   1.782136   0.000000
    19  H    3.075175   1.778767   1.784212   0.000000
 Stoichiometry    C4H10BF3O
 Framework group  C1[X(C4H10BF3O)]
 Deg. of freedom    51
 Full point group                 C1      NOp   1
 Largest Abelian subgroup         C1      NOp   1
 Largest concise Abelian subgroup C1      NOp   1
                         Standard orientation:                         
 ---------------------------------------------------------------------
 Center     Atomic      Atomic             Coordinates (Angstroms)
 Number     Number       Type             X           Y           Z
 ---------------------------------------------------------------------
      1          5           0       -0.997992   -0.679486   -0.049573
      2          9           0       -1.657478   -0.138988   -1.132376
      3          9           0       -1.622591   -0.433143    1.161505
      4          9           0       -0.652394   -2.003432   -0.235723
      5          8           0        0.415953    0.121128    0.025818
      6          6           0        1.599390   -0.605973    0.490646
      7          6           0        2.749834   -0.385325   -0.464962
      8          6           0        0.372576    1.493825    0.537662
      9          6           0       -0.484231    2.392067   -0.322521
     10          1           0        1.817037   -0.256902    1.507235
     11          1           0        1.308072   -1.655416    0.531654
     12          1           0        3.621391   -0.944575   -0.101059
     13          1           0        2.491704   -0.752783   -1.464983
     14          1           0        3.032233    0.672737   -0.535329
     15          1           0        0.011062    1.439364    1.571586
     16          1           0        1.411614    1.837021    0.533061
     17          1           0       -0.359964    3.417948    0.048001
     18          1           0       -0.160275    2.355645   -1.368914
     19          1           0       -1.543780    2.127874   -0.265533
 ---------------------------------------------------------------------
 Rotational constants (GHZ):           1.7542980           1.4085086           1.0011645
 Standard basis: Aug-CC-pVDZ (5D, 7F)
 There are   315 symmetry adapted cartesian basis functions of A   symmetry.
 There are   297 symmetry adapted basis functions of A   symmetry.
   297 basis functions,   497 primitive gaussians,   315 cartesian basis functions
    37 alpha electrons       37 beta electrons
       nuclear repulsion energy       523.5660526548 Hartrees.
 NAtoms=   19 NActive=   19 NUniq=   19 SFac= 1.00D+00 NAtFMM=   60 NAOKFM=F Big=F
 Integral buffers will be    131072 words long.
 Raffenetti 2 integral format.
 Two-electron integral symmetry is turned on.
 Nuclear repulsion after empirical dispersion term =      523.5540314687 Hartrees.
 Force PCM accuracy= 1.00D-12.
 ------------------------------------------------------------------------------
 Polarizable Continuum Model (PCM)
 =================================
 Model                : C-PCM.
 Atomic radii         : UFF (Universal Force Field).
 Polarization charges : Total charges.
 Charge compensation  : None.
 Solution method      : On-the-fly selection.
 Cavity type          : Scaled VdW (van der Waals Surface) (Alpha=1.100).
 Cavity algorithm     : GePol (No added spheres)
                        Default sphere list used, NSphG=   19.
                        Lebedev-Laikov grids with approx.  5.0 points / Ang**2.
                        Smoothing algorithm: York/Karplus (Gamma=1.0000).
                        Polarization charges: spherical gaussians, with
                                              point-specific exponents (IZeta= 3).
                        Self-potential: point-specific (ISelfS= 7).
                        Self-field    : sphere-specific E.n sum rule (ISelfD= 2).
 1st derivatives      : Analytical E(r).r(x)/FMM algorithm (CHGder, D1EAlg=3).
                        Cavity 1st derivative terms included.
 Solvent              : Benzene, Eps=   2.270600 Eps(inf)=   2.253301
 ------------------------------------------------------------------------------
 Spheres list:
 ISph  on   Nord     Re0    Alpha      Xe            Ye            Ze
    1   B      1    2.0415  1.100     -0.997992     -0.679486     -0.049573
    2   F      2    1.6820  1.100     -1.657478     -0.138988     -1.132376
    3   F      3    1.6820  1.100     -1.622591     -0.433143      1.161505
    4   F      4    1.6820  1.100     -0.652394     -2.003432     -0.235723
    5   O      5    1.7500  1.100      0.415953      0.121128      0.025818
    6   C      6    1.9255  1.100      1.599390     -0.605973      0.490646
    7   C      7    1.9255  1.100      2.749834     -0.385325     -0.464962
    8   C      8    1.9255  1.100      0.372576      1.493825      0.537662
    9   C      9    1.9255  1.100     -0.484231      2.392067     -0.322521
   10   H     10    1.4430  1.100      1.817037     -0.256902      1.507235
   11   H     11    1.4430  1.100      1.308072     -1.655416      0.531654
   12   H     12    1.4430  1.100      3.621391     -0.944575     -0.101059
   13   H     13    1.4430  1.100      2.491704     -0.752783     -1.464983
   14   H     14    1.4430  1.100      3.032233      0.672737     -0.535329
   15   H     15    1.4430  1.100      0.011062      1.439364      1.571586
   16   H     16    1.4430  1.100      1.411614      1.837021      0.533061
   17   H     17    1.4430  1.100     -0.359964      3.417948      0.048001
   18   H     18    1.4430  1.100     -0.160275      2.355645     -1.368914
   19   H     19    1.4430  1.100     -1.543780      2.127874     -0.265533
 ------------------------------------------------------------------------------
 One-electron integrals computed using PRISM.
 NBasis=   297 RedAO= T EigKep=  2.71D-05  NBF=   297
 NBsUse=   297 1.00D-06 EigRej= -1.00D+00 NBFU=   297
 Initial guess from the checkpoint file:  "/inspire/hdd/project/materialscienceresearch/lipenghui-253107030018/g16/00-B-DFT-Shift/04-output/BF3OEt2_C6D6/BF3OEt2_C6D6.chk"
 B after Tr=     0.000000   -0.000000   -0.000000
         Rot=    0.999994   -0.002469   -0.002143    0.001394 Ang=  -0.41 deg.
 ExpMin= 2.38D-02 ExpMax= 1.47D+04 ExpMxC= 5.03D+02 IAcc=3 IRadAn=         5 AccDes= 0.00D+00
 Harris functional with IExCor= 4639 and IRadAn=       5 diagonalized for initial guess.
 HarFok:  IExCor= 4639 AccDes= 0.00D+00 IRadAn=         5 IDoV= 1 UseB2=F ITyADJ=14
 ICtDFT=  3500011 ScaDFX=  1.000000  1.000000  1.000000  1.000000
 FoFCou: FMM=F IPFlag=           0 FMFlag=      100000 FMFlg1=           0
         NFxFlg=           0 DoJE=T BraDBF=F KetDBF=T FulRan=T
         wScrn=  0.000000 ICntrl=       500 IOpCl=  0 I1Cent=   200000004 NGrid=           0
         NMat0=    1 NMatS0=      1 NMatT0=    0 NMatD0=    1 NMtDS0=    0 NMtDT0=    0
 Petite list used in FoFCou.
 Requested convergence on RMS density matrix=1.00D-08 within 128 cycles.
 Requested convergence on MAX density matrix=1.00D-06.
 Requested convergence on             energy=1.00D-06.
 No special actions if energy rises.
 Inv3:  Mode=1 IEnd=     7068675.
 Iteration    1 A*A^-1 deviation from unit magnitude is 4.22D-15 for   1520.
 Iteration    1 A*A^-1 deviation from orthogonality  is 4.26D-15 for   1520   1087.
 Iteration    1 A^-1*A deviation from unit magnitude is 4.22D-15 for   1520.
 Iteration    1 A^-1*A deviation from orthogonality  is 2.18D-15 for   1525   1089.
 Error on total polarization charges =  0.00640
 SCF Done:  E(RwB97XD) =  -558.145961737     A.U. after   10 cycles
            NFock= 10  Conv=0.56D-08     -V/T= 2.0060
 D1PCM: C-PCM CHGder 1st derivatives, ID1Alg=3 FixD1E=F DoIter=F DoCFld=F I1PDM=0.
 Calling FoFJK, ICntrl=      2127 FMM=F ISym2X=0 I1Cent= 0 IOpClX= 0 NMat=1 NMatS=1 NMatT=0.
 ***** Axes restored to original set *****
 -------------------------------------------------------------------
 Center     Atomic                   Forces (Hartrees/Bohr)
 Number     Number              X              Y              Z
 -------------------------------------------------------------------
      1        5           0.000064232   -0.000011521   -0.000101216
      2        9          -0.000036287   -0.000039581    0.000006086
      3        9           0.000059503   -0.000012862    0.000007093
      4        9           0.000062754    0.000036099    0.000000233
      5        8          -0.000015623   -0.000003313    0.000176969
      6        6          -0.000006158    0.000234960   -0.000016900
      7        6           0.000024400   -0.000032238    0.000002026
      8        6          -0.000238650   -0.000185005   -0.000234620
      9        6           0.000022154    0.000044881    0.000037613
     10        1           0.000020430   -0.000019447    0.000021855
     11        1           0.000006150   -0.000016618    0.000031277
     12        1          -0.000018013    0.000026465    0.000005992
     13        1           0.000001146    0.000009389    0.000008632
     14        1           0.000002513    0.000014689   -0.000020915
     15        1           0.000028453   -0.000019933    0.000032663
     16        1           0.000032392    0.000001569    0.000002487
     17        1          -0.000002476   -0.000018037    0.000008961
     18        1          -0.000013939    0.000004150    0.000013898
     19        1           0.000007019   -0.000013647    0.000017868
 -------------------------------------------------------------------
 Cartesian Forces:  Max     0.000238650 RMS     0.000069391

 GradGradGradGradGradGradGradGradGradGradGradGradGradGradGradGradGradGrad
 Berny optimization.
 Using GEDIIS/GDIIS optimizer.
 FormGI is forming the generalized inverse of G from B-inverse, IUseBI=4.
 Internal  Forces:  Max     0.000273866 RMS     0.000056014
 Search for a local minimum.
 Step number  17 out of a maximum of   97
 All quantities printed in internal units (Hartrees-Bohrs-Radians)
 Mixed Optimization -- En-DIIS/RFO-DIIS
 Swapping is turned off.
 Update second derivatives using D2CorX and points   10   11   12   13   14
                                                     15   16   17
 DE= -5.76D-05 DEPred=-5.76D-05 R= 1.00D+00
 TightC=F SS=  1.41D+00  RLast= 1.76D-01 DXNew= 6.4094D-01 5.2712D-01
 Trust test= 1.00D+00 RLast= 1.76D-01 DXMaxT set to 5.27D-01
 ITU=  1 -1  1 -1  0  1  1  1  1  1  1  1  1  1  1  1  0
     Eigenvalues ---    0.00227   0.00265   0.00287   0.00809   0.01320
     Eigenvalues ---    0.01941   0.04501   0.04916   0.05229   0.05320
     Eigenvalues ---    0.05402   0.05439   0.05747   0.05861   0.07142
     Eigenvalues ---    0.09678   0.10314   0.12799   0.12920   0.13184
     Eigenvalues ---    0.13500   0.15973   0.16014   0.16040   0.16097
     Eigenvalues ---    0.16404   0.16678   0.20619   0.22187   0.23715
     Eigenvalues ---    0.25360   0.25779   0.28140   0.28510   0.28649
     Eigenvalues ---    0.29187   0.30847   0.31876   0.31950   0.32047
     Eigenvalues ---    0.32098   0.32151   0.32186   0.32204   0.32509
     Eigenvalues ---    0.32819   0.33320   0.38193   0.41045   0.42242
     Eigenvalues ---    0.48133
 En-DIIS/RFO-DIIS/Sim-DIIS IScMMF=       -3 using points:    17   16   15   14   13   12   11   10    9    8
 RFO step:  Lambda=-2.08080064D-06.
 DIIS inversion failure, remove point  10.
 RFO-DIIS uses    9 points instead of   10
 DidBck=F Rises=F RFO-DIIS coefs:    1.78914   -0.77685    0.55602   -0.65011    0.16995
                  RFO-DIIS coefs:   -0.29075    0.19844   -0.46054    0.46470    0.00000
 Iteration  1 RMS(Cart)=  0.01783580 RMS(Int)=  0.00015005
 Iteration  2 RMS(Cart)=  0.00018463 RMS(Int)=  0.00003010
 Iteration  3 RMS(Cart)=  0.00000002 RMS(Int)=  0.00003010
 Variable       Old X    -DE/DX   Delta X   Delta X   Delta X     New X
                                 (Linear)    (Quad)   (Total)
    R1        2.60448  -0.00004  -0.00029   0.00013  -0.00015   2.60433
    R2        2.61679  -0.00001  -0.00014   0.00031   0.00018   2.61697
    R3        2.60955  -0.00006   0.00004  -0.00018  -0.00014   2.60941
    R4        3.07387  -0.00014   0.00270  -0.00295  -0.00025   3.07362
    R5        2.76783  -0.00020   0.00088  -0.00092  -0.00005   2.76778
    R6        2.76970  -0.00027   0.00004  -0.00072  -0.00068   2.76902
    R7        2.85680  -0.00000  -0.00006   0.00020   0.00014   2.85694
    R8        2.07240   0.00003   0.00000   0.00022   0.00022   2.07262
    R9        2.05961  -0.00001  -0.00002  -0.00008  -0.00010   2.05951
   R10        2.07422  -0.00002   0.00010  -0.00013  -0.00003   2.07420
   R11        2.07155  -0.00001   0.00013  -0.00006   0.00008   2.07163
   R12        2.07371   0.00001  -0.00017  -0.00001  -0.00018   2.07353
   R13        2.85397  -0.00001  -0.00004   0.00008   0.00005   2.85402
   R14        2.07238   0.00002   0.00017   0.00004   0.00021   2.07259
   R15        2.06785   0.00002  -0.00020   0.00013  -0.00007   2.06778
   R16        2.07454  -0.00001   0.00010  -0.00009   0.00001   2.07454
   R17        2.07114  -0.00002  -0.00003  -0.00011  -0.00014   2.07100
   R18        2.06637  -0.00001   0.00005  -0.00019  -0.00013   2.06623
    A1        1.98397   0.00003   0.00068  -0.00019   0.00047   1.98444
    A2        1.97125  -0.00002   0.00012  -0.00048  -0.00038   1.97087
    A3        1.83312   0.00007   0.00004   0.00041   0.00043   1.83356
    A4        1.98377   0.00006   0.00009  -0.00025  -0.00017   1.98360
    A5        1.83795  -0.00011  -0.00071   0.00045  -0.00027   1.83768
    A6        1.83443  -0.00005  -0.00030   0.00025  -0.00007   1.83436
    A7        2.06317   0.00009  -0.00373   0.00112  -0.00256   2.06061
    A8        2.03917   0.00010   0.00143   0.00037   0.00194   2.04111
    A9        1.95846  -0.00019   0.00176  -0.00168   0.00024   1.95869
   A10        1.91964  -0.00003   0.00220  -0.00034   0.00187   1.92151
   A11        1.87185   0.00001  -0.00024   0.00041   0.00019   1.87204
   A12        1.84832   0.00003  -0.00139   0.00016  -0.00125   1.84707
   A13        1.96977  -0.00000  -0.00076   0.00021  -0.00052   1.96925
   A14        1.94736   0.00001  -0.00036   0.00002  -0.00037   1.94700
   A15        1.90144  -0.00001   0.00051  -0.00045   0.00005   1.90149
   A16        1.89687  -0.00003  -0.00087   0.00004  -0.00083   1.89604
   A17        1.92680  -0.00001   0.00032  -0.00020   0.00015   1.92695
   A18        1.95746   0.00002   0.00068   0.00011   0.00080   1.95826
   A19        1.89508   0.00002  -0.00068   0.00021  -0.00047   1.89461
   A20        1.88408   0.00002  -0.00080   0.00042  -0.00040   1.88367
   A21        1.90213  -0.00001   0.00121  -0.00056   0.00068   1.90281
   A22        1.95511   0.00013   0.00015   0.00120   0.00135   1.95646
   A23        1.86763  -0.00002   0.00023   0.00000   0.00023   1.86786
   A24        1.83814  -0.00004   0.00025  -0.00002   0.00023   1.83836
   A25        1.96005  -0.00005  -0.00051  -0.00018  -0.00069   1.95936
   A26        1.92812  -0.00002  -0.00083  -0.00030  -0.00113   1.92699
   A27        1.90981   0.00001   0.00082  -0.00072   0.00010   1.90990
   A28        1.87480  -0.00002  -0.00038  -0.00030  -0.00068   1.87412
   A29        1.93513   0.00001   0.00037  -0.00005   0.00032   1.93545
   A30        1.95664  -0.00002   0.00032   0.00006   0.00038   1.95702
   A31        1.89635   0.00001  -0.00032   0.00019  -0.00013   1.89622
   A32        1.89428   0.00001  -0.00043   0.00023  -0.00020   1.89409
   A33        1.90513   0.00001   0.00038  -0.00011   0.00027   1.90539
    D1       -2.55342  -0.00002  -0.00257  -0.00046  -0.00307  -2.55648
    D2        1.30766   0.00006  -0.00317   0.00048  -0.00265   1.30500
    D3        1.63014  -0.00003  -0.00300  -0.00064  -0.00369   1.62646
    D4       -0.79197   0.00004  -0.00360   0.00029  -0.00327  -0.79524
    D5       -0.46988  -0.00003  -0.00261  -0.00069  -0.00333  -0.47321
    D6       -2.89199   0.00005  -0.00320   0.00024  -0.00292  -2.89491
    D7        2.28503  -0.00002   0.02051  -0.00038   0.02017   2.30520
    D8       -1.85005  -0.00004   0.02085  -0.00007   0.02079  -1.82926
    D9        0.17849  -0.00003   0.02062  -0.00032   0.02033   0.19882
   D10       -1.54478   0.00001   0.02107  -0.00054   0.02051  -1.52426
   D11        0.60334  -0.00000   0.02141  -0.00023   0.02113   0.62446
   D12        2.63187   0.00000   0.02118  -0.00048   0.02067   2.65254
   D13       -1.07152   0.00006   0.01605   0.00089   0.01699  -1.05454
   D14        1.08377   0.00006   0.01567   0.00143   0.01714   1.10091
   D15        3.11501   0.00003   0.01682   0.00060   0.01747   3.13248
   D16        2.74810   0.00003   0.01788   0.00071   0.01855   2.76665
   D17       -1.37979   0.00003   0.01750   0.00125   0.01871  -1.36108
   D18        0.65145   0.00001   0.01865   0.00042   0.01903   0.67048
   D19       -3.13424  -0.00001   0.01322   0.00006   0.01329  -3.12095
   D20       -1.05755  -0.00001   0.01207   0.00022   0.01230  -1.04526
   D21        1.06728  -0.00002   0.01441  -0.00056   0.01384   1.08112
   D22        1.05943   0.00000   0.01245  -0.00036   0.01210   1.07153
   D23        3.13611  -0.00000   0.01129  -0.00020   0.01111  -3.13596
   D24       -1.02224  -0.00001   0.01363  -0.00098   0.01265  -1.00959
   D25       -1.08846   0.00001   0.01263   0.00006   0.01270  -1.07576
   D26        0.98823   0.00001   0.01148   0.00022   0.01171   0.99994
   D27        3.11307   0.00000   0.01381  -0.00056   0.01325   3.12631
   D28       -3.01532   0.00000  -0.00074   0.00028  -0.00046  -3.01578
   D29       -0.94569   0.00001  -0.00115   0.00030  -0.00085  -0.94655
   D30        1.18839   0.00001  -0.00016   0.00015  -0.00001   1.18838
   D31        1.16548  -0.00002  -0.00079  -0.00045  -0.00124   1.16424
   D32       -3.04808  -0.00002  -0.00120  -0.00043  -0.00163  -3.04971
   D33       -0.91400  -0.00001  -0.00021  -0.00058  -0.00079  -0.91479
   D34       -0.97198   0.00002  -0.00088   0.00081  -0.00007  -0.97204
   D35        1.09765   0.00003  -0.00129   0.00083  -0.00046   1.09719
   D36       -3.05146   0.00003  -0.00030   0.00069   0.00039  -3.05107
         Item               Value     Threshold  Converged?
 Maximum Force            0.000274     0.000450     YES
 RMS     Force            0.000056     0.000300     YES
 Maximum Displacement     0.066314     0.001800     NO 
 RMS     Displacement     0.017830     0.001200     NO 
 Predicted change in Energy=-1.004352D-05
 GradGradGradGradGradGradGradGradGradGradGradGradGradGradGradGradGradGrad

                          Input orientation:                          
 ---------------------------------------------------------------------
 Center     Atomic      Atomic             Coordinates (Angstroms)
 Number     Number       Type             X           Y           Z
 ---------------------------------------------------------------------
      1          5           0       -1.804393    0.680023   -0.189869
      2          9           0       -1.596037    1.683257   -1.111502
      3          9           0       -2.125173    1.143900    1.074923
      4          9           0       -2.654799   -0.305473   -0.650659
      5          8           0       -0.359968   -0.049455   -0.025647
      6          6           0       -0.341464   -1.490992    0.232836
      7          6           0        0.640392   -2.172183   -0.693210
      8          6           0        0.660923    0.665016    0.745340
      9          6           0        1.002613    2.002665    0.133057
     10          1           0       -0.092941   -1.628487    1.292206
     11          1           0       -1.360473   -1.837001    0.060609
     12          1           0        0.619504   -3.251386   -0.494096
     13          1           0        0.358338   -2.004963   -1.739285
     14          1           0        1.668194   -1.820171   -0.539255
     15          1           0        0.280545    0.761805    1.769470
     16          1           0        1.536919    0.009312    0.742866
     17          1           0        1.857066    2.409353    0.689550
     18          1           0        1.291101    1.889100   -0.918099
     19          1           0        0.173193    2.711663    0.203180
 ---------------------------------------------------------------------
                    Distance matrix (angstroms):
                    1          2          3          4          5
     1  B    0.000000
     2  F    1.378150   0.000000
     3  F    1.384839   2.313297   0.000000
     4  F    1.380841   2.299652   2.314913   0.000000
     5  O    1.626490   2.389401   2.398187   2.392162   0.000000
     6  C    2.651819   3.668385   3.291410   2.745458   1.464645
     7  C    3.790171   4.476716   4.665945   3.787440   2.439740
     8  C    2.636783   3.094922   2.846100   3.726215   1.465301
     9  C    3.119768   2.898953   3.377519   4.395268   2.468403
    10  H    3.233393   4.359444   3.444315   3.476810   2.073977
    11  H    2.568115   3.717734   3.240273   2.127619   2.050310
    12  H    4.628586   5.444310   5.414205   4.407265   3.381002
    13  H    3.779847   4.220978   4.899278   3.626619   2.697504
    14  H    4.293239   4.822517   5.077491   4.582029   2.740924
    15  H    2.862283   3.559583   2.532957   3.951247   2.071435
    16  H    3.533300   4.007016   3.848177   4.428487   2.047497
    17  H    4.143699   3.961681   4.196201   5.433541   3.387105
    18  H    3.402098   2.900921   4.024722   4.523031   2.698239
    19  H    2.862324   2.432320   2.915528   4.222522   2.821417
                    6          7          8          9         10
     6  C    0.000000
     7  C    1.511828   0.000000
     8  C    2.432244   3.181122   0.000000
     9  C    3.744615   4.271215   1.510281   0.000000
    10  H    1.096783   2.185236   2.475384   3.965996   0.000000
    11  H    1.089846   2.164266   3.288615   4.509153   1.779592
    12  H    2.133279   1.097617   4.108055   5.305200   2.516397
    13  H    2.154797   1.096262   3.659741   4.470105   3.087932
    14  H    2.177891   1.097265   2.973370   3.938157   2.548056
    15  H    2.797004   3.847410   1.096767   2.176916   2.465921
    16  H    2.457512   2.761339   1.094221   2.151930   2.374995
    17  H    4.500535   4.937893   2.115793   1.097801   4.524364
    18  H    3.926187   4.119225   2.159291   1.095926   4.378862
    19  H    4.234154   4.987358   2.172690   1.093404   4.482600
                   11         12         13         14         15
    11  H    0.000000
    12  H    2.495695   0.000000
    13  H    2.494422   1.781088   0.000000
    14  H    3.087547   1.774871   1.786041   0.000000
    15  H    3.516666   4.619992   4.469051   3.731271   0.000000
    16  H    3.502746   3.606089   3.406968   2.237873   1.788473
    17  H    5.364666   5.914097   5.256577   4.408458   2.523105
    18  H    4.676809   5.201482   4.087557   3.747587   3.084647
    19  H    4.802375   6.020244   5.104313   4.829467   2.503345
                   16         17         18         19
    16  H    0.000000
    17  H    2.421886   0.000000
    18  H    2.520482   1.781997   0.000000
    19  H    3.074688   1.778587   1.784264   0.000000
 Stoichiometry    C4H10BF3O
 Framework group  C1[X(C4H10BF3O)]
 Deg. of freedom    51
 Full point group                 C1      NOp   1
 Largest Abelian subgroup         C1      NOp   1
 Largest concise Abelian subgroup C1      NOp   1
                         Standard orientation:                         
 ---------------------------------------------------------------------
 Center     Atomic      Atomic             Coordinates (Angstroms)
 Number     Number       Type             X           Y           Z
 ---------------------------------------------------------------------
      1          5           0       -0.998746   -0.678896   -0.048776
      2          9           0       -1.663039   -0.137373   -1.128020
      3          9           0       -1.616403   -0.432338    1.165921
      4          9           0       -0.656191   -2.003214   -0.237347
      5          8           0        0.416756    0.119290    0.019940
      6          6           0        1.598355   -0.611902    0.482937
      7          6           0        2.756982   -0.376663   -0.459331
      8          6           0        0.380458    1.492959    0.528688
      9          6           0       -0.495228    2.388414   -0.315281
     10          1           0        1.807551   -0.277645    1.506384
     11          1           0        1.307922   -1.662082    0.506056
     12          1           0        3.621518   -0.951083   -0.102423
     13          1           0        2.503706   -0.718998   -1.469503
     14          1           0        3.048295    0.680347   -0.502446
     15          1           0        0.040125    1.440761    1.570008
     16          1           0        1.418199    1.838925    0.501826
     17          1           0       -0.364930    3.414808    0.051742
     18          1           0       -0.192422    2.351620   -1.367900
     19          1           0       -1.552990    2.122976   -0.236453
 ---------------------------------------------------------------------
 Rotational constants (GHZ):           1.7586853           1.4066311           1.0000163
 Standard basis: Aug-CC-pVDZ (5D, 7F)
 There are   315 symmetry adapted cartesian basis functions of A   symmetry.
 There are   297 symmetry adapted basis functions of A   symmetry.
   297 basis functions,   497 primitive gaussians,   315 cartesian basis functions
    37 alpha electrons       37 beta electrons
       nuclear repulsion energy       523.6026906228 Hartrees.
 NAtoms=   19 NActive=   19 NUniq=   19 SFac= 1.00D+00 NAtFMM=   60 NAOKFM=F Big=F
 Integral buffers will be    131072 words long.
 Raffenetti 2 integral format.
 Two-electron integral symmetry is turned on.
 Nuclear repulsion after empirical dispersion term =      523.5906678826 Hartrees.
 Force PCM accuracy= 1.00D-12.
 ------------------------------------------------------------------------------
 Polarizable Continuum Model (PCM)
 =================================
 Model                : C-PCM.
 Atomic radii         : UFF (Universal Force Field).
 Polarization charges : Total charges.
 Charge compensation  : None.
 Solution method      : On-the-fly selection.
 Cavity type          : Scaled VdW (van der Waals Surface) (Alpha=1.100).
 Cavity algorithm     : GePol (No added spheres)
                        Default sphere list used, NSphG=   19.
                        Lebedev-Laikov grids with approx.  5.0 points / Ang**2.
                        Smoothing algorithm: York/Karplus (Gamma=1.0000).
                        Polarization charges: spherical gaussians, with
                                              point-specific exponents (IZeta= 3).
                        Self-potential: point-specific (ISelfS= 7).
                        Self-field    : sphere-specific E.n sum rule (ISelfD= 2).
 1st derivatives      : Analytical E(r).r(x)/FMM algorithm (CHGder, D1EAlg=3).
                        Cavity 1st derivative terms included.
 Solvent              : Benzene, Eps=   2.270600 Eps(inf)=   2.253301
 ------------------------------------------------------------------------------
 Spheres list:
 ISph  on   Nord     Re0    Alpha      Xe            Ye            Ze
    1   B      1    2.0415  1.100     -0.998746     -0.678896     -0.048776
    2   F      2    1.6820  1.100     -1.663039     -0.137373     -1.128020
    3   F      3    1.6820  1.100     -1.616403     -0.432338      1.165921
    4   F      4    1.6820  1.100     -0.656191     -2.003214     -0.237347
    5   O      5    1.7500  1.100      0.416756      0.119290      0.019940
    6   C      6    1.9255  1.100      1.598355     -0.611902      0.482937
    7   C      7    1.9255  1.100      2.756982     -0.376663     -0.459331
    8   C      8    1.9255  1.100      0.380458      1.492959      0.528688
    9   C      9    1.9255  1.100     -0.495228      2.388414     -0.315281
   10   H     10    1.4430  1.100      1.807551     -0.277645      1.506384
   11   H     11    1.4430  1.100      1.307922     -1.662082      0.506056
   12   H     12    1.4430  1.100      3.621518     -0.951083     -0.102423
   13   H     13    1.4430  1.100      2.503706     -0.718998     -1.469503
   14   H     14    1.4430  1.100      3.048295      0.680347     -0.502446
   15   H     15    1.4430  1.100      0.040125      1.440761      1.570008
   16   H     16    1.4430  1.100      1.418199      1.838925      0.501826
   17   H     17    1.4430  1.100     -0.364930      3.414808      0.051742
   18   H     18    1.4430  1.100     -0.192422      2.351620     -1.367900
   19   H     19    1.4430  1.100     -1.552990      2.122976     -0.236453
 ------------------------------------------------------------------------------
 One-electron integrals computed using PRISM.
 NBasis=   297 RedAO= T EigKep=  2.67D-05  NBF=   297
 NBsUse=   297 1.00D-06 EigRej= -1.00D+00 NBFU=   297
 Initial guess from the checkpoint file:  "/inspire/hdd/project/materialscienceresearch/lipenghui-253107030018/g16/00-B-DFT-Shift/04-output/BF3OEt2_C6D6/BF3OEt2_C6D6.chk"
 B after Tr=    -0.000000    0.000000    0.000000
         Rot=    0.999999   -0.000765   -0.001046   -0.000348 Ang=  -0.15 deg.
 ExpMin= 2.38D-02 ExpMax= 1.47D+04 ExpMxC= 5.03D+02 IAcc=3 IRadAn=         5 AccDes= 0.00D+00
 Harris functional with IExCor= 4639 and IRadAn=       5 diagonalized for initial guess.
 HarFok:  IExCor= 4639 AccDes= 0.00D+00 IRadAn=         5 IDoV= 1 UseB2=F ITyADJ=14
 ICtDFT=  3500011 ScaDFX=  1.000000  1.000000  1.000000  1.000000
 FoFCou: FMM=F IPFlag=           0 FMFlag=      100000 FMFlg1=           0
         NFxFlg=           0 DoJE=T BraDBF=F KetDBF=T FulRan=T
         wScrn=  0.000000 ICntrl=       500 IOpCl=  0 I1Cent=   200000004 NGrid=           0
         NMat0=    1 NMatS0=      1 NMatT0=    0 NMatD0=    1 NMtDS0=    0 NMtDT0=    0
 Petite list used in FoFCou.
 Requested convergence on RMS density matrix=1.00D-08 within 128 cycles.
 Requested convergence on MAX density matrix=1.00D-06.
 Requested convergence on             energy=1.00D-06.
 No special actions if energy rises.
 Inv3:  Mode=1 IEnd=     7013523.
 Iteration    1 A*A^-1 deviation from unit magnitude is 3.11D-15 for   1521.
 Iteration    1 A*A^-1 deviation from orthogonality  is 2.12D-15 for   1494    817.
 Iteration    1 A^-1*A deviation from unit magnitude is 3.22D-15 for   1517.
 Iteration    1 A^-1*A deviation from orthogonality  is 1.74D-15 for   1517   1069.
 Error on total polarization charges =  0.00640
 SCF Done:  E(RwB97XD) =  -558.145953059     A.U. after   10 cycles
            NFock= 10  Conv=0.31D-08     -V/T= 2.0060
 D1PCM: C-PCM CHGder 1st derivatives, ID1Alg=3 FixD1E=F DoIter=F DoCFld=F I1PDM=0.
 Calling FoFJK, ICntrl=      2127 FMM=F ISym2X=0 I1Cent= 0 IOpClX= 0 NMat=1 NMatS=1 NMatT=0.
 ***** Axes restored to original set *****
 -------------------------------------------------------------------
 Center     Atomic                   Forces (Hartrees/Bohr)
 Number     Number              X              Y              Z
 -------------------------------------------------------------------
      1        5           0.000071941    0.000107966    0.000030092
      2        9          -0.000038328   -0.000020706   -0.000003565
      3        9           0.000088533    0.000005913   -0.000019062
      4        9          -0.000056569    0.000053045   -0.000036982
      5        8          -0.000063527   -0.000129893   -0.000188813
      6        6           0.000173445    0.000215546    0.000146737
      7        6          -0.000016248    0.000011385   -0.000045162
      8        6          -0.000228947   -0.000174896   -0.000015192
      9        6           0.000042023    0.000021077    0.000024925
     10        1           0.000056100    0.000017604    0.000049134
     11        1           0.000064423   -0.000005562    0.000009757
     12        1           0.000010423    0.000037316    0.000047720
     13        1          -0.000010146   -0.000004979    0.000028768
     14        1           0.000032692   -0.000055100   -0.000148591
     15        1          -0.000021034   -0.000011259   -0.000004189
     16        1          -0.000053601   -0.000060766    0.000117414
     17        1          -0.000001021   -0.000029754    0.000012728
     18        1          -0.000013126    0.000016495   -0.000009428
     19        1          -0.000037032    0.000006566    0.000003708
 -------------------------------------------------------------------
 Cartesian Forces:  Max     0.000228947 RMS     0.000077620

 GradGradGradGradGradGradGradGradGradGradGradGradGradGradGradGradGradGrad
 Berny optimization.
 Using GEDIIS/GDIIS optimizer.
 FormGI is forming the generalized inverse of G from B-inverse, IUseBI=4.
 Internal  Forces:  Max     0.000552664 RMS     0.000112783
 Search for a local minimum.
 Step number  18 out of a maximum of   97
 All quantities printed in internal units (Hartrees-Bohrs-Radians)
 Mixed Optimization -- En-DIIS/RFO-DIIS
 Swapping is turned off.
 Update second derivatives using D2CorX and points   10   11   12   13   14
                                                     15   16   17   18
 DE=  8.68D-06 DEPred=-1.00D-05 R=-8.64D-01
 Trust test=-8.64D-01 RLast= 7.75D-02 DXMaxT set to 2.64D-01
 ITU= -1  1 -1  1 -1  0  1  1  1  1  1  1  1  1  1  1  1  0
     Eigenvalues ---    0.00216   0.00262   0.00284   0.00596   0.01385
     Eigenvalues ---    0.02000   0.04506   0.04919   0.05229   0.05343
     Eigenvalues ---    0.05403   0.05422   0.05755   0.05864   0.06923
     Eigenvalues ---    0.09694   0.10277   0.12853   0.12939   0.13182
     Eigenvalues ---    0.13507   0.15976   0.16016   0.16067   0.16106
     Eigenvalues ---    0.16425   0.16688   0.20896   0.22428   0.23626
     Eigenvalues ---    0.25350   0.25784   0.28124   0.28524   0.28659
     Eigenvalues ---    0.29127   0.31024   0.31866   0.31929   0.32052
     Eigenvalues ---    0.32095   0.32154   0.32187   0.32214   0.32466
     Eigenvalues ---    0.32860   0.33725   0.38192   0.39511   0.41314
     Eigenvalues ---    0.48498
 En-DIIS/RFO-DIIS/Sim-DIIS IScMMF=       -3 using points:    18   17   16   15   14   13   12   11   10    9
 RFO step:  Lambda=-2.07427761D-05.
 DidBck=F Rises=F RFO-DIIS coefs:    2.44535   -1.33029   -0.45102    1.28647   -1.56002
                  RFO-DIIS coefs:    0.43486   -0.12649    0.34250   -0.68009    0.63875
 Iteration  1 RMS(Cart)=  0.00864276 RMS(Int)=  0.00005769
 Iteration  2 RMS(Cart)=  0.00005313 RMS(Int)=  0.00004496
 Iteration  3 RMS(Cart)=  0.00000000 RMS(Int)=  0.00004496
 Variable       Old X    -DE/DX   Delta X   Delta X   Delta X     New X
                                 (Linear)    (Quad)   (Total)
    R1        2.60433  -0.00002  -0.00022   0.00016  -0.00006   2.60427
    R2        2.61697  -0.00004  -0.00017   0.00024   0.00006   2.61703
    R3        2.60941   0.00001  -0.00047   0.00058   0.00011   2.60952
    R4        3.07362   0.00001   0.00087  -0.00129  -0.00042   3.07320
    R5        2.76778  -0.00019  -0.00063   0.00008  -0.00055   2.76723
    R6        2.76902  -0.00027  -0.00155   0.00041  -0.00113   2.76789
    R7        2.85694   0.00008   0.00017   0.00015   0.00032   2.85726
    R8        2.07262   0.00006   0.00029  -0.00032  -0.00003   2.07259
    R9        2.05951  -0.00006   0.00001  -0.00002  -0.00002   2.05949
   R10        2.07420  -0.00003   0.00006  -0.00015  -0.00009   2.07410
   R11        2.07163  -0.00003   0.00004   0.00001   0.00005   2.07168
   R12        2.07353  -0.00001  -0.00001  -0.00006  -0.00007   2.07346
   R13        2.85402   0.00000  -0.00005   0.00031   0.00026   2.85428
   R14        2.07259   0.00000   0.00026  -0.00002   0.00023   2.07282
   R15        2.06778  -0.00001   0.00018  -0.00016   0.00002   2.06780
   R16        2.07454  -0.00001   0.00007  -0.00014  -0.00007   2.07448
   R17        2.07100   0.00001  -0.00012   0.00005  -0.00006   2.07094
   R18        2.06623   0.00003  -0.00007   0.00006  -0.00001   2.06623
    A1        1.98444   0.00000   0.00062  -0.00042   0.00018   1.98462
    A2        1.97087  -0.00008   0.00001  -0.00020  -0.00022   1.97064
    A3        1.83356   0.00005   0.00053  -0.00003   0.00048   1.83404
    A4        1.98360   0.00003   0.00051  -0.00042   0.00007   1.98368
    A5        1.83768  -0.00016  -0.00088   0.00066  -0.00024   1.83744
    A6        1.83436   0.00018  -0.00088   0.00063  -0.00027   1.83409
    A7        2.06061   0.00055  -0.00060   0.00029  -0.00021   2.06040
    A8        2.04111  -0.00018   0.00289  -0.00082   0.00230   2.04340
    A9        1.95869  -0.00043  -0.00053   0.00036   0.00006   1.95875
   A10        1.92151   0.00005   0.00066   0.00008   0.00075   1.92226
   A11        1.87204  -0.00007   0.00022  -0.00019   0.00006   1.87210
   A12        1.84707   0.00005  -0.00068   0.00072   0.00001   1.84708
   A13        1.96925   0.00007  -0.00054   0.00033  -0.00016   1.96909
   A14        1.94700  -0.00012   0.00040  -0.00071  -0.00035   1.94665
   A15        1.90149   0.00002  -0.00008  -0.00019  -0.00029   1.90120
   A16        1.89604  -0.00008   0.00015  -0.00025  -0.00010   1.89594
   A17        1.92695  -0.00006   0.00010  -0.00010   0.00002   1.92697
   A18        1.95826   0.00024  -0.00025   0.00060   0.00037   1.95863
   A19        1.89461   0.00004  -0.00018  -0.00002  -0.00019   1.89442
   A20        1.88367  -0.00006  -0.00012   0.00007  -0.00007   1.88361
   A21        1.90281  -0.00009   0.00021  -0.00031  -0.00006   1.90276
   A22        1.95646   0.00008   0.00084   0.00069   0.00153   1.95799
   A23        1.86786  -0.00005   0.00022  -0.00006   0.00015   1.86801
   A24        1.83836  -0.00004   0.00073  -0.00047   0.00026   1.83862
   A25        1.95936  -0.00002  -0.00074  -0.00003  -0.00077   1.95859
   A26        1.92699   0.00006  -0.00082   0.00012  -0.00070   1.92629
   A27        1.90990  -0.00003  -0.00011  -0.00029  -0.00041   1.90950
   A28        1.87412  -0.00004  -0.00006  -0.00054  -0.00060   1.87352
   A29        1.93545   0.00003   0.00019   0.00014   0.00034   1.93578
   A30        1.95702  -0.00002  -0.00015   0.00044   0.00029   1.95731
   A31        1.89622   0.00001  -0.00002   0.00001  -0.00001   1.89621
   A32        1.89409   0.00003  -0.00019   0.00011  -0.00008   1.89401
   A33        1.90539  -0.00001   0.00022  -0.00019   0.00004   1.90543
    D1       -2.55648  -0.00013   0.00148   0.00010   0.00153  -2.55496
    D2        1.30500   0.00012  -0.00174   0.00020  -0.00149   1.30351
    D3        1.62646  -0.00007   0.00098   0.00028   0.00121   1.62767
    D4       -0.79524   0.00017  -0.00223   0.00038  -0.00181  -0.79705
    D5       -0.47321  -0.00012   0.00126   0.00015   0.00137  -0.47184
    D6       -2.89491   0.00013  -0.00195   0.00025  -0.00165  -2.89656
    D7        2.30520  -0.00007   0.00095  -0.00012   0.00090   2.30610
    D8       -1.82926  -0.00000   0.00096   0.00022   0.00120  -1.82806
    D9        0.19882   0.00001   0.00060   0.00026   0.00090   0.19972
   D10       -1.52426  -0.00023   0.00537  -0.00068   0.00467  -1.51959
   D11        0.62446  -0.00016   0.00538  -0.00034   0.00497   0.62943
   D12        2.65254  -0.00015   0.00502  -0.00030   0.00467   2.65721
   D13       -1.05454   0.00008   0.01486   0.00024   0.01516  -1.03938
   D14        1.10091   0.00007   0.01462   0.00060   0.01527   1.11618
   D15        3.13248  -0.00001   0.01492   0.00002   0.01500  -3.13571
   D16        2.76665  -0.00007   0.01221   0.00033   0.01248   2.77913
   D17       -1.36108  -0.00008   0.01197   0.00069   0.01260  -1.34849
   D18        0.67048  -0.00016   0.01227   0.00011   0.01232   0.68281
   D19       -3.12095  -0.00002   0.00455  -0.00008   0.00447  -3.11648
   D20       -1.04526  -0.00005   0.00451  -0.00031   0.00420  -1.04106
   D21        1.08112  -0.00004   0.00480  -0.00037   0.00440   1.08552
   D22        1.07153  -0.00000   0.00408  -0.00011   0.00398   1.07551
   D23       -3.13596  -0.00004   0.00404  -0.00035   0.00371  -3.13226
   D24       -1.00959  -0.00003   0.00433  -0.00041   0.00391  -1.00568
   D25       -1.07576   0.00000   0.00431   0.00043   0.00475  -1.07101
   D26        0.99994  -0.00003   0.00427   0.00020   0.00448   1.00441
   D27        3.12631  -0.00002   0.00455   0.00014   0.00467   3.13099
   D28       -3.01578  -0.00002  -0.00168   0.00020  -0.00148  -3.01726
   D29       -0.94655  -0.00001  -0.00164  -0.00003  -0.00167  -0.94822
   D30        1.18838  -0.00002  -0.00131   0.00014  -0.00117   1.18721
   D31        1.16424   0.00000  -0.00203  -0.00019  -0.00222   1.16202
   D32       -3.04971   0.00001  -0.00199  -0.00042  -0.00241  -3.05212
   D33       -0.91479   0.00001  -0.00166  -0.00025  -0.00191  -0.91669
   D34       -0.97204   0.00002  -0.00077   0.00011  -0.00065  -0.97270
   D35        1.09719   0.00002  -0.00073  -0.00011  -0.00084   1.09635
   D36       -3.05107   0.00002  -0.00040   0.00006  -0.00034  -3.05141
         Item               Value     Threshold  Converged?
 Maximum Force            0.000553     0.000450     NO 
 RMS     Force            0.000113     0.000300     YES
 Maximum Displacement     0.032664     0.001800     NO 
 RMS     Displacement     0.008642     0.001200     NO 
 Predicted change in Energy=-1.005070D-05
 GradGradGradGradGradGradGradGradGradGradGradGradGradGradGradGradGradGrad

                          Input orientation:                          
 ---------------------------------------------------------------------
 Center     Atomic      Atomic             Coordinates (Angstroms)
 Number     Number       Type             X           Y           Z
 ---------------------------------------------------------------------
      1          5           0       -1.801798    0.681205   -0.193292
      2          9           0       -1.592221    1.681789   -1.117480
      3          9           0       -2.122147    1.148504    1.070386
      4          9           0       -2.653328   -0.304415   -0.651907
      5          8           0       -0.358774   -0.050011   -0.026693
      6          6           0       -0.342895   -1.490950    0.233662
      7          6           0        0.639581   -2.175877   -0.689239
      8          6           0        0.665372    0.662946    0.740228
      9          6           0        0.997525    2.006987    0.136416
     10          1           0       -0.096918   -1.627474    1.293735
     11          1           0       -1.362069   -1.835692    0.059938
     12          1           0        0.612725   -3.255113   -0.491285
     13          1           0        0.362403   -2.006483   -1.736294
     14          1           0        1.668483   -1.829083   -0.531111
     15          1           0        0.293743    0.750610    1.768516
     16          1           0        1.544200    0.011187    0.725580
     17          1           0        1.854087    2.412115    0.690730
     18          1           0        1.279527    1.903412   -0.917495
     19          1           0        0.166042    2.712324    0.218019
 ---------------------------------------------------------------------
                    Distance matrix (angstroms):
                    1          2          3          4          5
     1  B    0.000000
     2  F    1.378120   0.000000
     3  F    1.384873   2.313433   0.000000
     4  F    1.380898   2.299504   2.315042   0.000000
     5  O    1.626270   2.389632   2.397813   2.391776   0.000000
     6  C    2.651216   3.667788   3.291285   2.744120   1.464356
     7  C    3.790675   4.477267   4.666361   3.787745   2.440283
     8  C    2.637939   3.096102   2.848690   3.726607   1.464702
     9  C    3.114902   2.895651   3.367737   4.392353   2.469290
    10  H    3.232316   4.359027   3.443471   3.474369   2.073761
    11  H    2.567540   3.716445   3.241011   2.125766   2.050064
    12  H    4.627453   5.443061   5.413888   4.404488   3.381173
    13  H    3.779986   4.219815   4.899427   3.628714   2.696407
    14  H    4.296339   4.827240   5.079340   4.584458   2.743958
    15  H    2.871377   3.571124   2.546023   3.956862   2.071123
    16  H    3.533972   4.003114   3.854152   4.429032   2.047186
    17  H    4.140416   3.959803   4.189426   5.431299   3.387258
    18  H    3.393056   2.887221   4.011601   4.518007   2.700634
    19  H    2.857799   2.436606   2.899634   4.219756   2.822377
                    6          7          8          9         10
     6  C    0.000000
     7  C    1.511995   0.000000
     8  C    2.431559   3.178515   0.000000
     9  C    3.747232   4.278572   1.510417   0.000000
    10  H    1.096768   2.185260   2.476586   3.968186   0.000000
    11  H    1.089836   2.164161   3.288846   4.509958   1.779387
    12  H    2.133314   1.097569   4.107381   5.313358   2.517757
    13  H    2.154982   1.096288   3.653875   4.474189   3.087993
    14  H    2.178269   1.097229   2.971993   3.951102   2.547027
    15  H    2.790283   3.837250   1.096891   2.176589   2.456281
    16  H    2.461611   2.757407   1.094232   2.151554   2.387735
    17  H    4.502172   4.942571   2.115440   1.097767   4.526401
    18  H    3.934350   4.135485   2.159627   1.095893   4.387630
    19  H    4.234001   4.994182   2.173012   1.093400   4.478857
                   11         12         13         14         15
    11  H    0.000000
    12  H    2.493675   0.000000
    13  H    2.495881   1.780950   0.000000
    14  H    3.087658   1.774760   1.785997   0.000000
    15  H    3.514245   4.610235   4.459818   3.719276   0.000000
    16  H    3.507199   3.607924   3.395359   2.231885   1.788325
    17  H    5.365205   5.920777   5.257335   4.417590   2.521288
    18  H    4.681272   5.218875   4.098638   3.772546   3.084701
    19  H    4.800475   6.026021   5.111265   4.841787   2.503731
                   16         17         18         19
    16  H    0.000000
    17  H    2.421095   0.000000
    18  H    2.519974   1.781933   0.000000
    19  H    3.074586   1.778504   1.784258   0.000000
 Stoichiometry    C4H10BF3O
 Framework group  C1[X(C4H10BF3O)]
 Deg. of freedom    51
 Full point group                 C1      NOp   1
 Largest Abelian subgroup         C1      NOp   1
 Largest concise Abelian subgroup C1      NOp   1
                         Standard orientation:                         
 ---------------------------------------------------------------------
 Center     Atomic      Atomic             Coordinates (Angstroms)
 Number     Number       Type             X           Y           Z
 ---------------------------------------------------------------------
      1          5           0       -0.994192   -0.683891   -0.048175
      2          9           0       -1.661245   -0.148855   -1.128912
      3          9           0       -1.613299   -0.437765    1.165910
      4          9           0       -0.644299   -2.006795   -0.233592
      5          8           0        0.416920    0.121692    0.019294
      6          6           0        1.602062   -0.602887    0.482719
      7          6           0        2.760437   -0.362390   -0.458800
      8          6           0        0.376290    1.496732    0.522253
      9          6           0       -0.517875    2.383035   -0.312191
     10          1           0        1.809081   -0.267471    1.506212
     11          1           0        1.317253   -1.654591    0.506101
     12          1           0        3.626059   -0.935998   -0.103372
     13          1           0        2.508155   -0.702585   -1.469971
     14          1           0        3.049709    0.695252   -0.499119
     15          1           0        0.050832    1.446587    1.568547
     16          1           0        1.410625    1.851267    0.479831
     17          1           0       -0.390710    3.411105    0.051115
     18          1           0       -0.228898    2.346530   -1.368667
     19          1           0       -1.572396    2.109606   -0.218686
 ---------------------------------------------------------------------
 Rotational constants (GHZ):           1.7598506           1.4067793           0.9998972
 Standard basis: Aug-CC-pVDZ (5D, 7F)
 There are   315 symmetry adapted cartesian basis functions of A   symmetry.
 There are   297 symmetry adapted basis functions of A   symmetry.
   297 basis functions,   497 primitive gaussians,   315 cartesian basis functions
    37 alpha electrons       37 beta electrons
       nuclear repulsion energy       523.6418775540 Hartrees.
 NAtoms=   19 NActive=   19 NUniq=   19 SFac= 1.00D+00 NAtFMM=   60 NAOKFM=F Big=F
 Integral buffers will be    131072 words long.
 Raffenetti 2 integral format.
 Two-electron integral symmetry is turned on.
 Nuclear repulsion after empirical dispersion term =      523.6298499413 Hartrees.
 Force PCM accuracy= 1.00D-12.
 ------------------------------------------------------------------------------
 Polarizable Continuum Model (PCM)
 =================================
 Model                : C-PCM.
 Atomic radii         : UFF (Universal Force Field).
 Polarization charges : Total charges.
 Charge compensation  : None.
 Solution method      : On-the-fly selection.
 Cavity type          : Scaled VdW (van der Waals Surface) (Alpha=1.100).
 Cavity algorithm     : GePol (No added spheres)
                        Default sphere list used, NSphG=   19.
                        Lebedev-Laikov grids with approx.  5.0 points / Ang**2.
                        Smoothing algorithm: York/Karplus (Gamma=1.0000).
                        Polarization charges: spherical gaussians, with
                                              point-specific exponents (IZeta= 3).
                        Self-potential: point-specific (ISelfS= 7).
                        Self-field    : sphere-specific E.n sum rule (ISelfD= 2).
 1st derivatives      : Analytical E(r).r(x)/FMM algorithm (CHGder, D1EAlg=3).
                        Cavity 1st derivative terms included.
 Solvent              : Benzene, Eps=   2.270600 Eps(inf)=   2.253301
 ------------------------------------------------------------------------------
 Spheres list:
 ISph  on   Nord     Re0    Alpha      Xe            Ye            Ze
    1   B      1    2.0415  1.100     -0.994192     -0.683891     -0.048175
    2   F      2    1.6820  1.100     -1.661245     -0.148855     -1.128912
    3   F      3    1.6820  1.100     -1.613299     -0.437765      1.165910
    4   F      4    1.6820  1.100     -0.644299     -2.006795     -0.233592
    5   O      5    1.7500  1.100      0.416920      0.121692      0.019294
    6   C      6    1.9255  1.100      1.602062     -0.602887      0.482719
    7   C      7    1.9255  1.100      2.760437     -0.362390     -0.458800
    8   C      8    1.9255  1.100      0.376290      1.496732      0.522253
    9   C      9    1.9255  1.100     -0.517875      2.383035     -0.312191
   10   H     10    1.4430  1.100      1.809081     -0.267471      1.506212
   11   H     11    1.4430  1.100      1.317253     -1.654591      0.506101
   12   H     12    1.4430  1.100      3.626059     -0.935998     -0.103372
   13   H     13    1.4430  1.100      2.508155     -0.702585     -1.469971
   14   H     14    1.4430  1.100      3.049709      0.695252     -0.499119
   15   H     15    1.4430  1.100      0.050832      1.446587      1.568547
   16   H     16    1.4430  1.100      1.410625      1.851267      0.479831
   17   H     17    1.4430  1.100     -0.390710      3.411105      0.051115
   18   H     18    1.4430  1.100     -0.228898      2.346530     -1.368667
   19   H     19    1.4430  1.100     -1.572396      2.109606     -0.218686
 ------------------------------------------------------------------------------
 One-electron integrals computed using PRISM.
 NBasis=   297 RedAO= T EigKep=  2.65D-05  NBF=   297
 NBsUse=   297 1.00D-06 EigRej= -1.00D+00 NBFU=   297
 Initial guess from the checkpoint file:  "/inspire/hdd/project/materialscienceresearch/lipenghui-253107030018/g16/00-B-DFT-Shift/04-output/BF3OEt2_C6D6/BF3OEt2_C6D6.chk"
 B after Tr=    -0.000000   -0.000000   -0.000000
         Rot=    0.999995    0.000549   -0.000423   -0.003047 Ang=   0.36 deg.
 ExpMin= 2.38D-02 ExpMax= 1.47D+04 ExpMxC= 5.03D+02 IAcc=3 IRadAn=         5 AccDes= 0.00D+00
 Harris functional with IExCor= 4639 and IRadAn=       5 diagonalized for initial guess.
 HarFok:  IExCor= 4639 AccDes= 0.00D+00 IRadAn=         5 IDoV= 1 UseB2=F ITyADJ=14
 ICtDFT=  3500011 ScaDFX=  1.000000  1.000000  1.000000  1.000000
 FoFCou: FMM=F IPFlag=           0 FMFlag=      100000 FMFlg1=           0
         NFxFlg=           0 DoJE=T BraDBF=F KetDBF=T FulRan=T
         wScrn=  0.000000 ICntrl=       500 IOpCl=  0 I1Cent=   200000004 NGrid=           0
         NMat0=    1 NMatS0=      1 NMatT0=    0 NMatD0=    1 NMtDS0=    0 NMtDT0=    0
 Petite list used in FoFCou.
 Requested convergence on RMS density matrix=1.00D-08 within 128 cycles.
 Requested convergence on MAX density matrix=1.00D-06.
 Requested convergence on             energy=1.00D-06.
 No special actions if energy rises.
 Inv3:  Mode=1 IEnd=     6958587.
 Iteration    1 A*A^-1 deviation from unit magnitude is 4.66D-15 for   1519.
 Iteration    1 A*A^-1 deviation from orthogonality  is 2.96D-15 for   1510   1064.
 Iteration    1 A^-1*A deviation from unit magnitude is 4.44D-15 for   1519.
 Iteration    1 A^-1*A deviation from orthogonality  is 2.47D-15 for   1510   1064.
 Error on total polarization charges =  0.00640
 SCF Done:  E(RwB97XD) =  -558.145944154     A.U. after    9 cycles
            NFock=  9  Conv=0.88D-08     -V/T= 2.0060
 D1PCM: C-PCM CHGder 1st derivatives, ID1Alg=3 FixD1E=F DoIter=F DoCFld=F I1PDM=0.
 Calling FoFJK, ICntrl=      2127 FMM=F ISym2X=0 I1Cent= 0 IOpClX= 0 NMat=1 NMatS=1 NMatT=0.
 ***** Axes restored to original set *****
 -------------------------------------------------------------------
 Center     Atomic                   Forces (Hartrees/Bohr)
 Number     Number              X              Y              Z
 -------------------------------------------------------------------
      1        5           0.000028493    0.000148762    0.000098932
      2        9          -0.000021979   -0.000032278   -0.000002220
      3        9           0.000086647    0.000007436   -0.000031459
      4        9          -0.000080336    0.000094379   -0.000026520
      5        8          -0.000112465   -0.000145453   -0.000501529
      6        6           0.000256912    0.000040388    0.000147038
      7        6          -0.000047755    0.000086716   -0.000063455
      8        6          -0.000115920   -0.000024803    0.000253974
      9        6          -0.000015128   -0.000065960   -0.000025252
     10        1           0.000103058    0.000033295    0.000085594
     11        1           0.000080444    0.000029220   -0.000004975
     12        1           0.000013594    0.000017976    0.000075572
     13        1          -0.000032253   -0.000012713    0.000042958
     14        1           0.000041424   -0.000067247   -0.000156411
     15        1          -0.000051847    0.000010594   -0.000040974
     16        1          -0.000086214   -0.000114772    0.000127696
     17        1           0.000011552   -0.000026938    0.000023519
     18        1          -0.000013378    0.000016862   -0.000013805
     19        1          -0.000044849    0.000004535    0.000011316
 -------------------------------------------------------------------
 Cartesian Forces:  Max     0.000501529 RMS     0.000106216

 GradGradGradGradGradGradGradGradGradGradGradGradGradGradGradGradGradGrad
 Berny optimization.
 Using GEDIIS/GDIIS optimizer.
 FormGI is forming the generalized inverse of G from B-inverse, IUseBI=4.
 Internal  Forces:  Max     0.000734956 RMS     0.000139523
 Search for a local minimum.
 Step number  19 out of a maximum of   97
 All quantities printed in internal units (Hartrees-Bohrs-Radians)
 Mixed Optimization -- En-DIIS/RFO-DIIS
 Swapping is turned off.
 Update second derivatives using D2CorX and points   10   11   12   13   14
                                                     15   16   17   18   19
 DE=  8.90D-06 DEPred=-1.01D-05 R=-8.86D-01
 Trust test=-8.86D-01 RLast= 3.80D-02 DXMaxT set to 1.32D-01
 ITU= -1 -1  1 -1  1 -1  0  1  1  1  1  1  1  1  1  1  1  1  0
     Eigenvalues ---    0.00194   0.00251   0.00277   0.00395   0.01422
     Eigenvalues ---    0.02251   0.04505   0.04957   0.05259   0.05344
     Eigenvalues ---    0.05389   0.05470   0.05753   0.05867   0.06684
     Eigenvalues ---    0.09706   0.10303   0.12862   0.12986   0.13183
     Eigenvalues ---    0.13534   0.15975   0.16017   0.16073   0.16114
     Eigenvalues ---    0.16430   0.16671   0.21054   0.23447   0.23632
     Eigenvalues ---    0.25346   0.25796   0.28133   0.28533   0.28747
     Eigenvalues ---    0.29026   0.31233   0.31884   0.31904   0.32046
     Eigenvalues ---    0.32092   0.32154   0.32184   0.32211   0.32434
     Eigenvalues ---    0.32852   0.34528   0.38057   0.38362   0.41326
     Eigenvalues ---    0.48327
 En-DIIS/RFO-DIIS/Sim-DIIS IScMMF=       -3 using points:    19   18   17   16   15   14   13   12   11   10
 RFO step:  Lambda=-3.70618570D-05.
 DIIS inversion failure, remove point  10.
 DIIS inversion failure, remove point   9.
 DIIS inversion failure, remove point   8.
 RFO-DIIS uses    7 points instead of   10
 EnCoef did   100 forward-backward iterations
 EnCoef did   100 forward-backward iterations
 EnCoef did   100 forward-backward iterations
 EnCoef did   100 forward-backward iterations
 EnCoef did   100 forward-backward iterations
 EnCoef did   100 forward-backward iterations
 DidBck=T Rises=T En-DIIS coefs:    0.31108    0.00000    0.68892    0.00000    0.00000
                  En-DIIS coefs:    0.00000    0.00000    0.00000    0.00000    0.00000
 Iteration  1 RMS(Cart)=  0.02358419 RMS(Int)=  0.00024855
 Iteration  2 RMS(Cart)=  0.00031510 RMS(Int)=  0.00000165
 Iteration  3 RMS(Cart)=  0.00000005 RMS(Int)=  0.00000165
 Variable       Old X    -DE/DX   Delta X   Delta X   Delta X     New X
                                 (Linear)    (Quad)   (Total)
    R1        2.60427  -0.00003   0.00015  -0.00010   0.00005   2.60432
    R2        2.61703  -0.00005  -0.00017  -0.00006  -0.00023   2.61680
    R3        2.60952  -0.00001   0.00002  -0.00012  -0.00010   2.60942
    R4        3.07320   0.00008   0.00046  -0.00076  -0.00030   3.07291
    R5        2.76723  -0.00009   0.00041  -0.00091  -0.00051   2.76673
    R6        2.76789  -0.00015   0.00125  -0.00156  -0.00031   2.76757
    R7        2.85726   0.00003  -0.00032  -0.00001  -0.00033   2.85693
    R8        2.07259   0.00010  -0.00013   0.00004  -0.00010   2.07249
    R9        2.05949  -0.00008   0.00008  -0.00005   0.00003   2.05952
   R10        2.07410  -0.00000   0.00008  -0.00009  -0.00000   2.07410
   R11        2.07168  -0.00004  -0.00009  -0.00004  -0.00013   2.07155
   R12        2.07346  -0.00000   0.00017   0.00008   0.00025   2.07371
   R13        2.85428  -0.00007  -0.00021   0.00000  -0.00021   2.85407
   R14        2.07282  -0.00002  -0.00031   0.00013  -0.00018   2.07265
   R15        2.06780  -0.00000   0.00004   0.00017   0.00021   2.06801
   R16        2.07448   0.00001   0.00004  -0.00004  -0.00000   2.07448
   R17        2.07094   0.00001   0.00014  -0.00002   0.00011   2.07105
   R18        2.06623   0.00004   0.00010  -0.00001   0.00009   2.06631
    A1        1.98462   0.00000  -0.00045  -0.00003  -0.00048   1.98414
    A2        1.97064  -0.00010   0.00042  -0.00012   0.00030   1.97094
    A3        1.83404  -0.00001  -0.00063   0.00038  -0.00025   1.83379
    A4        1.98368   0.00000   0.00007   0.00046   0.00053   1.98421
    A5        1.83744  -0.00016   0.00035  -0.00058  -0.00023   1.83721
    A6        1.83409   0.00028   0.00023  -0.00017   0.00006   1.83415
    A7        2.06040   0.00073   0.00191   0.00208   0.00400   2.06439
    A8        2.04340  -0.00031  -0.00292   0.00200  -0.00093   2.04248
    A9        1.95875  -0.00049  -0.00021  -0.00008  -0.00029   1.95847
   A10        1.92226   0.00006  -0.00180  -0.00053  -0.00234   1.91992
   A11        1.87210  -0.00010  -0.00017  -0.00023  -0.00040   1.87170
   A12        1.84708   0.00004   0.00085   0.00125   0.00210   1.84919
   A13        1.96909   0.00008   0.00047  -0.00043   0.00004   1.96913
   A14        1.94665  -0.00013   0.00049   0.00043   0.00092   1.94757
   A15        1.90120   0.00004   0.00016  -0.00041  -0.00024   1.90096
   A16        1.89594  -0.00011   0.00064   0.00038   0.00102   1.89696
   A17        1.92697  -0.00008  -0.00012  -0.00025  -0.00037   1.92660
   A18        1.95863   0.00027  -0.00081  -0.00052  -0.00132   1.95731
   A19        1.89442   0.00006   0.00045   0.00020   0.00065   1.89507
   A20        1.88361  -0.00006   0.00032   0.00034   0.00066   1.88427
   A21        1.90276  -0.00008  -0.00043  -0.00012  -0.00055   1.90220
   A22        1.95799  -0.00003  -0.00198   0.00060  -0.00138   1.95660
   A23        1.86801  -0.00002  -0.00027   0.00022  -0.00005   1.86796
   A24        1.83862  -0.00004  -0.00033   0.00011  -0.00022   1.83840
   A25        1.95859   0.00001   0.00100  -0.00045   0.00055   1.95915
   A26        1.92629   0.00012   0.00126  -0.00008   0.00118   1.92746
   A27        1.90950  -0.00004   0.00022  -0.00037  -0.00015   1.90934
   A28        1.87352  -0.00004   0.00088  -0.00020   0.00068   1.87420
   A29        1.93578   0.00004  -0.00045   0.00004  -0.00041   1.93538
   A30        1.95731  -0.00004  -0.00046  -0.00001  -0.00047   1.95684
   A31        1.89621   0.00001   0.00010   0.00018   0.00028   1.89649
   A32        1.89401   0.00003   0.00019  -0.00001   0.00018   1.89418
   A33        1.90543  -0.00000  -0.00021  -0.00000  -0.00021   1.90522
    D1       -2.55496  -0.00016   0.00106   0.00367   0.00474  -2.55022
    D2        1.30351   0.00015   0.00286  -0.00188   0.00098   1.30449
    D3        1.62767  -0.00008   0.00170   0.00380   0.00551   1.63318
    D4       -0.79705   0.00022   0.00350  -0.00175   0.00175  -0.79530
    D5       -0.47184  -0.00014   0.00135   0.00363   0.00499  -0.46685
    D6       -2.89656   0.00016   0.00315  -0.00192   0.00123  -2.89533
    D7        2.30610  -0.00006  -0.01452  -0.01752  -0.03204   2.27407
    D8       -1.82806   0.00002  -0.01515  -0.01851  -0.03366  -1.86172
    D9        0.19972   0.00004  -0.01463  -0.01848  -0.03311   0.16661
   D10       -1.51959  -0.00031  -0.01735  -0.01146  -0.02881  -1.54840
   D11        0.62943  -0.00023  -0.01798  -0.01246  -0.03044   0.59900
   D12        2.65721  -0.00021  -0.01746  -0.01243  -0.02988   2.62733
   D13       -1.03938   0.00008  -0.02214   0.00492  -0.01722  -1.05660
   D14        1.11618   0.00006  -0.02233   0.00489  -0.01744   1.09874
   D15       -3.13571  -0.00002  -0.02236   0.00462  -0.01775   3.12973
   D16        2.77913  -0.00012  -0.02138  -0.00111  -0.02248   2.75665
   D17       -1.34849  -0.00014  -0.02156  -0.00114  -0.02270  -1.37119
   D18        0.68281  -0.00022  -0.02160  -0.00141  -0.02301   0.65980
   D19       -3.11648  -0.00002  -0.01224  -0.00356  -0.01580  -3.13228
   D20       -1.04106  -0.00007  -0.01136  -0.00323  -0.01459  -1.05565
   D21        1.08552  -0.00004  -0.01256  -0.00391  -0.01647   1.06904
   D22        1.07551   0.00000  -0.01108  -0.00261  -0.01369   1.06182
   D23       -3.13226  -0.00004  -0.01021  -0.00228  -0.01249   3.13844
   D24       -1.00568  -0.00002  -0.01140  -0.00297  -0.01437  -1.02005
   D25       -1.07101  -0.00001  -0.01202  -0.00209  -0.01411  -1.08511
   D26        1.00441  -0.00006  -0.01115  -0.00176  -0.01290   0.99151
   D27        3.13099  -0.00003  -0.01235  -0.00244  -0.01478   3.11620
   D28       -3.01726  -0.00002   0.00134   0.00101   0.00235  -3.01492
   D29       -0.94822  -0.00001   0.00174   0.00113   0.00287  -0.94535
   D30        1.18721  -0.00001   0.00081   0.00116   0.00197   1.18918
   D31        1.16202   0.00003   0.00238   0.00062   0.00300   1.16502
   D32       -3.05212   0.00004   0.00278   0.00074   0.00353  -3.04859
   D33       -0.91669   0.00003   0.00186   0.00077   0.00263  -0.91407
   D34       -0.97270  -0.00001   0.00050   0.00147   0.00197  -0.97073
   D35        1.09635  -0.00000   0.00090   0.00159   0.00249   1.09884
   D36       -3.05141  -0.00001  -0.00003   0.00162   0.00159  -3.04982
         Item               Value     Threshold  Converged?
 Maximum Force            0.000735     0.000450     NO 
 RMS     Force            0.000140     0.000300     YES
 Maximum Displacement     0.090134     0.001800     NO 
 RMS     Displacement     0.023607     0.001200     NO 
 Predicted change in Energy=-1.794431D-05
 GradGradGradGradGradGradGradGradGradGradGradGradGradGradGradGradGradGrad

                          Input orientation:                          
 ---------------------------------------------------------------------
 Center     Atomic      Atomic             Coordinates (Angstroms)
 Number     Number       Type             X           Y           Z
 ---------------------------------------------------------------------
      1          5           0       -1.801032    0.676353   -0.198844
      2          9           0       -1.586159    1.674746   -1.124225
      3          9           0       -2.132617    1.147167    1.060491
      4          9           0       -2.645944   -0.313042   -0.661393
      5          8           0       -0.357529   -0.050145   -0.017907
      6          6           0       -0.333696   -1.490971    0.240954
      7          6           0        0.630323   -2.170461   -0.704862
      8          6           0        0.656647    0.668382    0.756709
      9          6           0        1.005348    2.001389    0.138219
     10          1           0       -0.062941   -1.627430    1.294927
     11          1           0       -1.355425   -1.839206    0.090678
     12          1           0        0.624075   -3.248505   -0.498865
     13          1           0        0.321062   -2.011720   -1.744505
     14          1           0        1.658330   -1.807815   -0.578807
     15          1           0        0.267267    0.772946    1.776716
     16          1           0        1.531819    0.011460    0.767333
     17          1           0        1.855760    2.410683    0.698904
     18          1           0        1.301986    1.880254   -0.909848
     19          1           0        0.176264    2.711895    0.196739
 ---------------------------------------------------------------------
                    Distance matrix (angstroms):
                    1          2          3          4          5
     1  B    0.000000
     2  F    1.378147   0.000000
     3  F    1.384752   2.312993   0.000000
     4  F    1.380844   2.299708   2.315297   0.000000
     5  O    1.626111   2.389293   2.397381   2.391659   0.000000
     6  C    2.654014   3.667989   3.296594   2.747406   1.464089
     7  C    3.777816   4.458058   4.664437   3.766407   2.437930
     8  C    2.636917   3.095297   2.846316   3.725764   1.464535
     9  C    3.121715   2.901098   3.380400   4.396352   2.467914
    10  H    3.249573   4.367706   3.469425   3.496671   2.073196
    11  H    2.571075   3.725196   3.234654   2.135469   2.051420
    12  H    4.623383   5.432735   5.417830   4.397315   3.379996
    13  H    3.757404   4.196698   4.885397   3.586330   2.699889
    14  H    4.275822   4.790869   5.078435   4.557186   2.732710
    15  H    2.861822   3.558636   2.532284   3.951018   2.070874
    16  H    3.533196   4.008279   3.847578   4.427218   2.046957
    17  H    4.145597   3.963863   4.199329   5.434558   3.386464
    18  H    3.403472   2.903372   4.026928   4.523099   2.697404
    19  H    2.865243   2.434493   2.919824   4.225102   2.821324
                    6          7          8          9         10
     6  C    0.000000
     7  C    1.511823   0.000000
     8  C    2.430964   3.193104   0.000000
     9  C    3.741680   4.272677   1.510308   0.000000
    10  H    1.096717   2.185098   2.465408   3.955697   0.000000
    11  H    1.089853   2.164673   3.283295   4.508401   1.779207
    12  H    2.133913   1.097567   4.113336   5.302135   2.513477
    13  H    2.154515   1.096220   3.681254   4.485303   3.087601
    14  H    2.177284   1.097360   2.986390   3.930719   2.550724
    15  H    2.800900   3.867000   1.096798   2.176812   2.470418
    16  H    2.452451   2.782235   1.094342   2.152388   2.346822
    17  H    4.497370   4.945618   2.115851   1.097765   4.510322
    18  H    3.919816   4.111137   2.159285   1.095953   4.362099
    19  H    4.233921   4.985625   2.172621   1.093445   4.482519
                   11         12         13         14         15
    11  H    0.000000
    12  H    2.500421   0.000000
    13  H    2.491639   1.781312   0.000000
    14  H    3.087380   1.775292   1.785697   0.000000
    15  H    3.507020   4.634399   4.489572   3.760835   0.000000
    16  H    3.495568   3.613119   3.445072   2.266685   1.788241
    17  H    5.361268   5.914229   5.280454   4.412171   2.523325
    18  H    4.679451   5.189667   4.099552   3.720004   3.084543
    19  H    4.803107   6.017538   5.109005   4.819312   2.502825
                   16         17         18         19
    16  H    0.000000
    17  H    2.421960   0.000000
    18  H    2.521538   1.782163   0.000000
    19  H    3.074972   1.778653   1.784211   0.000000
 Stoichiometry    C4H10BF3O
 Framework group  C1[X(C4H10BF3O)]
 Deg. of freedom    51
 Full point group                 C1      NOp   1
 Largest Abelian subgroup         C1      NOp   1
 Largest concise Abelian subgroup C1      NOp   1
                         Standard orientation:                         
 ---------------------------------------------------------------------
 Center     Atomic      Atomic             Coordinates (Angstroms)
 Number     Number       Type             X           Y           Z
 ---------------------------------------------------------------------
      1          5           0       -0.990326   -0.687651   -0.048990
      2          9           0       -1.652216   -0.156249   -1.134717
      3          9           0       -1.619957   -0.444145    1.160063
      4          9           0       -0.631495   -2.008515   -0.231444
      5          8           0        0.415418    0.126021    0.028870
      6          6           0        1.605538   -0.588349    0.494539
      7          6           0        2.750575   -0.367903   -0.467699
      8          6           0        0.361947    1.500097    0.532774
      9          6           0       -0.513529    2.385317   -0.322188
     10          1           0        1.825338   -0.228415    1.506924
     11          1           0        1.322521   -1.639508    0.546940
     12          1           0        3.626917   -0.919474   -0.103765
     13          1           0        2.490056   -0.744063   -1.463857
     14          1           0        3.026299    0.691299   -0.546856
     15          1           0        0.011974    1.448062    1.570934
     16          1           0        1.396955    1.855126    0.515503
     17          1           0       -0.395245    3.413996    0.042390
     18          1           0       -0.201021    2.347213   -1.371950
     19          1           0       -1.569687    2.111056   -0.251953
 ---------------------------------------------------------------------
 Rotational constants (GHZ):           1.7538953           1.4101597           1.0019404
 Standard basis: Aug-CC-pVDZ (5D, 7F)
 There are   315 symmetry adapted cartesian basis functions of A   symmetry.
 There are   297 symmetry adapted basis functions of A   symmetry.
   297 basis functions,   497 primitive gaussians,   315 cartesian basis functions
    37 alpha electrons       37 beta electrons
       nuclear repulsion energy       523.6584501294 Hartrees.
 NAtoms=   19 NActive=   19 NUniq=   19 SFac= 1.00D+00 NAtFMM=   60 NAOKFM=F Big=F
 Integral buffers will be    131072 words long.
 Raffenetti 2 integral format.
 Two-electron integral symmetry is turned on.
 Nuclear repulsion after empirical dispersion term =      523.6464188167 Hartrees.
 Force PCM accuracy= 1.00D-12.
 ------------------------------------------------------------------------------
 Polarizable Continuum Model (PCM)
 =================================
 Model                : C-PCM.
 Atomic radii         : UFF (Universal Force Field).
 Polarization charges : Total charges.
 Charge compensation  : None.
 Solution method      : On-the-fly selection.
 Cavity type          : Scaled VdW (van der Waals Surface) (Alpha=1.100).
 Cavity algorithm     : GePol (No added spheres)
                        Default sphere list used, NSphG=   19.
                        Lebedev-Laikov grids with approx.  5.0 points / Ang**2.
                        Smoothing algorithm: York/Karplus (Gamma=1.0000).
                        Polarization charges: spherical gaussians, with
                                              point-specific exponents (IZeta= 3).
                        Self-potential: point-specific (ISelfS= 7).
                        Self-field    : sphere-specific E.n sum rule (ISelfD= 2).
 1st derivatives      : Analytical E(r).r(x)/FMM algorithm (CHGder, D1EAlg=3).
                        Cavity 1st derivative terms included.
 Solvent              : Benzene, Eps=   2.270600 Eps(inf)=   2.253301
 ------------------------------------------------------------------------------
 Spheres list:
 ISph  on   Nord     Re0    Alpha      Xe            Ye            Ze
    1   B      1    2.0415  1.100     -0.990326     -0.687651     -0.048990
    2   F      2    1.6820  1.100     -1.652216     -0.156249     -1.134717
    3   F      3    1.6820  1.100     -1.619957     -0.444145      1.160063
    4   F      4    1.6820  1.100     -0.631495     -2.008515     -0.231444
    5   O      5    1.7500  1.100      0.415418      0.126021      0.028870
    6   C      6    1.9255  1.100      1.605538     -0.588349      0.494539
    7   C      7    1.9255  1.100      2.750575     -0.367903     -0.467699
    8   C      8    1.9255  1.100      0.361947      1.500097      0.532774
    9   C      9    1.9255  1.100     -0.513529      2.385317     -0.322188
   10   H     10    1.4430  1.100      1.825338     -0.228415      1.506924
   11   H     11    1.4430  1.100      1.322521     -1.639508      0.546940
   12   H     12    1.4430  1.100      3.626917     -0.919474     -0.103765
   13   H     13    1.4430  1.100      2.490056     -0.744063     -1.463857
   14   H     14    1.4430  1.100      3.026299      0.691299     -0.546856
   15   H     15    1.4430  1.100      0.011974      1.448062      1.570934
   16   H     16    1.4430  1.100      1.396955      1.855126      0.515503
   17   H     17    1.4430  1.100     -0.395245      3.413996      0.042390
   18   H     18    1.4430  1.100     -0.201021      2.347213     -1.371950
   19   H     19    1.4430  1.100     -1.569687      2.111056     -0.251953
 ------------------------------------------------------------------------------
 One-electron integrals computed using PRISM.
 NBasis=   297 RedAO= T EigKep=  2.70D-05  NBF=   297
 NBsUse=   297 1.00D-06 EigRej= -1.00D+00 NBFU=   297
 Initial guess from the checkpoint file:  "/inspire/hdd/project/materialscienceresearch/lipenghui-253107030018/g16/00-B-DFT-Shift/04-output/BF3OEt2_C6D6/BF3OEt2_C6D6.chk"
 B after Tr=     0.000000   -0.000000   -0.000000
         Rot=    0.999998    0.001293    0.001241   -0.001174 Ang=   0.25 deg.
 ExpMin= 2.38D-02 ExpMax= 1.47D+04 ExpMxC= 5.03D+02 IAcc=3 IRadAn=         5 AccDes= 0.00D+00
 Harris functional with IExCor= 4639 and IRadAn=       5 diagonalized for initial guess.
 HarFok:  IExCor= 4639 AccDes= 0.00D+00 IRadAn=         5 IDoV= 1 UseB2=F ITyADJ=14
 ICtDFT=  3500011 ScaDFX=  1.000000  1.000000  1.000000  1.000000
 FoFCou: FMM=F IPFlag=           0 FMFlag=      100000 FMFlg1=           0
         NFxFlg=           0 DoJE=T BraDBF=F KetDBF=T FulRan=T
         wScrn=  0.000000 ICntrl=       500 IOpCl=  0 I1Cent=   200000004 NGrid=           0
         NMat0=    1 NMatS0=      1 NMatT0=    0 NMatD0=    1 NMtDS0=    0 NMtDT0=    0
 Petite list used in FoFCou.
 Requested convergence on RMS density matrix=1.00D-08 within 128 cycles.
 Requested convergence on MAX density matrix=1.00D-06.
 Requested convergence on             energy=1.00D-06.
 No special actions if energy rises.
 Inv3:  Mode=1 IEnd=     7114800.
 Iteration    1 A*A^-1 deviation from unit magnitude is 4.11D-15 for   1510.
 Iteration    1 A*A^-1 deviation from orthogonality  is 2.49D-15 for   1527   1076.
 Iteration    1 A^-1*A deviation from unit magnitude is 4.11D-15 for   1510.
 Iteration    1 A^-1*A deviation from orthogonality  is 1.36D-15 for   1527   1076.
 Error on total polarization charges =  0.00641
 SCF Done:  E(RwB97XD) =  -558.145964286     A.U. after   10 cycles
            NFock= 10  Conv=0.42D-08     -V/T= 2.0060
 D1PCM: C-PCM CHGder 1st derivatives, ID1Alg=3 FixD1E=F DoIter=F DoCFld=F I1PDM=0.
 Calling FoFJK, ICntrl=      2127 FMM=F ISym2X=0 I1Cent= 0 IOpClX= 0 NMat=1 NMatS=1 NMatT=0.
 ***** Axes restored to original set *****
 -------------------------------------------------------------------
 Center     Atomic                   Forces (Hartrees/Bohr)
 Number     Number              X              Y              Z
 -------------------------------------------------------------------
      1        5           0.000049731    0.000041660    0.000014598
      2        9          -0.000006297   -0.000008409   -0.000016016
      3        9           0.000016745    0.000016736    0.000015721
      4        9           0.000027977   -0.000018882    0.000026522
      5        8          -0.000087102   -0.000068917   -0.000269098
      6        6           0.000079865   -0.000042947    0.000126473
      7        6          -0.000027347    0.000023564   -0.000028488
      8        6           0.000008499    0.000064688    0.000134015
      9        6           0.000004311   -0.000001812    0.000009523
     10        1           0.000004613   -0.000002578    0.000000442
     11        1          -0.000041293    0.000019215   -0.000020394
     12        1          -0.000006175   -0.000009602    0.000020726
     13        1           0.000003577   -0.000003296   -0.000001035
     14        1          -0.000003934    0.000021844   -0.000025665
     15        1           0.000002897   -0.000014028    0.000002044
     16        1          -0.000006885   -0.000026934   -0.000010807
     17        1           0.000008279   -0.000001689    0.000008238
     18        1          -0.000001336    0.000011565    0.000007523
     19        1          -0.000026125   -0.000000180    0.000005678
 -------------------------------------------------------------------
 Cartesian Forces:  Max     0.000269098 RMS     0.000050827

 GradGradGradGradGradGradGradGradGradGradGradGradGradGradGradGradGradGrad
 Berny optimization.
 Using GEDIIS/GDIIS optimizer.
 FormGI is forming the generalized inverse of G from B-inverse, IUseBI=4.
 Internal  Forces:  Max     0.000087206 RMS     0.000028475
 Search for a local minimum.
 Step number  20 out of a maximum of   97
 All quantities printed in internal units (Hartrees-Bohrs-Radians)
 Mixed Optimization -- En-DIIS/RFO-DIIS
 Swapping is turned off.
 Update second derivatives using D2CorX and points   10   11   12   13   14
                                                     15   16   17   18   19
                                                     20
 DE= -2.01D-05 DEPred=-1.79D-05 R= 1.12D+00
 TightC=F SS=  1.41D+00  RLast= 1.02D-01 DXNew= 2.2162D-01 3.0623D-01
 Trust test= 1.12D+00 RLast= 1.02D-01 DXMaxT set to 2.22D-01
 ITU=  1 -1 -1  1 -1  1 -1  0  1  1  1  1  1  1  1  1  1  1  1  0
     Eigenvalues ---    0.00157   0.00258   0.00285   0.00393   0.01385
     Eigenvalues ---    0.02072   0.04507   0.04978   0.05268   0.05322
     Eigenvalues ---    0.05392   0.05484   0.05752   0.05864   0.06396
     Eigenvalues ---    0.09687   0.10307   0.12854   0.12929   0.13189
     Eigenvalues ---    0.13582   0.15982   0.16031   0.16035   0.16127
     Eigenvalues ---    0.16395   0.16697   0.20241   0.21576   0.23616
     Eigenvalues ---    0.25332   0.25473   0.28193   0.28523   0.28699
     Eigenvalues ---    0.29238   0.31238   0.31886   0.31913   0.32045
     Eigenvalues ---    0.32099   0.32152   0.32179   0.32191   0.32480
     Eigenvalues ---    0.32788   0.35071   0.38087   0.40562   0.41674
     Eigenvalues ---    0.47963
 En-DIIS/RFO-DIIS/Sim-DIIS IScMMF=       -3 using points:    20   19   18   17   16   15   14   13   12   11
 RFO step:  Lambda=-2.03975089D-06.
 DIIS inversion failure, remove point  10.
 DIIS inversion failure, remove point   9.
 RFO-DIIS uses    8 points instead of   10
 DidBck=T Rises=F RFO-DIIS coefs:    0.78093    1.58657   -1.93951    0.37453    0.04130
                  RFO-DIIS coefs:   -0.00020    0.01583    0.14056    0.00000    0.00000
 Iteration  1 RMS(Cart)=  0.00663674 RMS(Int)=  0.00001471
 Iteration  2 RMS(Cart)=  0.00001823 RMS(Int)=  0.00000455
 Iteration  3 RMS(Cart)=  0.00000000 RMS(Int)=  0.00000455
 Variable       Old X    -DE/DX   Delta X   Delta X   Delta X     New X
                                 (Linear)    (Quad)   (Total)
    R1        2.60432   0.00000   0.00001  -0.00009  -0.00008   2.60424
    R2        2.61680   0.00001   0.00007  -0.00007  -0.00000   2.61680
    R3        2.60942  -0.00001   0.00028  -0.00032  -0.00004   2.60938
    R4        3.07291  -0.00007  -0.00028  -0.00008  -0.00036   3.07254
    R5        2.76673   0.00001  -0.00086   0.00063  -0.00023   2.76650
    R6        2.76757   0.00009  -0.00115   0.00089  -0.00026   2.76731
    R7        2.85693  -0.00002   0.00046  -0.00056  -0.00010   2.85683
    R8        2.07249   0.00000  -0.00009   0.00006  -0.00003   2.07246
    R9        2.05952   0.00004  -0.00005   0.00014   0.00009   2.05961
   R10        2.07410   0.00001  -0.00017   0.00019   0.00003   2.07413
   R11        2.07155  -0.00000  -0.00001   0.00001   0.00000   2.07156
   R12        2.07371   0.00000   0.00000   0.00002   0.00002   2.07373
   R13        2.85407  -0.00001   0.00032  -0.00041  -0.00009   2.85398
   R14        2.07265  -0.00000   0.00017  -0.00008   0.00010   2.07275
   R15        2.06801   0.00001   0.00008   0.00004   0.00013   2.06813
   R16        2.07448   0.00001  -0.00013   0.00013  -0.00001   2.07447
   R17        2.07105  -0.00001  -0.00001  -0.00003  -0.00004   2.07101
   R18        2.06631   0.00002   0.00006  -0.00002   0.00004   2.06635
    A1        1.98414   0.00001  -0.00014   0.00024   0.00011   1.98425
    A2        1.97094   0.00002  -0.00024   0.00029   0.00005   1.97099
    A3        1.83379   0.00002   0.00032  -0.00023   0.00009   1.83388
    A4        1.98421   0.00003   0.00017  -0.00010   0.00007   1.98427
    A5        1.83721  -0.00002  -0.00012   0.00020   0.00008   1.83729
    A6        1.83415  -0.00007   0.00005  -0.00050  -0.00045   1.83371
    A7        2.06439   0.00008   0.00156  -0.00068   0.00090   2.06529
    A8        2.04248  -0.00005   0.00094  -0.00022   0.00072   2.04320
    A9        1.95847  -0.00006  -0.00141   0.00063  -0.00079   1.95768
   A10        1.91992  -0.00003  -0.00017  -0.00010  -0.00027   1.91965
   A11        1.87170   0.00000   0.00001  -0.00002  -0.00001   1.87169
   A12        1.84919  -0.00000   0.00076  -0.00059   0.00017   1.84936
   A13        1.96913   0.00002   0.00026  -0.00014   0.00012   1.96926
   A14        1.94757  -0.00000  -0.00041   0.00037  -0.00004   1.94753
   A15        1.90096   0.00000  -0.00041   0.00045   0.00003   1.90100
   A16        1.89696  -0.00003   0.00015  -0.00008   0.00007   1.89703
   A17        1.92660   0.00001  -0.00008   0.00008  -0.00000   1.92660
   A18        1.95731   0.00001   0.00045  -0.00068  -0.00023   1.95708
   A19        1.89507   0.00001   0.00006   0.00010   0.00016   1.89523
   A20        1.88427   0.00002   0.00021   0.00007   0.00027   1.88455
   A21        1.90220  -0.00001  -0.00079   0.00053  -0.00026   1.90195
   A22        1.95660   0.00004   0.00136  -0.00071   0.00065   1.95726
   A23        1.86796  -0.00001  -0.00005   0.00024   0.00019   1.86815
   A24        1.83840  -0.00003   0.00017  -0.00048  -0.00031   1.83809
   A25        1.95915  -0.00002  -0.00070   0.00020  -0.00049   1.95865
   A26        1.92746   0.00003   0.00004   0.00005   0.00010   1.92756
   A27        1.90934   0.00000  -0.00082   0.00068  -0.00013   1.90921
   A28        1.87420  -0.00000  -0.00048   0.00003  -0.00044   1.87376
   A29        1.93538   0.00002   0.00035   0.00003   0.00038   1.93576
   A30        1.95684  -0.00003   0.00002  -0.00011  -0.00009   1.95675
   A31        1.89649  -0.00000   0.00010  -0.00001   0.00010   1.89659
   A32        1.89418   0.00001   0.00010  -0.00008   0.00002   1.89420
   A33        1.90522   0.00000  -0.00010   0.00013   0.00003   1.90525
    D1       -2.55022  -0.00000   0.00279   0.00091   0.00371  -2.54651
    D2        1.30449   0.00007   0.00182   0.00104   0.00285   1.30734
    D3        1.63318  -0.00002   0.00284   0.00065   0.00350   1.63668
    D4       -0.79530   0.00005   0.00187   0.00078   0.00264  -0.79265
    D5       -0.46685  -0.00000   0.00268   0.00091   0.00360  -0.46326
    D6       -2.89533   0.00007   0.00171   0.00103   0.00274  -2.89259
    D7        2.27407   0.00000  -0.00554   0.00017  -0.00537   2.26869
    D8       -1.86172   0.00002  -0.00531  -0.00008  -0.00539  -1.86712
    D9        0.16661   0.00002  -0.00541   0.00013  -0.00528   0.16133
   D10       -1.54840  -0.00006  -0.00377  -0.00025  -0.00401  -1.55241
   D11        0.59900  -0.00005  -0.00354  -0.00050  -0.00403   0.59497
   D12        2.62733  -0.00005  -0.00364  -0.00028  -0.00391   2.62341
   D13       -1.05660   0.00003   0.01006  -0.00029   0.00976  -1.04685
   D14        1.09874   0.00002   0.01002  -0.00032   0.00968   1.10842
   D15        3.12973   0.00000   0.00915   0.00034   0.00947   3.13920
   D16        2.75665   0.00004   0.00799   0.00032   0.00832   2.76497
   D17       -1.37119   0.00003   0.00795   0.00029   0.00825  -1.36294
   D18        0.65980   0.00001   0.00708   0.00095   0.00804   0.66784
   D19       -3.13228   0.00000  -0.00321   0.00001  -0.00320  -3.13547
   D20       -1.05565   0.00000  -0.00309   0.00013  -0.00296  -1.05862
   D21        1.06904  -0.00000  -0.00384   0.00040  -0.00345   1.06559
   D22        1.06182  -0.00000  -0.00329   0.00021  -0.00308   1.05874
   D23        3.13844  -0.00000  -0.00316   0.00032  -0.00284   3.13559
   D24       -1.02005  -0.00001  -0.00392   0.00059  -0.00333  -1.02338
   D25       -1.08511  -0.00002  -0.00263  -0.00055  -0.00318  -1.08830
   D26        0.99151  -0.00002  -0.00251  -0.00044  -0.00295   0.98856
   D27        3.11620  -0.00003  -0.00326  -0.00017  -0.00343   3.11277
   D28       -3.01492  -0.00000  -0.00127   0.00025  -0.00102  -3.01594
   D29       -0.94535   0.00000  -0.00123   0.00028  -0.00096  -0.94631
   D30        1.18918  -0.00000  -0.00109   0.00038  -0.00071   1.18847
   D31        1.16502   0.00000  -0.00168   0.00030  -0.00138   1.16364
   D32       -3.04859   0.00001  -0.00165   0.00033  -0.00132  -3.04991
   D33       -0.91407   0.00000  -0.00150   0.00044  -0.00107  -0.91514
   D34       -0.97073  -0.00001  -0.00018  -0.00075  -0.00093  -0.97166
   D35        1.09884  -0.00000  -0.00014  -0.00073  -0.00087   1.09797
   D36       -3.04982  -0.00000  -0.00000  -0.00062  -0.00062  -3.05044
         Item               Value     Threshold  Converged?
 Maximum Force            0.000087     0.000450     YES
 RMS     Force            0.000028     0.000300     YES
 Maximum Displacement     0.019363     0.001800     NO 
 RMS     Displacement     0.006638     0.001200     NO 
 Predicted change in Energy=-6.486801D-07
 GradGradGradGradGradGradGradGradGradGradGradGradGradGradGradGradGradGrad

                          Input orientation:                          
 ---------------------------------------------------------------------
 Center     Atomic      Atomic             Coordinates (Angstroms)
 Number     Number       Type             X           Y           Z
 ---------------------------------------------------------------------
      1          5           0       -1.797593    0.677050   -0.203781
      2          9           0       -1.580739    1.670450   -1.133994
      3          9           0       -2.129178    1.154506    1.053049
      4          9           0       -2.643452   -0.313569   -0.661895
      5          8           0       -0.355571   -0.050886   -0.018572
      6          6           0       -0.332802   -1.491149    0.242809
      7          6           0        0.627209   -2.173263   -0.705109
      8          6           0        0.658828    0.667298    0.755809
      9          6           0        1.001835    2.004322    0.142950
     10          1           0       -0.058706   -1.626045    1.296100
     11          1           0       -1.355462   -1.838491    0.096505
     12          1           0        0.622922   -3.250576   -0.495205
     13          1           0        0.312954   -2.018378   -1.743837
     14          1           0        1.655393   -1.808962   -0.585312
     15          1           0        0.272684    0.766174    1.777668
     16          1           0        1.535901    0.012737    0.760581
     17          1           0        1.852140    2.413309    0.704014
     18          1           0        1.296560    1.889570   -0.906350
     19          1           0        0.170617    2.711885    0.206985
 ---------------------------------------------------------------------
                    Distance matrix (angstroms):
                    1          2          3          4          5
     1  B    0.000000
     2  F    1.378102   0.000000
     3  F    1.384751   2.313037   0.000000
     4  F    1.380823   2.299688   2.315331   0.000000
     5  O    1.625921   2.389184   2.397295   2.391080   0.000000
     6  C    2.654456   3.667239   3.298931   2.746686   1.463966
     7  C    3.775615   4.453437   4.665065   3.762651   2.437555
     8  C    2.637216   3.097310   2.845822   3.725189   1.464397
     9  C    3.117478   2.900301   3.369527   4.394145   2.468303
    10  H    3.252324   4.369075   3.475254   3.498178   2.073070
    11  H    2.571691   3.725257   3.235992   2.135292   2.051477
    12  H    4.622776   5.429610   5.419953   4.395792   3.379740
    13  H    3.753866   4.191114   4.884033   3.580127   2.700832
    14  H    4.271876   4.783295   5.078321   4.552156   2.730568
    15  H    2.867077   3.568007   2.538664   3.952362   2.070935
    16  H    3.533197   4.006354   3.849932   4.426839   2.046654
    17  H    4.142371   3.964186   4.190144   5.432487   3.386499
    18  H    3.396703   2.894596   4.014380   4.520760   2.698714
    19  H    2.860618   2.439275   2.903500   4.222240   2.821463
                    6          7          8          9         10
     6  C    0.000000
     7  C    1.511770   0.000000
     8  C    2.430102   3.194380   0.000000
     9  C    3.742933   4.279224   1.510259   0.000000
    10  H    1.096699   2.185124   2.462964   3.953994   0.000000
    11  H    1.089901   2.164634   3.281924   4.508461   1.779252
    12  H    2.133929   1.097580   4.112914   5.307048   2.512467
    13  H    2.154468   1.096221   3.685203   4.496291   3.087600
    14  H    2.177087   1.097373   2.987242   3.936831   2.551726
    15  H    2.796053   3.863956   1.096850   2.176460   2.462608
    16  H    2.453939   2.784343   1.094408   2.152464   2.348438
    17  H    4.497941   4.952042   2.115474   1.097762   4.507580
    18  H    3.924876   4.122516   2.159496   1.095930   4.364296
    19  H    4.233227   4.990497   2.172532   1.093467   4.478437
                   11         12         13         14         15
    11  H    0.000000
    12  H    2.501621   0.000000
    13  H    2.490548   1.781424   0.000000
    14  H    3.087231   1.775490   1.785546   0.000000
    15  H    3.501635   4.628487   4.489583   3.758575   0.000000
    16  H    3.496859   3.613826   3.448643   2.268104   1.788254
    17  H    5.360558   5.918504   5.291589   4.419123   2.521997
    18  H    4.683735   5.200377   4.115935   3.729741   3.084525
    19  H    4.800734   6.020680   5.118726   4.823936   2.502650
                   16         17         18         19
    16  H    0.000000
    17  H    2.421972   0.000000
    18  H    2.521595   1.782202   0.000000
    19  H    3.075040   1.778681   1.784227   0.000000
 Stoichiometry    C4H10BF3O
 Framework group  C1[X(C4H10BF3O)]
 Deg. of freedom    51
 Full point group                 C1      NOp   1
 Largest Abelian subgroup         C1      NOp   1
 Largest concise Abelian subgroup C1      NOp   1
                         Standard orientation:                         
 ---------------------------------------------------------------------
 Center     Atomic      Atomic             Coordinates (Angstroms)
 Number     Number       Type             X           Y           Z
 ---------------------------------------------------------------------
      1          5           0       -0.984059   -0.694290   -0.048525
      2          9           0       -1.646717   -0.173392   -1.138807
      3          9           0       -1.618768   -0.449230    1.157554
      4          9           0       -0.614766   -2.013301   -0.223177
      5          8           0        0.415486    0.129658    0.028960
      6          6           0        1.610948   -0.573913    0.496993
      7          6           0        2.752440   -0.352278   -0.469092
      8          6           0        0.352429    1.504671    0.528781
      9          6           0       -0.538395    2.379083   -0.321349
     10          1           0        1.830346   -0.205873    1.506527
     11          1           0        1.334976   -1.626596    0.556847
     12          1           0        3.634137   -0.893000   -0.101790
     13          1           0        2.493453   -0.739358   -1.461462
     14          1           0        3.018571    0.708598   -0.558217
     15          1           0        0.011245    1.452828    1.569927
     16          1           0        1.383897    1.869493    0.502188
     17          1           0       -0.427452    3.409551    0.040467
     18          1           0       -0.233843    2.342043   -1.373460
     19          1           0       -1.591193    2.094440   -0.242194
 ---------------------------------------------------------------------
 Rotational constants (GHZ):           1.7541627           1.4110305           1.0023856
 Standard basis: Aug-CC-pVDZ (5D, 7F)
 There are   315 symmetry adapted cartesian basis functions of A   symmetry.
 There are   297 symmetry adapted basis functions of A   symmetry.
   297 basis functions,   497 primitive gaussians,   315 cartesian basis functions
    37 alpha electrons       37 beta electrons
       nuclear repulsion energy       523.7187891504 Hartrees.
 NAtoms=   19 NActive=   19 NUniq=   19 SFac= 1.00D+00 NAtFMM=   60 NAOKFM=F Big=F
 Integral buffers will be    131072 words long.
 Raffenetti 2 integral format.
 Two-electron integral symmetry is turned on.
 Nuclear repulsion after empirical dispersion term =      523.7067515744 Hartrees.
 Force PCM accuracy= 1.00D-12.
 ------------------------------------------------------------------------------
 Polarizable Continuum Model (PCM)
 =================================
 Model                : C-PCM.
 Atomic radii         : UFF (Universal Force Field).
 Polarization charges : Total charges.
 Charge compensation  : None.
 Solution method      : On-the-fly selection.
 Cavity type          : Scaled VdW (van der Waals Surface) (Alpha=1.100).
 Cavity algorithm     : GePol (No added spheres)
                        Default sphere list used, NSphG=   19.
                        Lebedev-Laikov grids with approx.  5.0 points / Ang**2.
                        Smoothing algorithm: York/Karplus (Gamma=1.0000).
                        Polarization charges: spherical gaussians, with
                                              point-specific exponents (IZeta= 3).
                        Self-potential: point-specific (ISelfS= 7).
                        Self-field    : sphere-specific E.n sum rule (ISelfD= 2).
 1st derivatives      : Analytical E(r).r(x)/FMM algorithm (CHGder, D1EAlg=3).
                        Cavity 1st derivative terms included.
 Solvent              : Benzene, Eps=   2.270600 Eps(inf)=   2.253301
 ------------------------------------------------------------------------------
 Spheres list:
 ISph  on   Nord     Re0    Alpha      Xe            Ye            Ze
    1   B      1    2.0415  1.100     -0.984059     -0.694290     -0.048525
    2   F      2    1.6820  1.100     -1.646717     -0.173392     -1.138807
    3   F      3    1.6820  1.100     -1.618768     -0.449230      1.157554
    4   F      4    1.6820  1.100     -0.614766     -2.013301     -0.223177
    5   O      5    1.7500  1.100      0.415486      0.129658      0.028960
    6   C      6    1.9255  1.100      1.610948     -0.573913      0.496993
    7   C      7    1.9255  1.100      2.752440     -0.352278     -0.469092
    8   C      8    1.9255  1.100      0.352429      1.504671      0.528781
    9   C      9    1.9255  1.100     -0.538395      2.379083     -0.321349
   10   H     10    1.4430  1.100      1.830346     -0.205873      1.506527
   11   H     11    1.4430  1.100      1.334976     -1.626596      0.556847
   12   H     12    1.4430  1.100      3.634137     -0.893000     -0.101790
   13   H     13    1.4430  1.100      2.493453     -0.739358     -1.461462
   14   H     14    1.4430  1.100      3.018571      0.708598     -0.558217
   15   H     15    1.4430  1.100      0.011245      1.452828      1.569927
   16   H     16    1.4430  1.100      1.383897      1.869493      0.502188
   17   H     17    1.4430  1.100     -0.427452      3.409551      0.040467
   18   H     18    1.4430  1.100     -0.233843      2.342043     -1.373460
   19   H     19    1.4430  1.100     -1.591193      2.094440     -0.242194
 ------------------------------------------------------------------------------
 One-electron integrals computed using PRISM.
 NBasis=   297 RedAO= T EigKep=  2.69D-05  NBF=   297
 NBsUse=   297 1.00D-06 EigRej= -1.00D+00 NBFU=   297
 Initial guess from the checkpoint file:  "/inspire/hdd/project/materialscienceresearch/lipenghui-253107030018/g16/00-B-DFT-Shift/04-output/BF3OEt2_C6D6/BF3OEt2_C6D6.chk"
 B after Tr=     0.000000   -0.000000   -0.000000
         Rot=    0.999992    0.001283   -0.000016   -0.003875 Ang=   0.47 deg.
 Requested convergence on RMS density matrix=1.00D-08 within 128 cycles.
 Requested convergence on MAX density matrix=1.00D-06.
 Requested convergence on             energy=1.00D-06.
 No special actions if energy rises.
 Inv3:  Mode=1 IEnd=     7105563.
 Iteration    1 A*A^-1 deviation from unit magnitude is 4.77D-15 for   1531.
 Iteration    1 A*A^-1 deviation from orthogonality  is 2.65D-15 for   1516   1147.
 Iteration    1 A^-1*A deviation from unit magnitude is 5.00D-15 for   1531.
 Iteration    1 A^-1*A deviation from orthogonality  is 2.19D-15 for   1530    789.
 Error on total polarization charges =  0.00641
 SCF Done:  E(RwB97XD) =  -558.145965855     A.U. after    9 cycles
            NFock=  9  Conv=0.66D-08     -V/T= 2.0060
 D1PCM: C-PCM CHGder 1st derivatives, ID1Alg=3 FixD1E=F DoIter=F DoCFld=F I1PDM=0.
 Calling FoFJK, ICntrl=      2127 FMM=F ISym2X=0 I1Cent= 0 IOpClX= 0 NMat=1 NMatS=1 NMatT=0.
 ***** Axes restored to original set *****
 -------------------------------------------------------------------
 Center     Atomic                   Forces (Hartrees/Bohr)
 Number     Number              X              Y              Z
 -------------------------------------------------------------------
      1        5           0.000045221    0.000004253    0.000033644
      2        9           0.000004811    0.000006740   -0.000024678
      3        9           0.000010606    0.000017922    0.000018639
      4        9          -0.000039964   -0.000018636    0.000006475
      5        8          -0.000019694    0.000011421   -0.000198612
      6        6          -0.000012608   -0.000096722    0.000058564
      7        6          -0.000004125    0.000002248   -0.000041541
      8        6           0.000061140    0.000067444    0.000173182
      9        6          -0.000007875   -0.000013419   -0.000010323
     10        1           0.000017355   -0.000000755   -0.000004479
     11        1          -0.000011499    0.000015834    0.000010383
     12        1           0.000003245   -0.000001182    0.000002857
     13        1           0.000001253   -0.000007437    0.000001970
     14        1          -0.000002434   -0.000004268   -0.000003782
     15        1          -0.000024501   -0.000012439   -0.000019731
     16        1          -0.000011467   -0.000000897   -0.000013029
     17        1           0.000002115    0.000015966   -0.000001815
     18        1           0.000002531    0.000002733    0.000009562
     19        1          -0.000014111    0.000011194    0.000002712
 -------------------------------------------------------------------
 Cartesian Forces:  Max     0.000198612 RMS     0.000042509

 GradGradGradGradGradGradGradGradGradGradGradGradGradGradGradGradGradGrad
 Berny optimization.
 Using GEDIIS/GDIIS optimizer.
 FormGI is forming the generalized inverse of G from B-inverse, IUseBI=4.
 Internal  Forces:  Max     0.000112296 RMS     0.000026719
 Search for a local minimum.
 Step number  21 out of a maximum of   97
 All quantities printed in internal units (Hartrees-Bohrs-Radians)
 Mixed Optimization -- En-DIIS/RFO-DIIS
 Swapping is turned off.
 Update second derivatives using D2CorX and points   10   11   12   13   14
                                                     15   16   17   18   19
                                                     20   21
 DE= -1.57D-06 DEPred=-6.49D-07 R= 2.42D+00
 TightC=F SS=  1.41D+00  RLast= 2.79D-02 DXNew= 3.7273D-01 8.3736D-02
 Trust test= 2.42D+00 RLast= 2.79D-02 DXMaxT set to 2.22D-01
 ITU=  1  1 -1 -1  1 -1  1 -1  0  1  1  1  1  1  1  1  1  1  1  1
 ITU=  0
     Eigenvalues ---    0.00096   0.00249   0.00285   0.00340   0.01208
     Eigenvalues ---    0.01845   0.04503   0.04976   0.05192   0.05345
     Eigenvalues ---    0.05416   0.05448   0.05759   0.05866   0.06387
     Eigenvalues ---    0.09692   0.10328   0.12888   0.12987   0.13203
     Eigenvalues ---    0.13533   0.15986   0.16007   0.16046   0.16161
     Eigenvalues ---    0.16499   0.16699   0.20135   0.21702   0.23770
     Eigenvalues ---    0.25353   0.25557   0.28218   0.28535   0.28660
     Eigenvalues ---    0.29276   0.31307   0.31892   0.31966   0.32093
     Eigenvalues ---    0.32104   0.32155   0.32180   0.32189   0.32512
     Eigenvalues ---    0.32960   0.36081   0.38102   0.41522   0.44283
     Eigenvalues ---    0.50593
 En-DIIS/RFO-DIIS/Sim-DIIS IScMMF=       -3 using points:    21   20   19   18   17   16   15   14   13   12
 RFO step:  Lambda=-2.41237456D-06.
 DIIS inversion failure, remove point  10.
 DIIS inversion failure, remove point   9.
 DIIS inversion failure, remove point   8.
 DIIS inversion failure, remove point   7.
 RFO-DIIS uses    6 points instead of   10
 DidBck=F Rises=F RFO-DIIS coefs:    1.38984   -0.45689    1.06493   -2.00000    1.23511
                  RFO-DIIS coefs:   -0.23298    0.00000    0.00000    0.00000    0.00000
 Iteration  1 RMS(Cart)=  0.00961886 RMS(Int)=  0.00003069
 Iteration  2 RMS(Cart)=  0.00003858 RMS(Int)=  0.00000275
 Iteration  3 RMS(Cart)=  0.00000000 RMS(Int)=  0.00000275
 Variable       Old X    -DE/DX   Delta X   Delta X   Delta X     New X
                                 (Linear)    (Quad)   (Total)
    R1        2.60424   0.00002  -0.00000   0.00002   0.00002   2.60426
    R2        2.61680   0.00002  -0.00003   0.00009   0.00006   2.61686
    R3        2.60938   0.00004   0.00027  -0.00014   0.00013   2.60950
    R4        3.07254  -0.00002  -0.00017  -0.00044  -0.00061   3.07193
    R5        2.76650   0.00010  -0.00036   0.00028  -0.00008   2.76642
    R6        2.76731   0.00011  -0.00046   0.00033  -0.00012   2.76719
    R7        2.85683   0.00003   0.00024  -0.00033  -0.00009   2.85674
    R8        2.07246   0.00000  -0.00021   0.00014  -0.00006   2.07240
    R9        2.05961   0.00000   0.00008  -0.00003   0.00005   2.05967
   R10        2.07413   0.00000  -0.00008   0.00009   0.00001   2.07414
   R11        2.07156  -0.00000   0.00003  -0.00006  -0.00003   2.07153
   R12        2.07373  -0.00000  -0.00001   0.00008   0.00008   2.07381
   R13        2.85398   0.00001   0.00024  -0.00034  -0.00011   2.85387
   R14        2.07275  -0.00001   0.00014  -0.00008   0.00006   2.07280
   R15        2.06813  -0.00001   0.00001   0.00019   0.00019   2.06833
   R16        2.07447   0.00001  -0.00008   0.00008   0.00000   2.07447
   R17        2.07101  -0.00001   0.00002  -0.00010  -0.00008   2.07092
   R18        2.06635   0.00002   0.00011  -0.00006   0.00004   2.06640
    A1        1.98425   0.00000   0.00001   0.00001   0.00001   1.98427
    A2        1.97099  -0.00000   0.00004  -0.00007  -0.00002   1.97096
    A3        1.83388  -0.00001   0.00025  -0.00022   0.00003   1.83391
    A4        1.98427  -0.00001   0.00008  -0.00008   0.00001   1.98428
    A5        1.83729  -0.00002  -0.00001   0.00013   0.00011   1.83740
    A6        1.83371   0.00004  -0.00040   0.00026  -0.00014   1.83356
    A7        2.06529   0.00004   0.00051   0.00114   0.00164   2.06694
    A8        2.04320  -0.00010   0.00070   0.00010   0.00079   2.04399
    A9        1.95768   0.00004  -0.00009  -0.00065  -0.00076   1.95692
   A10        1.91965   0.00001   0.00009  -0.00087  -0.00078   1.91887
   A11        1.87169  -0.00001   0.00002  -0.00022  -0.00020   1.87149
   A12        1.84936  -0.00001   0.00040   0.00019   0.00059   1.84995
   A13        1.96926   0.00000   0.00018  -0.00025  -0.00007   1.96919
   A14        1.94753  -0.00000  -0.00042   0.00089   0.00048   1.94800
   A15        1.90100   0.00000  -0.00025   0.00024  -0.00001   1.90099
   A16        1.89703  -0.00001   0.00015   0.00021   0.00036   1.89739
   A17        1.92660   0.00001   0.00008  -0.00004   0.00005   1.92665
   A18        1.95708   0.00000   0.00001  -0.00076  -0.00075   1.95633
   A19        1.89523  -0.00000   0.00005   0.00020   0.00025   1.89548
   A20        1.88455  -0.00000   0.00017   0.00020   0.00038   1.88492
   A21        1.90195  -0.00000  -0.00045   0.00021  -0.00025   1.90170
   A22        1.95726  -0.00002   0.00104  -0.00052   0.00052   1.95778
   A23        1.86815  -0.00002   0.00007  -0.00014  -0.00007   1.86809
   A24        1.83809   0.00001  -0.00009  -0.00037  -0.00046   1.83763
   A25        1.95865   0.00001  -0.00054   0.00015  -0.00039   1.95826
   A26        1.92756   0.00002  -0.00003   0.00026   0.00023   1.92779
   A27        1.90921   0.00000  -0.00044   0.00060   0.00016   1.90937
   A28        1.87376   0.00002  -0.00048   0.00016  -0.00032   1.87344
   A29        1.93576   0.00000   0.00035  -0.00000   0.00035   1.93611
   A30        1.95675  -0.00000   0.00012  -0.00017  -0.00005   1.95670
   A31        1.89659  -0.00001   0.00006   0.00003   0.00009   1.89668
   A32        1.89420  -0.00001   0.00005  -0.00017  -0.00012   1.89408
   A33        1.90525   0.00000  -0.00011   0.00015   0.00004   1.90529
    D1       -2.54651   0.00000   0.00358   0.00314   0.00673  -2.53978
    D2        1.30734   0.00002   0.00210   0.00257   0.00466   1.31200
    D3        1.63668   0.00002   0.00346   0.00318   0.00664   1.64333
    D4       -0.79265   0.00004   0.00197   0.00261   0.00458  -0.78807
    D5       -0.46326   0.00001   0.00356   0.00308   0.00665  -0.45661
    D6       -2.89259   0.00003   0.00208   0.00251   0.00459  -2.88801
    D7        2.26869   0.00001  -0.00589  -0.00643  -0.01233   2.25637
    D8       -1.86712   0.00002  -0.00561  -0.00739  -0.01301  -1.88012
    D9        0.16133   0.00001  -0.00569  -0.00713  -0.01282   0.14851
   D10       -1.55241  -0.00006  -0.00418  -0.00564  -0.00982  -1.56223
   D11        0.59497  -0.00005  -0.00390  -0.00661  -0.01050   0.58446
   D12        2.62341  -0.00006  -0.00397  -0.00635  -0.01032   2.61310
   D13       -1.04685   0.00001   0.00869   0.00233   0.01101  -1.03583
   D14        1.10842  -0.00000   0.00872   0.00209   0.01081   1.11923
   D15        3.13920  -0.00000   0.00821   0.00254   0.01074  -3.13324
   D16        2.76497   0.00002   0.00705   0.00112   0.00818   2.77315
   D17       -1.36294   0.00001   0.00709   0.00087   0.00797  -1.35497
   D18        0.66784   0.00001   0.00657   0.00132   0.00790   0.67574
   D19       -3.13547   0.00000  -0.00214  -0.00250  -0.00464  -3.14012
   D20       -1.05862   0.00000  -0.00195  -0.00214  -0.00409  -1.06271
   D21        1.06559   0.00001  -0.00246  -0.00242  -0.00489   1.06071
   D22        1.05874  -0.00000  -0.00235  -0.00146  -0.00381   1.05493
   D23        3.13559  -0.00000  -0.00215  -0.00110  -0.00326   3.13234
   D24       -1.02338   0.00000  -0.00267  -0.00139  -0.00405  -1.02743
   D25       -1.08830  -0.00001  -0.00184  -0.00227  -0.00411  -1.09241
   D26        0.98856  -0.00001  -0.00164  -0.00191  -0.00356   0.98500
   D27        3.11277  -0.00000  -0.00216  -0.00219  -0.00435   3.10842
   D28       -3.01594  -0.00001  -0.00107  -0.00058  -0.00165  -3.01759
   D29       -0.94631  -0.00001  -0.00109  -0.00045  -0.00154  -0.94784
   D30        1.18847  -0.00001  -0.00089  -0.00037  -0.00126   1.18721
   D31        1.16364   0.00001  -0.00152  -0.00014  -0.00166   1.16199
   D32       -3.04991   0.00002  -0.00154   0.00000  -0.00154  -3.05145
   D33       -0.91514   0.00001  -0.00134   0.00007  -0.00127  -0.91641
   D34       -0.97166  -0.00001  -0.00055  -0.00120  -0.00175  -0.97341
   D35        1.09797  -0.00001  -0.00057  -0.00107  -0.00164   1.09633
   D36       -3.05044  -0.00001  -0.00037  -0.00099  -0.00136  -3.05180
         Item               Value     Threshold  Converged?
 Maximum Force            0.000112     0.000450     YES
 RMS     Force            0.000027     0.000300     YES
 Maximum Displacement     0.030307     0.001800     NO 
 RMS     Displacement     0.009622     0.001200     NO 
 Predicted change in Energy=-1.152265D-06
 GradGradGradGradGradGradGradGradGradGradGradGradGradGradGradGradGradGrad

                          Input orientation:                          
 ---------------------------------------------------------------------
 Center     Atomic      Atomic             Coordinates (Angstroms)
 Number     Number       Type             X           Y           Z
 ---------------------------------------------------------------------
      1          5           0       -1.792516    0.677080   -0.211277
      2          9           0       -1.572296    1.662658   -1.149006
      3          9           0       -2.125379    1.165116    1.041178
      4          9           0       -2.639424   -0.315676   -0.662985
      5          8           0       -0.352489   -0.051984   -0.018002
      6          6           0       -0.330181   -1.491659    0.246412
      7          6           0        0.621444   -2.176500   -0.707894
      8          6           0        0.660735    0.666848    0.757191
      9          6           0        0.997927    2.007728    0.149690
     10          1           0       -0.047422   -1.624495    1.297639
     11          1           0       -1.354491   -1.838056    0.109504
     12          1           0        0.621359   -3.252907   -0.493312
     13          1           0        0.296916   -2.026471   -1.744157
     14          1           0        1.649898   -1.809243   -0.599630
     15          1           0        0.276161    0.760257    1.780187
     16          1           0        1.540021    0.015073    0.757466
     17          1           0        1.846734    2.417678    0.712322
     18          1           0        1.292665    1.898879   -0.900189
     19          1           0        0.163876    2.711655    0.217279
 ---------------------------------------------------------------------
                    Distance matrix (angstroms):
                    1          2          3          4          5
     1  B    0.000000
     2  F    1.378113   0.000000
     3  F    1.384782   2.313084   0.000000
     4  F    1.380890   2.299735   2.315418   0.000000
     5  O    1.625597   2.388953   2.397152   2.390733   0.000000
     6  C    2.655434   3.666027   3.303459   2.746369   1.463924
     7  C    3.770511   4.443671   4.665907   3.754722   2.436814
     8  C    2.637513   3.100266   2.844530   3.724688   1.464332
     9  C    3.112473   2.900298   3.355560   4.391921   2.468635
    10  H    3.258746   4.372263   3.487923   3.503644   2.072864
    11  H    2.573067   3.726430   3.237488   2.136687   2.051906
    12  H    4.620729   5.422622   5.423851   4.391904   3.379380
    13  H    3.744948   4.178257   4.879737   3.566209   2.701839
    14  H    4.264133   4.768484   5.078561   4.542360   2.726866
    15  H    2.872677   3.579287   2.545082   3.953145   2.070851
    16  H    3.533061   4.004458   3.852045   4.426605   2.046324
    17  H    4.138460   3.965395   4.177886   5.430313   3.386619
    18  H    3.389061   2.885431   3.998792   4.519053   2.700121
    19  H    2.854930   2.445695   2.882929   4.218778   2.821292
                    6          7          8          9         10
     6  C    0.000000
     7  C    1.511720   0.000000
     8  C    2.429395   3.198851   0.000000
     9  C    3.744186   4.287768   1.510203   0.000000
    10  H    1.096665   2.185007   2.458419   3.950137   0.000000
    11  H    1.089930   2.164949   3.279509   4.508385   1.779242
    12  H    2.134155   1.097587   4.114583   5.313147   2.511275
    13  H    2.154447   1.096206   3.693654   4.511412   3.087503
    14  H    2.176547   1.097414   2.991728   3.944085   2.552383
    15  H    2.791279   3.864494   1.096879   2.176155   2.454506
    16  H    2.455417   2.791784   1.094511   2.152656   2.345196
    17  H    4.498771   4.962340   2.115186   1.097764   4.502175
    18  H    3.929894   4.134759   2.159663   1.095886   4.363535
    19  H    4.232349   4.995935   2.172465   1.093491   4.473702
                   11         12         13         14         15
    11  H    0.000000
    12  H    2.503832   0.000000
    13  H    2.489720   1.781579   0.000000
    14  H    3.087079   1.775771   1.785410   0.000000
    15  H    3.493056   4.625305   4.493026   3.762049   0.000000
    16  H    3.497448   3.617746   3.459961   2.276381   1.788463
    17  H    5.359338   5.925423   5.309113   4.430217   2.520730
    18  H    4.689520   5.211247   4.136686   3.737394   3.084503
    19  H    4.797595   6.024137   5.129792   4.828469   2.502647
                   16         17         18         19
    16  H    0.000000
    17  H    2.422523   0.000000
    18  H    2.521454   1.782228   0.000000
    19  H    3.075244   1.778623   1.784238   0.000000
 Stoichiometry    C4H10BF3O
 Framework group  C1[X(C4H10BF3O)]
 Deg. of freedom    51
 Full point group                 C1      NOp   1
 Largest Abelian subgroup         C1      NOp   1
 Largest concise Abelian subgroup C1      NOp   1
                         Standard orientation:                         
 ---------------------------------------------------------------------
 Center     Atomic      Atomic             Coordinates (Angstroms)
 Number     Number       Type             X           Y           Z
 ---------------------------------------------------------------------
      1          5           0       -0.974280   -0.704201   -0.047966
      2          9           0       -1.636741   -0.199165   -1.145818
      3          9           0       -1.618314   -0.457067    1.152769
      4          9           0       -0.589259   -2.020337   -0.210460
      5          8           0        0.415341    0.135649    0.030597
      6          6           0        1.619057   -0.551264    0.502077
      7          6           0        2.753621   -0.330805   -0.472325
      8          6           0        0.336361    1.511776    0.524871
      9          6           0       -0.573113    2.370144   -0.321755
     10          1           0        1.839657   -0.168094    1.505666
     11          1           0        1.353297   -1.605646    0.576902
     12          1           0        3.643698   -0.854636   -0.100758
     13          1           0        2.495132   -0.736105   -1.457507
     14          1           0        3.005455    0.731992   -0.578900
     15          1           0        0.003604    1.459643    1.568757
     16          1           0        1.362563    1.890684    0.488927
     17          1           0       -0.474922    3.403153    0.036484
     18          1           0       -0.275506    2.334574   -1.375857
     19          1           0       -1.621034    2.070257   -0.234280
 ---------------------------------------------------------------------
 Rotational constants (GHZ):           1.7534955           1.4126835           1.0032390
 Standard basis: Aug-CC-pVDZ (5D, 7F)
 There are   315 symmetry adapted cartesian basis functions of A   symmetry.
 There are   297 symmetry adapted basis functions of A   symmetry.
   297 basis functions,   497 primitive gaussians,   315 cartesian basis functions
    37 alpha electrons       37 beta electrons
       nuclear repulsion energy       523.7858233211 Hartrees.
 NAtoms=   19 NActive=   19 NUniq=   19 SFac= 1.00D+00 NAtFMM=   60 NAOKFM=F Big=F
 Integral buffers will be    131072 words long.
 Raffenetti 2 integral format.
 Two-electron integral symmetry is turned on.
 Nuclear repulsion after empirical dispersion term =      523.7737771155 Hartrees.
 Force PCM accuracy= 1.00D-12.
 ------------------------------------------------------------------------------
 Polarizable Continuum Model (PCM)
 =================================
 Model                : C-PCM.
 Atomic radii         : UFF (Universal Force Field).
 Polarization charges : Total charges.
 Charge compensation  : None.
 Solution method      : On-the-fly selection.
 Cavity type          : Scaled VdW (van der Waals Surface) (Alpha=1.100).
 Cavity algorithm     : GePol (No added spheres)
                        Default sphere list used, NSphG=   19.
                        Lebedev-Laikov grids with approx.  5.0 points / Ang**2.
                        Smoothing algorithm: York/Karplus (Gamma=1.0000).
                        Polarization charges: spherical gaussians, with
                                              point-specific exponents (IZeta= 3).
                        Self-potential: point-specific (ISelfS= 7).
                        Self-field    : sphere-specific E.n sum rule (ISelfD= 2).
 1st derivatives      : Analytical E(r).r(x)/FMM algorithm (CHGder, D1EAlg=3).
                        Cavity 1st derivative terms included.
 Solvent              : Benzene, Eps=   2.270600 Eps(inf)=   2.253301
 ------------------------------------------------------------------------------
 Spheres list:
 ISph  on   Nord     Re0    Alpha      Xe            Ye            Ze
    1   B      1    2.0415  1.100     -0.974280     -0.704201     -0.047966
    2   F      2    1.6820  1.100     -1.636741     -0.199165     -1.145818
    3   F      3    1.6820  1.100     -1.618314     -0.457067      1.152769
    4   F      4    1.6820  1.100     -0.589259     -2.020337     -0.210460
    5   O      5    1.7500  1.100      0.415341      0.135649      0.030597
    6   C      6    1.9255  1.100      1.619057     -0.551264      0.502077
    7   C      7    1.9255  1.100      2.753621     -0.330805     -0.472325
    8   C      8    1.9255  1.100      0.336361      1.511776      0.524871
    9   C      9    1.9255  1.100     -0.573113      2.370144     -0.321755
   10   H     10    1.4430  1.100      1.839657     -0.168094      1.505666
   11   H     11    1.4430  1.100      1.353297     -1.605646      0.576902
   12   H     12    1.4430  1.100      3.643698     -0.854636     -0.100758
   13   H     13    1.4430  1.100      2.495132     -0.736105     -1.457507
   14   H     14    1.4430  1.100      3.005455      0.731992     -0.578900
   15   H     15    1.4430  1.100      0.003604      1.459643      1.568757
   16   H     16    1.4430  1.100      1.362563      1.890684      0.488927
   17   H     17    1.4430  1.100     -0.474922      3.403153      0.036484
   18   H     18    1.4430  1.100     -0.275506      2.334574     -1.375857
   19   H     19    1.4430  1.100     -1.621034      2.070257     -0.234280
 ------------------------------------------------------------------------------
 One-electron integrals computed using PRISM.
 NBasis=   297 RedAO= T EigKep=  2.69D-05  NBF=   297
 NBsUse=   297 1.00D-06 EigRej= -1.00D+00 NBFU=   297
 Initial guess from the checkpoint file:  "/inspire/hdd/project/materialscienceresearch/lipenghui-253107030018/g16/00-B-DFT-Shift/04-output/BF3OEt2_C6D6/BF3OEt2_C6D6.chk"
 B after Tr=    -0.000000    0.000000    0.000000
         Rot=    0.999982    0.002048    0.000224   -0.005697 Ang=   0.69 deg.
 ExpMin= 2.38D-02 ExpMax= 1.47D+04 ExpMxC= 5.03D+02 IAcc=3 IRadAn=         5 AccDes= 0.00D+00
 Harris functional with IExCor= 4639 and IRadAn=       5 diagonalized for initial guess.
 HarFok:  IExCor= 4639 AccDes= 0.00D+00 IRadAn=         5 IDoV= 1 UseB2=F ITyADJ=14
 ICtDFT=  3500011 ScaDFX=  1.000000  1.000000  1.000000  1.000000
 FoFCou: FMM=F IPFlag=           0 FMFlag=      100000 FMFlg1=           0
         NFxFlg=           0 DoJE=T BraDBF=F KetDBF=T FulRan=T
         wScrn=  0.000000 ICntrl=       500 IOpCl=  0 I1Cent=   200000004 NGrid=           0
         NMat0=    1 NMatS0=      1 NMatT0=    0 NMatD0=    1 NMtDS0=    0 NMtDT0=    0
 Petite list used in FoFCou.
 Requested convergence on RMS density matrix=1.00D-08 within 128 cycles.
 Requested convergence on MAX density matrix=1.00D-06.
 Requested convergence on             energy=1.00D-06.
 No special actions if energy rises.
 Inv3:  Mode=1 IEnd=     7096332.
 Iteration    1 A*A^-1 deviation from unit magnitude is 3.55D-15 for   1523.
 Iteration    1 A*A^-1 deviation from orthogonality  is 2.05D-15 for   1536    804.
 Iteration    1 A^-1*A deviation from unit magnitude is 3.77D-15 for   1523.
 Iteration    1 A^-1*A deviation from orthogonality  is 1.15D-15 for   1499    923.
 Error on total polarization charges =  0.00641
 SCF Done:  E(RwB97XD) =  -558.145967366     A.U. after    9 cycles
            NFock=  9  Conv=0.94D-08     -V/T= 2.0060
 D1PCM: C-PCM CHGder 1st derivatives, ID1Alg=3 FixD1E=F DoIter=F DoCFld=F I1PDM=0.
 Calling FoFJK, ICntrl=      2127 FMM=F ISym2X=0 I1Cent= 0 IOpClX= 0 NMat=1 NMatS=1 NMatT=0.
 ***** Axes restored to original set *****
 -------------------------------------------------------------------
 Center     Atomic                   Forces (Hartrees/Bohr)
 Number     Number              X              Y              Z
 -------------------------------------------------------------------
      1        5           0.000004357   -0.000026097    0.000029947
      2        9           0.000011819   -0.000001800   -0.000021357
      3        9           0.000001050    0.000005376    0.000012713
      4        9          -0.000036065   -0.000012760    0.000011763
      5        8           0.000024138    0.000073957   -0.000082415
      6        6          -0.000069842   -0.000111531   -0.000020803
      7        6           0.000015463   -0.000014974   -0.000026365
      8        6           0.000087002    0.000062541    0.000157304
      9        6           0.000009895   -0.000012493   -0.000011061
     10        1           0.000007144   -0.000006002   -0.000017944
     11        1          -0.000009219    0.000006647    0.000016577
     12        1           0.000007172    0.000002189   -0.000015682
     13        1          -0.000002279   -0.000009131   -0.000002706
     14        1          -0.000005962   -0.000023019    0.000022677
     15        1          -0.000016520   -0.000001940   -0.000022634
     16        1          -0.000013984    0.000036429   -0.000017583
     17        1          -0.000002724    0.000021445   -0.000011416
     18        1           0.000007473   -0.000006793   -0.000000224
     19        1          -0.000018917    0.000017957   -0.000000790
 -------------------------------------------------------------------
 Cartesian Forces:  Max     0.000157304 RMS     0.000037143

 GradGradGradGradGradGradGradGradGradGradGradGradGradGradGradGradGradGrad
 Berny optimization.
 Using GEDIIS/GDIIS optimizer.
 FormGI is forming the generalized inverse of G from B-inverse, IUseBI=4.
 Internal  Forces:  Max     0.000168003 RMS     0.000037718
 Search for a local minimum.
 Step number  22 out of a maximum of   97
 All quantities printed in internal units (Hartrees-Bohrs-Radians)
 Mixed Optimization -- En-DIIS/RFO-DIIS
 Swapping is turned off.
 Update second derivatives using D2CorX and points   10   11   12   13   14
                                                     15   16   17   18   19
                                                     20   21   22
 DE= -1.51D-06 DEPred=-1.15D-06 R= 1.31D+00
 TightC=F SS=  1.41D+00  RLast= 4.15D-02 DXNew= 3.7273D-01 1.2453D-01
 Trust test= 1.31D+00 RLast= 4.15D-02 DXMaxT set to 2.22D-01
 ITU=  1  1  1 -1 -1  1 -1  1 -1  0  1  1  1  1  1  1  1  1  1  1
 ITU=  1  0
     Eigenvalues ---    0.00095   0.00257   0.00280   0.00338   0.01046
     Eigenvalues ---    0.01862   0.04506   0.04911   0.05205   0.05352
     Eigenvalues ---    0.05408   0.05473   0.05756   0.05867   0.06362
     Eigenvalues ---    0.09696   0.10281   0.12885   0.13032   0.13200
     Eigenvalues ---    0.13517   0.15981   0.16014   0.16050   0.16167
     Eigenvalues ---    0.16528   0.16678   0.20556   0.21866   0.23781
     Eigenvalues ---    0.25367   0.25637   0.28223   0.28513   0.28664
     Eigenvalues ---    0.29291   0.31329   0.31887   0.31973   0.32090
     Eigenvalues ---    0.32103   0.32157   0.32182   0.32188   0.32493
     Eigenvalues ---    0.33012   0.36203   0.38034   0.41574   0.43655
     Eigenvalues ---    0.51896
 En-DIIS/RFO-DIIS/Sim-DIIS IScMMF=       -3 using points:    22   21   20   19   18   17   16   15   14   13
 RFO step:  Lambda=-5.00656940D-07.
 DIIS inversion failure, remove point  10.
 DIIS inversion failure, remove point   9.
 DIIS inversion failure, remove point   8.
 DIIS inversion failure, remove point   7.
 DIIS inversion failure, remove point   6.
 DIIS inversion failure, remove point   5.
 RFO-DIIS uses    4 points instead of   10
 DidBck=F Rises=F RFO-DIIS coefs:    1.53042   -1.21153    0.61633    0.06479    0.00000
                  RFO-DIIS coefs:    0.00000    0.00000    0.00000    0.00000    0.00000
 Iteration  1 RMS(Cart)=  0.00119511 RMS(Int)=  0.00000089
 Iteration  2 RMS(Cart)=  0.00000088 RMS(Int)=  0.00000033
 Variable       Old X    -DE/DX   Delta X   Delta X   Delta X     New X
                                 (Linear)    (Quad)   (Total)
    R1        2.60426   0.00002   0.00007  -0.00003   0.00004   2.60429
    R2        2.61686   0.00001   0.00005  -0.00002   0.00002   2.61688
    R3        2.60950   0.00003   0.00010  -0.00004   0.00007   2.60957
    R4        3.07193  -0.00000  -0.00006   0.00016   0.00010   3.07203
    R5        2.76642   0.00015   0.00015   0.00015   0.00029   2.76671
    R6        2.76719   0.00014   0.00013   0.00027   0.00041   2.76759
    R7        2.85674   0.00004   0.00004   0.00002   0.00006   2.85680
    R8        2.07240  -0.00001  -0.00000  -0.00004  -0.00004   2.07235
    R9        2.05967   0.00000  -0.00003   0.00004   0.00000   2.05967
   R10        2.07414  -0.00000  -0.00001  -0.00001  -0.00002   2.07412
   R11        2.07153   0.00000  -0.00001   0.00001  -0.00000   2.07153
   R12        2.07381  -0.00001   0.00001  -0.00001  -0.00001   2.07381
   R13        2.85387   0.00003   0.00002   0.00002   0.00004   2.85391
   R14        2.07280  -0.00002  -0.00003  -0.00004  -0.00007   2.07273
   R15        2.06833  -0.00003   0.00000  -0.00006  -0.00005   2.06827
   R16        2.07447   0.00000   0.00001  -0.00001  -0.00000   2.07447
   R17        2.07092   0.00000  -0.00002   0.00003   0.00001   2.07094
   R18        2.06640   0.00003  -0.00001   0.00008   0.00007   2.06647
    A1        1.98427   0.00001  -0.00004   0.00011   0.00007   1.98434
    A2        1.97096   0.00000  -0.00006   0.00002  -0.00004   1.97092
    A3        1.83391  -0.00003  -0.00003  -0.00010  -0.00013   1.83378
    A4        1.98428  -0.00002  -0.00008  -0.00003  -0.00011   1.98417
    A5        1.83740  -0.00001   0.00002  -0.00002  -0.00000   1.83740
    A6        1.83356   0.00004   0.00022   0.00000   0.00023   1.83379
    A7        2.06694  -0.00009  -0.00000  -0.00030  -0.00030   2.06664
    A8        2.04399  -0.00009  -0.00001  -0.00046  -0.00047   2.04351
    A9        1.95692   0.00017   0.00016   0.00014   0.00030   1.95722
   A10        1.91887   0.00006  -0.00008   0.00009   0.00002   1.91889
   A11        1.87149  -0.00001  -0.00007   0.00004  -0.00003   1.87147
   A12        1.84995  -0.00003   0.00006  -0.00008  -0.00002   1.84993
   A13        1.96919  -0.00002  -0.00012  -0.00001  -0.00014   1.96905
   A14        1.94800  -0.00000   0.00022  -0.00004   0.00018   1.94818
   A15        1.90099   0.00001  -0.00001  -0.00000  -0.00001   1.90097
   A16        1.89739   0.00002   0.00008  -0.00006   0.00002   1.89740
   A17        1.92665   0.00001   0.00005   0.00004   0.00009   1.92674
   A18        1.95633  -0.00001  -0.00016   0.00006  -0.00010   1.95624
   A19        1.89548  -0.00001  -0.00002  -0.00005  -0.00006   1.89542
   A20        1.88492  -0.00001  -0.00003  -0.00006  -0.00009   1.88484
   A21        1.90170   0.00001   0.00008   0.00006   0.00014   1.90184
   A22        1.95778  -0.00006  -0.00008  -0.00015  -0.00023   1.95755
   A23        1.86809   0.00000  -0.00016   0.00006  -0.00010   1.86799
   A24        1.83763   0.00004  -0.00002  -0.00001  -0.00003   1.83760
   A25        1.95826   0.00003   0.00009   0.00005   0.00014   1.95840
   A26        1.92779  -0.00001  -0.00002   0.00001  -0.00001   1.92777
   A27        1.90937   0.00000   0.00019   0.00004   0.00023   1.90960
   A28        1.87344   0.00004   0.00009   0.00010   0.00019   1.87362
   A29        1.93611  -0.00002  -0.00005  -0.00004  -0.00009   1.93602
   A30        1.95670   0.00000   0.00006  -0.00010  -0.00004   1.95667
   A31        1.89668  -0.00001  -0.00003  -0.00001  -0.00004   1.89664
   A32        1.89408  -0.00002  -0.00009   0.00005  -0.00004   1.89404
   A33        1.90529   0.00000   0.00002   0.00000   0.00002   1.90531
    D1       -2.53978   0.00004   0.00074   0.00098   0.00172  -2.53806
    D2        1.31200  -0.00001   0.00047   0.00180   0.00227   1.31427
    D3        1.64333   0.00004   0.00078   0.00092   0.00170   1.64502
    D4       -0.78807  -0.00001   0.00052   0.00174   0.00225  -0.78582
    D5       -0.45661   0.00005   0.00076   0.00096   0.00172  -0.45489
    D6       -2.88801  -0.00001   0.00049   0.00178   0.00227  -2.88574
    D7        2.25637   0.00002  -0.00080   0.00058  -0.00022   2.25615
    D8       -1.88012   0.00002  -0.00104   0.00065  -0.00039  -1.88051
    D9        0.14851   0.00001  -0.00106   0.00063  -0.00043   0.14808
   D10       -1.56223  -0.00002  -0.00061  -0.00042  -0.00103  -1.56326
   D11        0.58446  -0.00002  -0.00085  -0.00035  -0.00120   0.58326
   D12        2.61310  -0.00004  -0.00087  -0.00037  -0.00124   2.61186
   D13       -1.03583  -0.00003   0.00031  -0.00086  -0.00055  -1.03638
   D14        1.11923  -0.00003   0.00027  -0.00085  -0.00059   1.11864
   D15       -3.13324  -0.00001   0.00040  -0.00078  -0.00038  -3.13363
   D16        2.77315   0.00002   0.00012   0.00006   0.00018   2.77333
   D17       -1.35497   0.00001   0.00008   0.00007   0.00015  -1.35483
   D18        0.67574   0.00004   0.00021   0.00014   0.00035   0.67608
   D19       -3.14012   0.00001   0.00074   0.00035   0.00109  -3.13903
   D20       -1.06271   0.00001   0.00080   0.00028   0.00108  -1.06163
   D21        1.06071   0.00002   0.00082   0.00042   0.00124   1.06195
   D22        1.05493  -0.00001   0.00096   0.00024   0.00120   1.05613
   D23        3.13234  -0.00001   0.00102   0.00017   0.00119   3.13353
   D24       -1.02743   0.00000   0.00105   0.00031   0.00136  -1.02608
   D25       -1.09241   0.00001   0.00090   0.00028   0.00119  -1.09122
   D26        0.98500   0.00000   0.00096   0.00021   0.00117   0.98618
   D27        3.10842   0.00002   0.00099   0.00035   0.00134   3.10976
   D28       -3.01759  -0.00001  -0.00033  -0.00038  -0.00072  -3.01830
   D29       -0.94784  -0.00001  -0.00035  -0.00036  -0.00070  -0.94855
   D30        1.18721  -0.00002  -0.00032  -0.00045  -0.00077   1.18644
   D31        1.16199   0.00001  -0.00013  -0.00039  -0.00052   1.16147
   D32       -3.05145   0.00001  -0.00015  -0.00036  -0.00051  -3.05196
   D33       -0.91641   0.00001  -0.00012  -0.00046  -0.00058  -0.91698
   D34       -0.97341  -0.00001  -0.00042  -0.00048  -0.00091  -0.97432
   D35        1.09633  -0.00001  -0.00044  -0.00046  -0.00090   1.09544
   D36       -3.05180  -0.00001  -0.00040  -0.00056  -0.00096  -3.05276
         Item               Value     Threshold  Converged?
 Maximum Force            0.000168     0.000450     YES
 RMS     Force            0.000038     0.000300     YES
 Maximum Displacement     0.004288     0.001800     NO 
 RMS     Displacement     0.001195     0.001200     YES
 Predicted change in Energy=-2.109341D-07
 GradGradGradGradGradGradGradGradGradGradGradGradGradGradGradGradGradGrad

                          Input orientation:                          
 ---------------------------------------------------------------------
 Center     Atomic      Atomic             Coordinates (Angstroms)
 Number     Number       Type             X           Y           Z
 ---------------------------------------------------------------------
      1          5           0       -1.792144    0.676973   -0.211251
      2          9           0       -1.572491    1.661086   -1.150678
      3          9           0       -2.123799    1.166905    1.040799
      4          9           0       -2.639854   -0.316165   -0.660716
      5          8           0       -0.351988   -0.052014   -0.018213
      6          6           0       -0.329966   -1.491857    0.246170
      7          6           0        0.621195   -2.176947   -0.708473
      8          6           0        0.660766    0.667188    0.757658
      9          6           0        0.997751    2.008101    0.150060
     10          1           0       -0.046737   -1.624777    1.297236
     11          1           0       -1.354459   -1.837925    0.109784
     12          1           0        0.620054   -3.253497   -0.494673
     13          1           0        0.297063   -2.025933   -1.744716
     14          1           0        1.649974   -1.810796   -0.599582
     15          1           0        0.275490    0.760497    1.780361
     16          1           0        1.540229    0.015700    0.758282
     17          1           0        1.845662    2.418970    0.713369
     18          1           0        1.293700    1.898990   -0.899459
     19          1           0        0.163092    2.711482    0.216457
 ---------------------------------------------------------------------
                    Distance matrix (angstroms):
                    1          2          3          4          5
     1  B    0.000000
     2  F    1.378133   0.000000
     3  F    1.384794   2.313164   0.000000
     4  F    1.380926   2.299750   2.315375   0.000000
     5  O    1.625649   2.388895   2.397203   2.391008   0.000000
     6  C    2.655376   3.665529   3.304282   2.745957   1.464080
     7  C    3.770451   4.442781   4.666507   3.754894   2.436983
     8  C    2.637356   3.101132   2.843183   3.724629   1.464547
     9  C    3.112227   2.901462   3.353371   4.392236   2.468640
    10  H    3.258838   4.372311   3.489044   3.502898   2.072960
    11  H    2.572809   3.725505   3.238468   2.135805   2.052026
    12  H    4.620349   5.421322   5.424607   4.391183   3.379553
    13  H    3.744597   4.176389   4.879947   3.567050   2.701563
    14  H    4.264736   4.768853   5.079263   4.543158   2.727482
    15  H    2.872039   3.580096   2.543365   3.951872   2.070935
    16  H    3.532986   4.005053   3.850998   4.426826   2.046464
    17  H    4.138008   3.966463   4.175104   5.430371   3.386833
    18  H    3.389600   2.886998   3.997480   4.520704   2.700241
    19  H    2.853963   2.446352   2.880126   4.218126   2.820866
                    6          7          8          9         10
     6  C    0.000000
     7  C    1.511754   0.000000
     8  C    2.429947   3.200033   0.000000
     9  C    3.744565   4.288764   1.510226   0.000000
    10  H    1.096642   2.184924   2.458619   3.950287   0.000000
    11  H    1.089932   2.165108   3.279705   4.508484   1.779216
    12  H    2.134189   1.097576   4.116037   5.314391   2.511629
    13  H    2.154537   1.096205   3.694192   4.511604   3.087490
    14  H    2.176507   1.097411   2.993499   3.946053   2.551734
    15  H    2.791669   3.865539   1.096844   2.176249   2.454949
    16  H    2.456139   2.793510   1.094482   2.152644   2.345229
    17  H    4.499578   4.964213   2.115344   1.097763   4.502662
    18  H    3.930216   4.135457   2.159624   1.095892   4.363390
    19  H    4.232262   4.996208   2.172490   1.093530   4.473840
                   11         12         13         14         15
    11  H    0.000000
    12  H    2.503581   0.000000
    13  H    2.490390   1.781529   0.000000
    14  H    3.087160   1.775705   1.785493   0.000000
    15  H    3.492758   4.626733   4.493421   3.763627   0.000000
    16  H    3.497956   3.619982   3.461031   2.278580   1.788556
    17  H    5.359687   5.927763   5.310133   4.433177   2.520803
    18  H    4.689974   5.212080   4.136759   3.738900   3.084535
    19  H    4.797024   6.024574   5.129059   4.829879   2.502952
                   16         17         18         19
    16  H    0.000000
    17  H    2.423017   0.000000
    18  H    2.521044   1.782205   0.000000
    19  H    3.075275   1.778630   1.784288   0.000000
 Stoichiometry    C4H10BF3O
 Framework group  C1[X(C4H10BF3O)]
 Deg. of freedom    51
 Full point group                 C1      NOp   1
 Largest Abelian subgroup         C1      NOp   1
 Largest concise Abelian subgroup C1      NOp   1
                         Standard orientation:                         
 ---------------------------------------------------------------------
 Center     Atomic      Atomic             Coordinates (Angstroms)
 Number     Number       Type             X           Y           Z
 ---------------------------------------------------------------------
      1          5           0       -0.973278   -0.705202   -0.047945
      2          9           0       -1.635199   -0.202759   -1.147336
      3          9           0       -1.618656   -0.456659    1.151792
      4          9           0       -0.586924   -2.021313   -0.207747
      5          8           0        0.415373    0.136377    0.030357
      6          6           0        1.619812   -0.549371    0.502168
      7          6           0        2.754212   -0.328379   -0.472358
      8          6           0        0.334136    1.512463    0.525013
      9          6           0       -0.576365    2.369425   -0.321973
     10          1           0        1.840175   -0.165429    1.505489
     11          1           0        1.354871   -1.603912    0.577667
     12          1           0        3.644426   -0.852207   -0.101151
     13          1           0        2.495709   -0.733333   -1.457677
     14          1           0        3.005899    0.734504   -0.578391
     15          1           0        0.001021    1.459467    1.568705
     16          1           0        1.359743    1.892927    0.489391
     17          1           0       -0.480708    3.402512    0.036726
     18          1           0       -0.277720    2.334918   -1.375823
     19          1           0       -1.623772    2.067300   -0.235556
 ---------------------------------------------------------------------
 Rotational constants (GHZ):           1.7532636           1.4127372           1.0032206
 Standard basis: Aug-CC-pVDZ (5D, 7F)
 There are   315 symmetry adapted cartesian basis functions of A   symmetry.
 There are   297 symmetry adapted basis functions of A   symmetry.
   297 basis functions,   497 primitive gaussians,   315 cartesian basis functions
    37 alpha electrons       37 beta electrons
       nuclear repulsion energy       523.7743310459 Hartrees.
 NAtoms=   19 NActive=   19 NUniq=   19 SFac= 1.00D+00 NAtFMM=   60 NAOKFM=F Big=F
 Integral buffers will be    131072 words long.
 Raffenetti 2 integral format.
 Two-electron integral symmetry is turned on.
 Nuclear repulsion after empirical dispersion term =      523.7622855396 Hartrees.
 Force PCM accuracy= 1.00D-12.
 ------------------------------------------------------------------------------
 Polarizable Continuum Model (PCM)
 =================================
 Model                : C-PCM.
 Atomic radii         : UFF (Universal Force Field).
 Polarization charges : Total charges.
 Charge compensation  : None.
 Solution method      : On-the-fly selection.
 Cavity type          : Scaled VdW (van der Waals Surface) (Alpha=1.100).
 Cavity algorithm     : GePol (No added spheres)
                        Default sphere list used, NSphG=   19.
                        Lebedev-Laikov grids with approx.  5.0 points / Ang**2.
                        Smoothing algorithm: York/Karplus (Gamma=1.0000).
                        Polarization charges: spherical gaussians, with
                                              point-specific exponents (IZeta= 3).
                        Self-potential: point-specific (ISelfS= 7).
                        Self-field    : sphere-specific E.n sum rule (ISelfD= 2).
 1st derivatives      : Analytical E(r).r(x)/FMM algorithm (CHGder, D1EAlg=3).
                        Cavity 1st derivative terms included.
 Solvent              : Benzene, Eps=   2.270600 Eps(inf)=   2.253301
 ------------------------------------------------------------------------------
 Spheres list:
 ISph  on   Nord     Re0    Alpha      Xe            Ye            Ze
    1   B      1    2.0415  1.100     -0.973278     -0.705202     -0.047945
    2   F      2    1.6820  1.100     -1.635199     -0.202759     -1.147336
    3   F      3    1.6820  1.100     -1.618656     -0.456659      1.151792
    4   F      4    1.6820  1.100     -0.586924     -2.021313     -0.207747
    5   O      5    1.7500  1.100      0.415373      0.136377      0.030357
    6   C      6    1.9255  1.100      1.619812     -0.549371      0.502168
    7   C      7    1.9255  1.100      2.754212     -0.328379     -0.472358
    8   C      8    1.9255  1.100      0.334136      1.512463      0.525013
    9   C      9    1.9255  1.100     -0.576365      2.369425     -0.321973
   10   H     10    1.4430  1.100      1.840175     -0.165429      1.505489
   11   H     11    1.4430  1.100      1.354871     -1.603912      0.577667
   12   H     12    1.4430  1.100      3.644426     -0.852207     -0.101151
   13   H     13    1.4430  1.100      2.495709     -0.733333     -1.457677
   14   H     14    1.4430  1.100      3.005899      0.734504     -0.578391
   15   H     15    1.4430  1.100      0.001021      1.459467      1.568705
   16   H     16    1.4430  1.100      1.359743      1.892927      0.489391
   17   H     17    1.4430  1.100     -0.480708      3.402512      0.036726
   18   H     18    1.4430  1.100     -0.277720      2.334918     -1.375823
   19   H     19    1.4430  1.100     -1.623772      2.067300     -0.235556
 ------------------------------------------------------------------------------
 One-electron integrals computed using PRISM.
 NBasis=   297 RedAO= T EigKep=  2.69D-05  NBF=   297
 NBsUse=   297 1.00D-06 EigRej= -1.00D+00 NBFU=   297
 Initial guess from the checkpoint file:  "/inspire/hdd/project/materialscienceresearch/lipenghui-253107030018/g16/00-B-DFT-Shift/04-output/BF3OEt2_C6D6/BF3OEt2_C6D6.chk"
 B after Tr=     0.000000   -0.000000   -0.000000
         Rot=    1.000000    0.000286    0.000129   -0.000568 Ang=   0.07 deg.
 Requested convergence on RMS density matrix=1.00D-08 within 128 cycles.
 Requested convergence on MAX density matrix=1.00D-06.
 Requested convergence on             energy=1.00D-06.
 No special actions if energy rises.
 Inv3:  Mode=1 IEnd=     7087107.
 Iteration    1 A*A^-1 deviation from unit magnitude is 4.66D-15 for   1522.
 Iteration    1 A*A^-1 deviation from orthogonality  is 3.02D-15 for   1535    804.
 Iteration    1 A^-1*A deviation from unit magnitude is 4.44D-15 for   1522.
 Iteration    1 A^-1*A deviation from orthogonality  is 1.72D-15 for   1513   1147.
 Error on total polarization charges =  0.00641
 SCF Done:  E(RwB97XD) =  -558.145967889     A.U. after    8 cycles
            NFock=  8  Conv=0.25D-08     -V/T= 2.0060
 D1PCM: C-PCM CHGder 1st derivatives, ID1Alg=3 FixD1E=F DoIter=F DoCFld=F I1PDM=0.
 Calling FoFJK, ICntrl=      2127 FMM=F ISym2X=0 I1Cent= 0 IOpClX= 0 NMat=1 NMatS=1 NMatT=0.
 ***** Axes restored to original set *****
 -------------------------------------------------------------------
 Center     Atomic                   Forces (Hartrees/Bohr)
 Number     Number              X              Y              Z
 -------------------------------------------------------------------
      1        5           0.000009912   -0.000026023    0.000010851
      2        9           0.000009083   -0.000000703   -0.000010372
      3        9          -0.000000830    0.000007351    0.000003768
      4        9          -0.000024924    0.000006437    0.000009441
      5        8           0.000012275    0.000052841   -0.000015888
      6        6          -0.000022693   -0.000063840   -0.000029856
      7        6           0.000007333    0.000007914   -0.000006546
      8        6           0.000038912    0.000018077    0.000076869
      9        6          -0.000018474   -0.000009599   -0.000015918
     10        1           0.000006663   -0.000002961   -0.000002081
     11        1           0.000005744    0.000007105    0.000005415
     12        1           0.000001865   -0.000006065   -0.000006433
     13        1          -0.000003357   -0.000003839   -0.000001049
     14        1          -0.000004080   -0.000008749    0.000010756
     15        1          -0.000009716    0.000000700   -0.000011126
     16        1          -0.000003163    0.000011183   -0.000012190
     17        1          -0.000003738    0.000009025   -0.000004315
     18        1           0.000001014   -0.000003326    0.000000138
     19        1          -0.000001825    0.000004473   -0.000001462
 -------------------------------------------------------------------
 Cartesian Forces:  Max     0.000076869 RMS     0.000018881

 GradGradGradGradGradGradGradGradGradGradGradGradGradGradGradGradGradGrad
 Berny optimization.
 Using GEDIIS/GDIIS optimizer.
 FormGI is forming the generalized inverse of G from B-inverse, IUseBI=4.
 Internal  Forces:  Max     0.000072523 RMS     0.000018477
 Search for a local minimum.
 Step number  23 out of a maximum of   97
 All quantities printed in internal units (Hartrees-Bohrs-Radians)
 Mixed Optimization -- En-DIIS/RFO-DIIS
 Swapping is turned off.
 Update second derivatives using D2CorX and points   10   11   12   13   14
                                                     15   16   17   18   19
                                                     20   21   22   23
 DE= -5.23D-07 DEPred=-2.11D-07 R= 2.48D+00
 Trust test= 2.48D+00 RLast= 6.99D-03 DXMaxT set to 2.22D-01
 ITU=  0  1  1  1 -1 -1  1 -1  1 -1  0  1  1  1  1  1  1  1  1  1
 ITU=  1  1  0
     Eigenvalues ---    0.00088   0.00240   0.00282   0.00335   0.00649
     Eigenvalues ---    0.02074   0.04514   0.04776   0.05209   0.05280
     Eigenvalues ---    0.05381   0.05465   0.05750   0.05866   0.06370
     Eigenvalues ---    0.09685   0.10272   0.12755   0.12978   0.13200
     Eigenvalues ---    0.13459   0.15947   0.16021   0.16045   0.16169
     Eigenvalues ---    0.16354   0.16664   0.19854   0.21452   0.23686
     Eigenvalues ---    0.25323   0.25551   0.28237   0.28501   0.28673
     Eigenvalues ---    0.29248   0.31347   0.31684   0.31988   0.32076
     Eigenvalues ---    0.32113   0.32167   0.32179   0.32205   0.32476
     Eigenvalues ---    0.32956   0.34870   0.37740   0.39463   0.41871
     Eigenvalues ---    0.47598
 En-DIIS/RFO-DIIS/Sim-DIIS IScMMF=       -3 using points:    23   22   21   20   19   18   17   16   15   14
 RFO step:  Lambda=-4.58262243D-07.
 DIIS inversion failure, remove point  10.
 DIIS inversion failure, remove point   9.
 DIIS inversion failure, remove point   8.
 DIIS inversion failure, remove point   7.
 DIIS inversion failure, remove point   6.
 RFO-DIIS uses    5 points instead of   10
 DidBck=F Rises=F RFO-DIIS coefs:    2.04451   -0.73677   -0.48619    0.15090    0.02755
                  RFO-DIIS coefs:    0.00000    0.00000    0.00000    0.00000    0.00000
 Iteration  1 RMS(Cart)=  0.00238197 RMS(Int)=  0.00000293
 Iteration  2 RMS(Cart)=  0.00000325 RMS(Int)=  0.00000006
 Iteration  3 RMS(Cart)=  0.00000000 RMS(Int)=  0.00000006
 Variable       Old X    -DE/DX   Delta X   Delta X   Delta X     New X
                                 (Linear)    (Quad)   (Total)
    R1        2.60429   0.00001   0.00006   0.00002   0.00007   2.60437
    R2        2.61688   0.00001   0.00005   0.00000   0.00005   2.61694
    R3        2.60957   0.00001   0.00012  -0.00007   0.00004   2.60962
    R4        3.07203  -0.00000  -0.00001  -0.00005  -0.00006   3.07197
    R5        2.76671   0.00007   0.00034  -0.00004   0.00030   2.76701
    R6        2.76759   0.00004   0.00044  -0.00013   0.00031   2.76790
    R7        2.85680   0.00001   0.00006  -0.00008  -0.00001   2.85679
    R8        2.07235   0.00000  -0.00006   0.00004  -0.00002   2.07234
    R9        2.05967  -0.00001   0.00000  -0.00003  -0.00002   2.05965
   R10        2.07412   0.00001  -0.00002   0.00005   0.00002   2.07414
   R11        2.07153   0.00000  -0.00001   0.00001   0.00000   2.07153
   R12        2.07381  -0.00001   0.00001  -0.00001  -0.00000   2.07380
   R13        2.85391   0.00000   0.00003  -0.00004  -0.00001   2.85391
   R14        2.07273  -0.00001  -0.00006   0.00001  -0.00005   2.07268
   R15        2.06827  -0.00001  -0.00002   0.00002  -0.00000   2.06827
   R16        2.07447  -0.00000   0.00000  -0.00000  -0.00000   2.07447
   R17        2.07094   0.00000  -0.00001   0.00001  -0.00000   2.07094
   R18        2.06647   0.00000   0.00008  -0.00004   0.00004   2.06652
    A1        1.98434   0.00000   0.00007  -0.00002   0.00005   1.98439
    A2        1.97092  -0.00000  -0.00007  -0.00003  -0.00009   1.97083
    A3        1.83378  -0.00003  -0.00013  -0.00005  -0.00018   1.83360
    A4        1.98417  -0.00002  -0.00014  -0.00002  -0.00016   1.98401
    A5        1.83740   0.00000   0.00003   0.00004   0.00006   1.83746
    A6        1.83379   0.00005   0.00027   0.00010   0.00037   1.83416
    A7        2.06664  -0.00001  -0.00008   0.00025   0.00017   2.06681
    A8        2.04351  -0.00006  -0.00036   0.00009  -0.00026   2.04325
    A9        1.95722   0.00007   0.00023   0.00011   0.00034   1.95756
   A10        1.91889   0.00002  -0.00011  -0.00001  -0.00012   1.91877
   A11        1.87147  -0.00000  -0.00008   0.00005  -0.00002   1.87144
   A12        1.84993  -0.00001   0.00007  -0.00008  -0.00001   1.84992
   A13        1.96905  -0.00001  -0.00019   0.00002  -0.00016   1.96889
   A14        1.94818   0.00000   0.00032  -0.00004   0.00028   1.94846
   A15        1.90097   0.00000  -0.00002   0.00005   0.00003   1.90101
   A16        1.89740   0.00001   0.00009   0.00000   0.00009   1.89750
   A17        1.92674   0.00000   0.00011  -0.00004   0.00007   1.92681
   A18        1.95624  -0.00001  -0.00025   0.00001  -0.00025   1.95599
   A19        1.89542  -0.00001  -0.00003  -0.00002  -0.00005   1.89537
   A20        1.88484  -0.00000  -0.00004   0.00003  -0.00002   1.88482
   A21        1.90184   0.00001   0.00013   0.00002   0.00015   1.90199
   A22        1.95755  -0.00007  -0.00016  -0.00024  -0.00040   1.95715
   A23        1.86799   0.00001  -0.00016   0.00012  -0.00004   1.86794
   A24        1.83760   0.00003  -0.00011   0.00001  -0.00010   1.83750
   A25        1.95840   0.00002   0.00010   0.00003   0.00013   1.95853
   A26        1.92777   0.00001   0.00001   0.00004   0.00005   1.92782
   A27        1.90960  -0.00000   0.00032   0.00005   0.00036   1.90996
   A28        1.87362   0.00001   0.00016  -0.00003   0.00013   1.87375
   A29        1.93602  -0.00001  -0.00004  -0.00001  -0.00006   1.93596
   A30        1.95667   0.00000  -0.00002   0.00002  -0.00000   1.95667
   A31        1.89664  -0.00000  -0.00004   0.00003  -0.00001   1.89662
   A32        1.89404  -0.00001  -0.00009   0.00000  -0.00008   1.89396
   A33        1.90531   0.00000   0.00003  -0.00001   0.00003   1.90534
    D1       -2.53806   0.00002   0.00307   0.00072   0.00379  -2.53427
    D2        1.31427  -0.00001   0.00327   0.00003   0.00331   1.31758
    D3        1.64502   0.00003   0.00304   0.00075   0.00379   1.64882
    D4       -0.78582   0.00000   0.00324   0.00007   0.00331  -0.78252
    D5       -0.45489   0.00002   0.00306   0.00071   0.00377  -0.45112
    D6       -2.88574  -0.00000   0.00326   0.00003   0.00329  -2.88245
    D7        2.25615   0.00001  -0.00218  -0.00011  -0.00229   2.25386
    D8       -1.88051   0.00001  -0.00252  -0.00006  -0.00258  -1.88309
    D9        0.14808   0.00001  -0.00254  -0.00001  -0.00255   0.14553
   D10       -1.56326  -0.00001  -0.00259   0.00053  -0.00206  -1.56532
   D11        0.58326  -0.00001  -0.00293   0.00059  -0.00234   0.58092
   D12        2.61186  -0.00001  -0.00295   0.00063  -0.00232   2.60954
   D13       -1.03638  -0.00000   0.00155   0.00023   0.00178  -1.03460
   D14        1.11864  -0.00001   0.00147   0.00019   0.00166   1.12031
   D15       -3.13363   0.00001   0.00170   0.00030   0.00201  -3.13162
   D16        2.77333   0.00000   0.00184  -0.00047   0.00137   2.77470
   D17       -1.35483  -0.00001   0.00176  -0.00051   0.00125  -1.35358
   D18        0.67608   0.00001   0.00199  -0.00040   0.00160   0.67768
   D19       -3.13903   0.00001   0.00072   0.00002   0.00074  -3.13829
   D20       -1.06163   0.00000   0.00080  -0.00002   0.00078  -1.06085
   D21        1.06195   0.00001   0.00086  -0.00002   0.00085   1.06280
   D22        1.05613  -0.00000   0.00101  -0.00005   0.00096   1.05709
   D23        3.13353  -0.00000   0.00109  -0.00009   0.00100   3.13452
   D24       -1.02608   0.00000   0.00116  -0.00009   0.00107  -1.02501
   D25       -1.09122   0.00000   0.00093  -0.00011   0.00082  -1.09040
   D26        0.98618  -0.00000   0.00101  -0.00015   0.00086   0.98704
   D27        3.10976   0.00001   0.00108  -0.00015   0.00093   3.11069
   D28       -3.01830  -0.00001  -0.00114   0.00011  -0.00103  -3.01933
   D29       -0.94855  -0.00000  -0.00112   0.00012  -0.00100  -0.94954
   D30        1.18644  -0.00001  -0.00112   0.00011  -0.00101   1.18543
   D31        1.16147   0.00001  -0.00089   0.00011  -0.00078   1.16068
   D32       -3.05196   0.00001  -0.00087   0.00012  -0.00075  -3.05272
   D33       -0.91698   0.00001  -0.00087   0.00011  -0.00076  -0.91774
   D34       -0.97432  -0.00001  -0.00137   0.00000  -0.00137  -0.97569
   D35        1.09544  -0.00001  -0.00135   0.00001  -0.00134   1.09410
   D36       -3.05276  -0.00001  -0.00136   0.00001  -0.00135  -3.05411
         Item               Value     Threshold  Converged?
 Maximum Force            0.000073     0.000450     YES
 RMS     Force            0.000018     0.000300     YES
 Maximum Displacement     0.008714     0.001800     NO 
 RMS     Displacement     0.002382     0.001200     NO 
 Predicted change in Energy=-2.282941D-07
 GradGradGradGradGradGradGradGradGradGradGradGradGradGradGradGradGradGrad

                          Input orientation:                          
 ---------------------------------------------------------------------
 Center     Atomic      Atomic             Coordinates (Angstroms)
 Number     Number       Type             X           Y           Z
 ---------------------------------------------------------------------
      1          5           0       -1.790827    0.677027   -0.212360
      2          9           0       -1.570934    1.657786   -1.155290
      3          9           0       -2.121294    1.171433    1.038275
      4          9           0       -2.639954   -0.316696   -0.657914
      5          8           0       -0.351068   -0.052299   -0.017940
      6          6           0       -0.329396   -1.492299    0.246500
      7          6           0        0.620203   -2.177725   -0.709445
      8          6           0        0.661193    0.667299    0.758517
      9          6           0        0.996621    2.008833    0.151435
     10          1           0       -0.044555   -1.625299    1.297110
     11          1           0       -1.354280   -1.837813    0.111747
     12          1           0        0.618402   -3.254412   -0.496271
     13          1           0        0.295247   -2.025901   -1.745311
     14          1           0        1.649350   -1.812441   -0.601122
     15          1           0        0.275769    0.759630    1.781223
     16          1           0        1.541240    0.016601    0.758403
     17          1           0        1.843506    2.420965    0.715363
     18          1           0        1.293460    1.900318   -0.897893
     19          1           0        0.160856    2.710976    0.217387
 ---------------------------------------------------------------------
                    Distance matrix (angstroms):
                    1          2          3          4          5
     1  B    0.000000
     2  F    1.378172   0.000000
     3  F    1.384823   2.313258   0.000000
     4  F    1.380949   2.299732   2.315296   0.000000
     5  O    1.625615   2.388730   2.397251   2.391333   0.000000
     6  C    2.655618   3.664624   3.306550   2.745667   1.464239
     7  C    3.769585   4.439708   4.667675   3.754292   2.437002
     8  C    2.637252   3.102597   2.841592   3.724526   1.464711
     9  C    3.110614   2.902258   3.348002   4.391789   2.468444
    10  H    3.260165   4.372957   3.493072   3.502950   2.073074
    11  H    2.572943   3.724451   3.240729   2.135212   2.052148
    12  H    4.619654   5.418228   5.426681   4.390124   3.379674
    13  H    3.742655   4.171368   4.879649   3.566402   2.701229
    14  H    4.264200   4.766530   5.080244   4.542973   2.727612
    15  H    2.872633   3.583309   2.543121   3.950862   2.071025
    16  H    3.532877   4.005164   3.850470   4.427124   2.046530
    17  H    4.136468   3.967391   4.169561   5.429742   3.386875
    18  H    3.388100   2.886144   3.992563   4.521558   2.700278
    19  H    2.851438   2.447968   2.872674   4.216336   2.820130
                    6          7          8          9         10
     6  C    0.000000
     7  C    1.511747   0.000000
     8  C    2.430492   3.201680   0.000000
     9  C    3.745034   4.290696   1.510223   0.000000
    10  H    1.096634   2.184797   2.458489   3.950131   0.000000
    11  H    1.089920   2.165290   3.279638   4.508325   1.779221
    12  H    2.134262   1.097589   4.117783   5.316420   2.511918
    13  H    2.154582   1.096206   3.695457   4.513164   3.087438
    14  H    2.176324   1.097410   2.995694   3.948991   2.551003
    15  H    2.791556   3.866539   1.096816   2.176314   2.454560
    16  H    2.457255   2.796060   1.094482   2.152674   2.345376
    17  H    4.500552   4.967344   2.115437   1.097763   4.502828
    18  H    3.931049   4.137538   2.159581   1.095892   4.363290
    19  H    4.231869   4.996941   2.172504   1.093553   4.473397
                   11         12         13         14         15
    11  H    0.000000
    12  H    2.503580   0.000000
    13  H    2.490980   1.781508   0.000000
    14  H    3.087170   1.775705   1.785589   0.000000
    15  H    3.491550   4.627841   4.493998   3.765348   0.000000
    16  H    3.498722   3.622894   3.463076   2.281532   1.788763
    17  H    5.359793   5.931176   5.312876   4.437630   2.520692
    18  H    4.690791   5.214235   4.138809   3.741565   3.084563
    19  H    4.795652   6.025322   5.129157   4.831860   2.503305
                   16         17         18         19
    16  H    0.000000
    17  H    2.423671   0.000000
    18  H    2.520536   1.782196   0.000000
    19  H    3.075356   1.778594   1.784323   0.000000
 Stoichiometry    C4H10BF3O
 Framework group  C1[X(C4H10BF3O)]
 Deg. of freedom    51
 Full point group                 C1      NOp   1
 Largest Abelian subgroup         C1      NOp   1
 Largest concise Abelian subgroup C1      NOp   1
                         Standard orientation:                         
 ---------------------------------------------------------------------
 Center     Atomic      Atomic             Coordinates (Angstroms)
 Number     Number       Type             X           Y           Z
 ---------------------------------------------------------------------
      1          5           0       -0.970841   -0.707474   -0.047832
      2          9           0       -1.631368   -0.210286   -1.150495
      3          9           0       -1.619657   -0.456555    1.149587
      4          9           0       -0.581254   -2.023291   -0.202320
      5          8           0        0.415447    0.137898    0.030753
      6          6           0        1.621881   -0.544333    0.503061
      7          6           0        2.754892   -0.322821   -0.472950
      8          6           0        0.329811    1.514156    0.524672
      9          6           0       -0.584718    2.366858   -0.322269
     10          1           0        1.842375   -0.157594    1.505269
     11          1           0        1.359199   -1.599232    0.581229
     12          1           0        3.646463   -0.844510   -0.101948
     13          1           0        2.496145   -0.729645   -1.457435
     14          1           0        3.004492    0.740394   -0.580569
     15          1           0       -0.002151    1.460605    1.568674
     16          1           0        1.354016    1.898229    0.487485
     17          1           0       -0.493540    3.400510    0.035966
     18          1           0       -0.286265    2.333251   -1.376202
     19          1           0       -1.630789    2.060196   -0.235367
 ---------------------------------------------------------------------
 Rotational constants (GHZ):           1.7531942           1.4129725           1.0033940
 Standard basis: Aug-CC-pVDZ (5D, 7F)
 There are   315 symmetry adapted cartesian basis functions of A   symmetry.
 There are   297 symmetry adapted basis functions of A   symmetry.
   297 basis functions,   497 primitive gaussians,   315 cartesian basis functions
    37 alpha electrons       37 beta electrons
       nuclear repulsion energy       523.7808414601 Hartrees.
 NAtoms=   19 NActive=   19 NUniq=   19 SFac= 1.00D+00 NAtFMM=   60 NAOKFM=F Big=F
 Integral buffers will be    131072 words long.
 Raffenetti 2 integral format.
 Two-electron integral symmetry is turned on.
 Nuclear repulsion after empirical dispersion term =      523.7687947503 Hartrees.
 Force PCM accuracy= 1.00D-12.
 ------------------------------------------------------------------------------
 Polarizable Continuum Model (PCM)
 =================================
 Model                : C-PCM.
 Atomic radii         : UFF (Universal Force Field).
 Polarization charges : Total charges.
 Charge compensation  : None.
 Solution method      : On-the-fly selection.
 Cavity type          : Scaled VdW (van der Waals Surface) (Alpha=1.100).
 Cavity algorithm     : GePol (No added spheres)
                        Default sphere list used, NSphG=   19.
                        Lebedev-Laikov grids with approx.  5.0 points / Ang**2.
                        Smoothing algorithm: York/Karplus (Gamma=1.0000).
                        Polarization charges: spherical gaussians, with
                                              point-specific exponents (IZeta= 3).
                        Self-potential: point-specific (ISelfS= 7).
                        Self-field    : sphere-specific E.n sum rule (ISelfD= 2).
 1st derivatives      : Analytical E(r).r(x)/FMM algorithm (CHGder, D1EAlg=3).
                        Cavity 1st derivative terms included.
 Solvent              : Benzene, Eps=   2.270600 Eps(inf)=   2.253301
 ------------------------------------------------------------------------------
 Spheres list:
 ISph  on   Nord     Re0    Alpha      Xe            Ye            Ze
    1   B      1    2.0415  1.100     -0.970841     -0.707474     -0.047832
    2   F      2    1.6820  1.100     -1.631368     -0.210286     -1.150495
    3   F      3    1.6820  1.100     -1.619657     -0.456555      1.149587
    4   F      4    1.6820  1.100     -0.581254     -2.023291     -0.202320
    5   O      5    1.7500  1.100      0.415447      0.137898      0.030753
    6   C      6    1.9255  1.100      1.621881     -0.544333      0.503061
    7   C      7    1.9255  1.100      2.754892     -0.322821     -0.472950
    8   C      8    1.9255  1.100      0.329811      1.514156      0.524672
    9   C      9    1.9255  1.100     -0.584718      2.366858     -0.322269
   10   H     10    1.4430  1.100      1.842375     -0.157594      1.505269
   11   H     11    1.4430  1.100      1.359199     -1.599232      0.581229
   12   H     12    1.4430  1.100      3.646463     -0.844510     -0.101948
   13   H     13    1.4430  1.100      2.496145     -0.729645     -1.457435
   14   H     14    1.4430  1.100      3.004492      0.740394     -0.580569
   15   H     15    1.4430  1.100     -0.002151      1.460605      1.568674
   16   H     16    1.4430  1.100      1.354016      1.898229      0.487485
   17   H     17    1.4430  1.100     -0.493540      3.400510      0.035966
   18   H     18    1.4430  1.100     -0.286265      2.333251     -1.376202
   19   H     19    1.4430  1.100     -1.630789      2.060196     -0.235367
 ------------------------------------------------------------------------------
 One-electron integrals computed using PRISM.
 NBasis=   297 RedAO= T EigKep=  2.69D-05  NBF=   297
 NBsUse=   297 1.00D-06 EigRej= -1.00D+00 NBFU=   297
 Initial guess from the checkpoint file:  "/inspire/hdd/project/materialscienceresearch/lipenghui-253107030018/g16/00-B-DFT-Shift/04-output/BF3OEt2_C6D6/BF3OEt2_C6D6.chk"
 B after Tr=    -0.000000    0.000000    0.000000
         Rot=    0.999999    0.000657    0.000218   -0.001363 Ang=   0.18 deg.
 Requested convergence on RMS density matrix=1.00D-08 within 128 cycles.
 Requested convergence on MAX density matrix=1.00D-06.
 Requested convergence on             energy=1.00D-06.
 No special actions if energy rises.
 Inv3:  Mode=1 IEnd=     7087107.
 Iteration    1 A*A^-1 deviation from unit magnitude is 4.55D-15 for   1526.
 Iteration    1 A*A^-1 deviation from orthogonality  is 1.72D-15 for   1526   1090.
 Iteration    1 A^-1*A deviation from unit magnitude is 4.55D-15 for   1526.
 Iteration    1 A^-1*A deviation from orthogonality  is 2.70D-15 for   1527    789.
 Error on total polarization charges =  0.00641
 SCF Done:  E(RwB97XD) =  -558.145968347     A.U. after    8 cycles
            NFock=  8  Conv=0.45D-08     -V/T= 2.0060
 D1PCM: C-PCM CHGder 1st derivatives, ID1Alg=3 FixD1E=F DoIter=F DoCFld=F I1PDM=0.
 Calling FoFJK, ICntrl=      2127 FMM=F ISym2X=0 I1Cent= 0 IOpClX= 0 NMat=1 NMatS=1 NMatT=0.
 ***** Axes restored to original set *****
 -------------------------------------------------------------------
 Center     Atomic                   Forces (Hartrees/Bohr)
 Number     Number              X              Y              Z
 -------------------------------------------------------------------
      1        5           0.000002721   -0.000007597   -0.000004866
      2        9          -0.000001359   -0.000000940   -0.000003271
      3        9           0.000005188    0.000005174   -0.000006600
      4        9          -0.000007849    0.000005575    0.000007080
      5        8          -0.000004780    0.000003743    0.000072014
      6        6           0.000015104    0.000004687   -0.000034109
      7        6           0.000007344    0.000005283    0.000006208
      8        6          -0.000014239   -0.000024910   -0.000027360
      9        6          -0.000004549    0.000002645   -0.000006434
     10        1          -0.000001379    0.000006482    0.000002497
     11        1           0.000007692   -0.000000012   -0.000003296
     12        1          -0.000000917    0.000001917   -0.000000387
     13        1          -0.000000961    0.000000736    0.000000588
     14        1           0.000000553   -0.000001658   -0.000004363
     15        1           0.000001454    0.000001292   -0.000001723
     16        1           0.000000009   -0.000000198    0.000003590
     17        1          -0.000002638    0.000001152   -0.000001390
     18        1          -0.000003397   -0.000000616    0.000001462
     19        1           0.000002001   -0.000002755    0.000000360
 -------------------------------------------------------------------
 Cartesian Forces:  Max     0.000072014 RMS     0.000012527

 GradGradGradGradGradGradGradGradGradGradGradGradGradGradGradGradGradGrad
 Berny optimization.
 Using GEDIIS/GDIIS optimizer.
 FormGI is forming the generalized inverse of G from B-inverse, IUseBI=4.
 Internal  Forces:  Max     0.000040108 RMS     0.000007985
 Search for a local minimum.
 Step number  24 out of a maximum of   97
 All quantities printed in internal units (Hartrees-Bohrs-Radians)
 Mixed Optimization -- En-DIIS/RFO-DIIS
 Swapping is turned off.
 Update second derivatives using D2CorX and points   10   11   12   13   14
                                                     15   16   17   18   19
                                                     20   21   22   23   24
 DE= -4.58D-07 DEPred=-2.28D-07 R= 2.01D+00
 Trust test= 2.01D+00 RLast= 1.20D-02 DXMaxT set to 2.22D-01
 ITU=  0  0  1  1  1 -1 -1  1 -1  1 -1  0  1  1  1  1  1  1  1  1
 ITU=  1  1  1  0
     Eigenvalues ---    0.00074   0.00224   0.00283   0.00337   0.00542
     Eigenvalues ---    0.02131   0.04513   0.04836   0.05208   0.05324
     Eigenvalues ---    0.05395   0.05456   0.05751   0.05867   0.06352
     Eigenvalues ---    0.09679   0.10260   0.12792   0.12987   0.13199
     Eigenvalues ---    0.13484   0.15935   0.16012   0.16044   0.16180
     Eigenvalues ---    0.16379   0.16640   0.20094   0.21453   0.23674
     Eigenvalues ---    0.25305   0.25520   0.28201   0.28494   0.28677
     Eigenvalues ---    0.29311   0.31400   0.31769   0.31997   0.32072
     Eigenvalues ---    0.32116   0.32168   0.32181   0.32198   0.32470
     Eigenvalues ---    0.33034   0.35388   0.37952   0.41406   0.43516
     Eigenvalues ---    0.47427
 En-DIIS/RFO-DIIS/Sim-DIIS IScMMF=       -3 using points:    24   23   22   21   20   19   18   17   16   15
 RFO step:  Lambda=-1.30913503D-07.
 DIIS inversion failure, remove point  10.
 DIIS inversion failure, remove point   9.
 DIIS inversion failure, remove point   8.
 DIIS inversion failure, remove point   7.
 DIIS inversion failure, remove point   6.
 DIIS inversion failure, remove point   5.
 DIIS inversion failure, remove point   4.
 RFO-DIIS uses    3 points instead of   10
 DidBck=F Rises=F RFO-DIIS coefs:    1.86449   -1.14416    0.27966    0.00000    0.00000
                  RFO-DIIS coefs:    0.00000    0.00000    0.00000    0.00000    0.00000
 Iteration  1 RMS(Cart)=  0.00178824 RMS(Int)=  0.00000188
 Iteration  2 RMS(Cart)=  0.00000213 RMS(Int)=  0.00000007
 Iteration  3 RMS(Cart)=  0.00000000 RMS(Int)=  0.00000007
 Variable       Old X    -DE/DX   Delta X   Delta X   Delta X     New X
                                 (Linear)    (Quad)   (Total)
    R1        2.60437   0.00000   0.00005   0.00000   0.00006   2.60442
    R2        2.61694  -0.00001   0.00004  -0.00003   0.00001   2.61694
    R3        2.60962  -0.00000   0.00002   0.00001   0.00003   2.60964
    R4        3.07197   0.00000  -0.00008   0.00005  -0.00003   3.07194
    R5        2.76701  -0.00002   0.00018  -0.00015   0.00003   2.76704
    R6        2.76790  -0.00004   0.00015  -0.00018  -0.00002   2.76788
    R7        2.85679  -0.00000  -0.00003   0.00004   0.00001   2.85680
    R8        2.07234   0.00000  -0.00000  -0.00001  -0.00001   2.07232
    R9        2.05965  -0.00001  -0.00002   0.00001  -0.00001   2.05964
   R10        2.07414  -0.00000   0.00003  -0.00003  -0.00000   2.07414
   R11        2.07153  -0.00000   0.00000  -0.00000   0.00000   2.07153
   R12        2.07380  -0.00000   0.00000  -0.00000   0.00000   2.07380
   R13        2.85391  -0.00000  -0.00002   0.00003   0.00001   2.85392
   R14        2.07268  -0.00000  -0.00003   0.00001  -0.00002   2.07266
   R15        2.06827   0.00000   0.00001  -0.00001   0.00001   2.06828
   R16        2.07447  -0.00000  -0.00000  -0.00000  -0.00000   2.07447
   R17        2.07094  -0.00000  -0.00000  -0.00001  -0.00001   2.07092
   R18        2.06652  -0.00000   0.00002   0.00001   0.00002   2.06654
    A1        1.98439  -0.00000   0.00002  -0.00002   0.00000   1.98439
    A2        1.97083  -0.00000  -0.00007   0.00003  -0.00004   1.97079
    A3        1.83360  -0.00001  -0.00012   0.00003  -0.00009   1.83351
    A4        1.98401  -0.00000  -0.00011   0.00006  -0.00005   1.98396
    A5        1.83746  -0.00000   0.00005  -0.00006  -0.00001   1.83746
    A6        1.83416   0.00002   0.00026  -0.00005   0.00020   1.83437
    A7        2.06681   0.00003   0.00023   0.00021   0.00044   2.06725
    A8        2.04325  -0.00001  -0.00010   0.00017   0.00007   2.04332
    A9        1.95756  -0.00001   0.00021   0.00004   0.00025   1.95781
   A10        1.91877   0.00000  -0.00011   0.00007  -0.00004   1.91872
   A11        1.87144  -0.00001  -0.00001  -0.00007  -0.00009   1.87136
   A12        1.84992   0.00000  -0.00000   0.00005   0.00005   1.84997
   A13        1.96889   0.00000  -0.00010   0.00005  -0.00006   1.96883
   A14        1.94846  -0.00000   0.00019  -0.00007   0.00012   1.94859
   A15        1.90101   0.00000   0.00003  -0.00002   0.00001   1.90102
   A16        1.89750  -0.00000   0.00008  -0.00003   0.00005   1.89754
   A17        1.92681  -0.00000   0.00004  -0.00003   0.00001   1.92681
   A18        1.95599   0.00001  -0.00019   0.00011  -0.00008   1.95591
   A19        1.89537   0.00000  -0.00003   0.00000  -0.00002   1.89535
   A20        1.88482  -0.00000   0.00001  -0.00000   0.00001   1.88483
   A21        1.90199  -0.00000   0.00009  -0.00005   0.00004   1.90203
   A22        1.95715  -0.00001  -0.00028   0.00014  -0.00014   1.95701
   A23        1.86794   0.00000  -0.00001   0.00001   0.00000   1.86795
   A24        1.83750   0.00001  -0.00008   0.00009   0.00001   1.83752
   A25        1.95853   0.00000   0.00007  -0.00008  -0.00001   1.95852
   A26        1.92782   0.00000   0.00004  -0.00002   0.00002   1.92784
   A27        1.90996  -0.00000   0.00025  -0.00013   0.00011   1.91008
   A28        1.87375   0.00000   0.00006   0.00001   0.00007   1.87382
   A29        1.93596  -0.00000  -0.00002   0.00001  -0.00002   1.93594
   A30        1.95667  -0.00000   0.00001  -0.00004  -0.00003   1.95664
   A31        1.89662   0.00000   0.00000   0.00001   0.00001   1.89664
   A32        1.89396  -0.00000  -0.00006   0.00001  -0.00005   1.89391
   A33        1.90534   0.00000   0.00002   0.00000   0.00002   1.90536
    D1       -2.53427   0.00001   0.00280   0.00053   0.00333  -2.53095
    D2        1.31758  -0.00000   0.00222  -0.00008   0.00214   1.31973
    D3        1.64882   0.00002   0.00280   0.00056   0.00337   1.65219
    D4       -0.78252   0.00001   0.00223  -0.00004   0.00219  -0.78033
    D5       -0.45112   0.00001   0.00278   0.00055   0.00333  -0.44778
    D6       -2.88245   0.00000   0.00221  -0.00006   0.00215  -2.88030
    D7        2.25386   0.00000  -0.00192  -0.00009  -0.00200   2.25185
    D8       -1.88309   0.00000  -0.00212  -0.00004  -0.00216  -1.88525
    D9        0.14553   0.00000  -0.00209  -0.00007  -0.00216   0.14337
   D10       -1.56532   0.00001  -0.00149   0.00054  -0.00095  -1.56627
   D11        0.58092   0.00001  -0.00169   0.00059  -0.00110   0.57982
   D12        2.60954   0.00001  -0.00166   0.00055  -0.00110   2.60843
   D13       -1.03460   0.00001   0.00169   0.00029   0.00198  -1.03262
   D14        1.12031   0.00001   0.00160   0.00028   0.00188   1.12219
   D15       -3.13162   0.00001   0.00184   0.00018   0.00202  -3.12960
   D16        2.77470  -0.00001   0.00113  -0.00035   0.00079   2.77549
   D17       -1.35358  -0.00001   0.00104  -0.00035   0.00069  -1.35289
   D18        0.67768  -0.00001   0.00128  -0.00045   0.00083   0.67851
   D19       -3.13829  -0.00000   0.00033  -0.00009   0.00024  -3.13804
   D20       -1.06085  -0.00000   0.00037  -0.00012   0.00025  -1.06060
   D21        1.06280  -0.00000   0.00039  -0.00013   0.00026   1.06306
   D22        1.05709   0.00000   0.00049  -0.00007   0.00042   1.05751
   D23        3.13452   0.00000   0.00053  -0.00010   0.00043   3.13495
   D24       -1.02501   0.00000   0.00055  -0.00011   0.00043  -1.02458
   D25       -1.09040   0.00000   0.00038  -0.00003   0.00035  -1.09005
   D26        0.98704  -0.00000   0.00042  -0.00006   0.00036   0.98739
   D27        3.11069  -0.00000   0.00043  -0.00007   0.00036   3.11105
   D28       -3.01933  -0.00000  -0.00069   0.00003  -0.00066  -3.01999
   D29       -0.94954  -0.00000  -0.00067   0.00005  -0.00061  -0.95016
   D30        1.18543  -0.00000  -0.00066   0.00003  -0.00062   1.18481
   D31        1.16068   0.00000  -0.00053  -0.00003  -0.00056   1.16013
   D32       -3.05272   0.00000  -0.00051  -0.00000  -0.00051  -3.05323
   D33       -0.91774   0.00000  -0.00050  -0.00002  -0.00052  -0.91826
   D34       -0.97569  -0.00000  -0.00093   0.00022  -0.00071  -0.97640
   D35        1.09410   0.00000  -0.00091   0.00024  -0.00067   1.09343
   D36       -3.05411  -0.00000  -0.00090   0.00022  -0.00068  -3.05479
         Item               Value     Threshold  Converged?
 Maximum Force            0.000040     0.000450     YES
 RMS     Force            0.000008     0.000300     YES
 Maximum Displacement     0.007261     0.001800     NO 
 RMS     Displacement     0.001788     0.001200     NO 
 Predicted change in Energy=-6.352419D-08
 GradGradGradGradGradGradGradGradGradGradGradGradGradGradGradGradGradGrad

                          Input orientation:                          
 ---------------------------------------------------------------------
 Center     Atomic      Atomic             Coordinates (Angstroms)
 Number     Number       Type             X           Y           Z
 ---------------------------------------------------------------------
      1          5           0       -1.789977    0.677171   -0.213291
      2          9           0       -1.569626    1.655178   -1.159011
      3          9           0       -2.119656    1.175275    1.036087
      4          9           0       -2.640143   -0.317030   -0.655835
      5          8           0       -0.350655   -0.052576   -0.017356
      6          6           0       -0.329033   -1.492635    0.246848
      7          6           0        0.619591   -2.178049   -0.710082
      8          6           0        0.661477    0.667176    0.759103
      9          6           0        0.995764    2.009201    0.152468
     10          1           0       -0.043121   -1.625764    1.297144
     11          1           0       -1.354118   -1.837942    0.113126
     12          1           0        0.617641   -3.254814   -0.497308
     13          1           0        0.293878   -2.025768   -1.745644
     14          1           0        1.648917   -1.813089   -0.602377
     15          1           0        0.276350    0.758817    1.781973
     16          1           0        1.541924    0.017013    0.758272
     17          1           0        1.842188    2.422001    0.716599
     18          1           0        1.292805    1.901258   -0.896856
     19          1           0        0.159332    2.710557    0.218555
 ---------------------------------------------------------------------
                    Distance matrix (angstroms):
                    1          2          3          4          5
     1  B    0.000000
     2  F    1.378201   0.000000
     3  F    1.384825   2.313287   0.000000
     4  F    1.380964   2.299738   2.315271   0.000000
     5  O    1.625598   2.388659   2.397233   2.391516   0.000000
     6  C    2.655964   3.663911   3.308622   2.745563   1.464255
     7  C    3.768966   4.437098   4.668765   3.753958   2.436982
     8  C    2.637286   3.103728   2.840702   3.724433   1.464698
     9  C    3.109411   2.902850   3.343958   4.391415   2.468321
    10  H    3.261354   4.373499   3.496565   3.503061   2.073019
    11  H    2.573386   3.723797   3.243052   2.135026   2.052193
    12  H    4.619286   5.415719   5.428608   4.389632   3.379687
    13  H    3.741182   4.167272   4.879534   3.565943   2.701091
    14  H    4.263657   4.764214   5.081046   4.542806   2.727626
    15  H    2.873578   3.586151   2.543743   3.950479   2.071009
    16  H    3.532889   4.005159   3.850444   4.427298   2.046532
    17  H    4.135426   3.968174   4.165646   5.429287   3.386854
    18  H    3.386620   2.884925   3.988510   4.521832   2.700360
    19  H    2.849728   2.449654   2.866920   4.215198   2.819688
                    6          7          8          9         10
     6  C    0.000000
     7  C    1.511752   0.000000
     8  C    2.430699   3.202431   0.000000
     9  C    3.745244   4.291685   1.510227   0.000000
    10  H    1.096627   2.184757   2.458357   3.950005   0.000000
    11  H    1.089917   2.165380   3.279562   4.508216   1.779222
    12  H    2.134300   1.097588   4.118555   5.317428   2.512065
    13  H    2.154594   1.096206   3.696057   4.514029   3.087415
    14  H    2.176272   1.097410   2.996727   3.950481   2.550738
    15  H    2.791439   3.866954   1.096807   2.176305   2.454251
    16  H    2.457859   2.797331   1.094486   2.152696   2.345521
    17  H    4.501027   4.968966   2.115490   1.097762   4.502869
    18  H    3.931530   4.138701   2.159568   1.095886   4.363281
    19  H    4.231563   4.997266   2.172498   1.093566   4.473032
                   11         12         13         14         15
    11  H    0.000000
    12  H    2.503596   0.000000
    13  H    2.491224   1.781494   0.000000
    14  H    3.087197   1.775709   1.785616   0.000000
    15  H    3.490936   4.628265   4.494253   3.766134   0.000000
    16  H    3.499162   3.624312   3.464127   2.282999   1.788830
    17  H    5.359820   5.932901   5.314373   4.439937   2.520526
    18  H    4.691256   5.215416   4.140028   3.742981   3.084554
    19  H    4.794840   6.025625   5.129226   4.832821   2.503449
                   16         17         18         19
    16  H    0.000000
    17  H    2.424018   0.000000
    18  H    2.520295   1.782199   0.000000
    19  H    3.075391   1.778572   1.784340   0.000000
 Stoichiometry    C4H10BF3O
 Framework group  C1[X(C4H10BF3O)]
 Deg. of freedom    51
 Full point group                 C1      NOp   1
 Largest Abelian subgroup         C1      NOp   1
 Largest concise Abelian subgroup C1      NOp   1
                         Standard orientation:                         
 ---------------------------------------------------------------------
 Center     Atomic      Atomic             Coordinates (Angstroms)
 Number     Number       Type             X           Y           Z
 ---------------------------------------------------------------------
      1          5           0       -0.969443   -0.708770   -0.047762
      2          9           0       -1.628379   -0.215159   -1.153018
      3          9           0       -1.621009   -0.455712    1.147716
      4          9           0       -0.578004   -2.024525   -0.198185
      5          8           0        0.415506    0.138701    0.031469
      6          6           0        1.623218   -0.541293    0.503785
      7          6           0        2.755130   -0.319639   -0.473476
      8          6           0        0.327503    1.515160    0.524376
      9          6           0       -0.589694    2.365116   -0.322447
     10          1           0        1.844009   -0.152688    1.505198
     11          1           0        1.361978   -1.596408    0.583814
     12          1           0        3.647657   -0.839816   -0.102652
     13          1           0        2.496017   -0.727951   -1.457249
     14          1           0        3.003334    0.743757   -0.582532
     15          1           0       -0.003388    1.461758    1.568715
     16          1           0        1.350860    1.901363    0.485814
     17          1           0       -0.500967    3.399198    0.035160
     18          1           0       -0.291806    2.331683   -1.376539
     19          1           0       -1.634942    2.055848   -0.234711
 ---------------------------------------------------------------------
 Rotational constants (GHZ):           1.7532520           1.4130955           1.0035312
 Standard basis: Aug-CC-pVDZ (5D, 7F)
 There are   315 symmetry adapted cartesian basis functions of A   symmetry.
 There are   297 symmetry adapted basis functions of A   symmetry.
   297 basis functions,   497 primitive gaussians,   315 cartesian basis functions
    37 alpha electrons       37 beta electrons
       nuclear repulsion energy       523.7881960106 Hartrees.
 NAtoms=   19 NActive=   19 NUniq=   19 SFac= 1.00D+00 NAtFMM=   60 NAOKFM=F Big=F
 Integral buffers will be    131072 words long.
 Raffenetti 2 integral format.
 Two-electron integral symmetry is turned on.
 Nuclear repulsion after empirical dispersion term =      523.7761478965 Hartrees.
 Force PCM accuracy= 1.00D-12.
 ------------------------------------------------------------------------------
 Polarizable Continuum Model (PCM)
 =================================
 Model                : C-PCM.
 Atomic radii         : UFF (Universal Force Field).
 Polarization charges : Total charges.
 Charge compensation  : None.
 Solution method      : On-the-fly selection.
 Cavity type          : Scaled VdW (van der Waals Surface) (Alpha=1.100).
 Cavity algorithm     : GePol (No added spheres)
                        Default sphere list used, NSphG=   19.
                        Lebedev-Laikov grids with approx.  5.0 points / Ang**2.
                        Smoothing algorithm: York/Karplus (Gamma=1.0000).
                        Polarization charges: spherical gaussians, with
                                              point-specific exponents (IZeta= 3).
                        Self-potential: point-specific (ISelfS= 7).
                        Self-field    : sphere-specific E.n sum rule (ISelfD= 2).
 1st derivatives      : Analytical E(r).r(x)/FMM algorithm (CHGder, D1EAlg=3).
                        Cavity 1st derivative terms included.
 Solvent              : Benzene, Eps=   2.270600 Eps(inf)=   2.253301
 ------------------------------------------------------------------------------
 Spheres list:
 ISph  on   Nord     Re0    Alpha      Xe            Ye            Ze
    1   B      1    2.0415  1.100     -0.969443     -0.708770     -0.047762
    2   F      2    1.6820  1.100     -1.628379     -0.215159     -1.153018
    3   F      3    1.6820  1.100     -1.621009     -0.455712      1.147716
    4   F      4    1.6820  1.100     -0.578004     -2.024525     -0.198185
    5   O      5    1.7500  1.100      0.415506      0.138701      0.031469
    6   C      6    1.9255  1.100      1.623218     -0.541293      0.503785
    7   C      7    1.9255  1.100      2.755130     -0.319639     -0.473476
    8   C      8    1.9255  1.100      0.327503      1.515160      0.524376
    9   C      9    1.9255  1.100     -0.589694      2.365116     -0.322447
   10   H     10    1.4430  1.100      1.844009     -0.152688      1.505198
   11   H     11    1.4430  1.100      1.361978     -1.596408      0.583814
   12   H     12    1.4430  1.100      3.647657     -0.839816     -0.102652
   13   H     13    1.4430  1.100      2.496017     -0.727951     -1.457249
   14   H     14    1.4430  1.100      3.003334      0.743757     -0.582532
   15   H     15    1.4430  1.100     -0.003388      1.461758      1.568715
   16   H     16    1.4430  1.100      1.350860      1.901363      0.485814
   17   H     17    1.4430  1.100     -0.500967      3.399198      0.035160
   18   H     18    1.4430  1.100     -0.291806      2.331683     -1.376539
   19   H     19    1.4430  1.100     -1.634942      2.055848     -0.234711
 ------------------------------------------------------------------------------
 One-electron integrals computed using PRISM.
 NBasis=   297 RedAO= T EigKep=  2.69D-05  NBF=   297
 NBsUse=   297 1.00D-06 EigRej= -1.00D+00 NBFU=   297
 Initial guess from the checkpoint file:  "/inspire/hdd/project/materialscienceresearch/lipenghui-253107030018/g16/00-B-DFT-Shift/04-output/BF3OEt2_C6D6/BF3OEt2_C6D6.chk"
 B after Tr=    -0.000000   -0.000000    0.000000
         Rot=    1.000000    0.000489    0.000180   -0.000785 Ang=   0.11 deg.
 Requested convergence on RMS density matrix=1.00D-08 within 128 cycles.
 Requested convergence on MAX density matrix=1.00D-06.
 Requested convergence on             energy=1.00D-06.
 No special actions if energy rises.
 Inv3:  Mode=1 IEnd=     7059468.
 Iteration    1 A*A^-1 deviation from unit magnitude is 4.88D-15 for   1522.
 Iteration    1 A*A^-1 deviation from orthogonality  is 2.02D-15 for   1530    807.
 Iteration    1 A^-1*A deviation from unit magnitude is 4.88D-15 for   1522.
 Iteration    1 A^-1*A deviation from orthogonality  is 1.67D-15 for    358    219.
 Error on total polarization charges =  0.00641
 SCF Done:  E(RwB97XD) =  -558.145968637     A.U. after    8 cycles
            NFock=  8  Conv=0.28D-08     -V/T= 2.0060
 D1PCM: C-PCM CHGder 1st derivatives, ID1Alg=3 FixD1E=F DoIter=F DoCFld=F I1PDM=0.
 Calling FoFJK, ICntrl=      2127 FMM=F ISym2X=0 I1Cent= 0 IOpClX= 0 NMat=1 NMatS=1 NMatT=0.
 ***** Axes restored to original set *****
 -------------------------------------------------------------------
 Center     Atomic                   Forces (Hartrees/Bohr)
 Number     Number              X              Y              Z
 -------------------------------------------------------------------
      1        5          -0.000003204    0.000002645   -0.000012532
      2        9          -0.000003525   -0.000004686    0.000002980
      3        9           0.000005485    0.000004031   -0.000007799
      4        9           0.000006146    0.000007457    0.000009691
      5        8          -0.000022108   -0.000017532    0.000077828
      6        6           0.000035497    0.000026279   -0.000031738
      7        6           0.000003689    0.000005962    0.000009944
      8        6          -0.000024320   -0.000026576   -0.000048639
      9        6           0.000000590    0.000004696   -0.000002971
     10        1          -0.000003809    0.000002810    0.000005943
     11        1           0.000007201    0.000000884   -0.000007146
     12        1          -0.000001329    0.000001192    0.000002544
     13        1          -0.000000232    0.000002053    0.000000621
     14        1           0.000001164    0.000002309   -0.000007106
     15        1           0.000004982    0.000002475    0.000003550
     16        1           0.000000628   -0.000006484    0.000006660
     17        1          -0.000003115   -0.000003156   -0.000000339
     18        1          -0.000003634    0.000001231   -0.000000284
     19        1          -0.000000107   -0.000005588   -0.000001207
 -------------------------------------------------------------------
 Cartesian Forces:  Max     0.000077828 RMS     0.000016003

 GradGradGradGradGradGradGradGradGradGradGradGradGradGradGradGradGradGrad
 Berny optimization.
 Using GEDIIS/GDIIS optimizer.
 FormGI is forming the generalized inverse of G from B-inverse, IUseBI=4.
 Internal  Forces:  Max     0.000052954 RMS     0.000010721
 Search for a local minimum.
 Step number  25 out of a maximum of   97
 All quantities printed in internal units (Hartrees-Bohrs-Radians)
 Mixed Optimization -- En-DIIS/RFO-DIIS
 Swapping is turned off.
 Update second derivatives using D2CorX and points   10   11   12   13   14
                                                     15   16   17   18   19
                                                     20   21   22   23   24
                                                     25
 DE= -2.90D-07 DEPred=-6.35D-08 R= 4.56D+00
 Trust test= 4.56D+00 RLast= 9.08D-03 DXMaxT set to 2.22D-01
 ITU=  0  0  0  1  1  1 -1 -1  1 -1  1 -1  0  1  1  1  1  1  1  1
 ITU=  1  1  1  1  0
     Eigenvalues ---    0.00054   0.00192   0.00288   0.00326   0.00371
     Eigenvalues ---    0.01737   0.04528   0.04856   0.05217   0.05350
     Eigenvalues ---    0.05401   0.05499   0.05746   0.05866   0.06315
     Eigenvalues ---    0.09685   0.10252   0.12805   0.13039   0.13201
     Eigenvalues ---    0.13479   0.15970   0.16021   0.16068   0.16186
     Eigenvalues ---    0.16439   0.16661   0.20751   0.21986   0.23692
     Eigenvalues ---    0.25342   0.25517   0.28165   0.28524   0.28671
     Eigenvalues ---    0.29305   0.31389   0.31884   0.32014   0.32106
     Eigenvalues ---    0.32117   0.32174   0.32183   0.32220   0.32457
     Eigenvalues ---    0.33228   0.36285   0.38054   0.41763   0.45163
     Eigenvalues ---    0.49493
 En-DIIS/RFO-DIIS/Sim-DIIS IScMMF=       -3 using points:    25   24   23   22   21   20   19   18   17   16
 RFO step:  Lambda=-3.00915815D-07.
 DIIS inversion failure, remove point  10.
 DIIS inversion failure, remove point   9.
 DIIS inversion failure, remove point   8.
 DIIS inversion failure, remove point   7.
 DIIS inversion failure, remove point   6.
 DIIS inversion failure, remove point   5.
 DIIS inversion failure, remove point   4.
 RFO-DIIS uses    3 points instead of   10
 DidBck=F Rises=F RFO-DIIS coefs:    1.60512    0.21462   -0.81974    0.00000    0.00000
                  RFO-DIIS coefs:    0.00000    0.00000    0.00000    0.00000    0.00000
 Iteration  1 RMS(Cart)=  0.00290421 RMS(Int)=  0.00000537
 Iteration  2 RMS(Cart)=  0.00000600 RMS(Int)=  0.00000022
 Iteration  3 RMS(Cart)=  0.00000000 RMS(Int)=  0.00000022
 Variable       Old X    -DE/DX   Delta X   Delta X   Delta X     New X
                                 (Linear)    (Quad)   (Total)
    R1        2.60442  -0.00000   0.00009  -0.00000   0.00009   2.60451
    R2        2.61694  -0.00001   0.00005  -0.00003   0.00001   2.61695
    R3        2.60964  -0.00001   0.00005  -0.00002   0.00004   2.60968
    R4        3.07194   0.00000  -0.00007   0.00004  -0.00003   3.07190
    R5        2.76704  -0.00004   0.00026  -0.00020   0.00006   2.76711
    R6        2.76788  -0.00005   0.00024  -0.00026  -0.00002   2.76786
    R7        2.85680  -0.00001  -0.00001   0.00002   0.00002   2.85681
    R8        2.07232   0.00000  -0.00002   0.00001  -0.00001   2.07231
    R9        2.05964  -0.00001  -0.00002   0.00000  -0.00002   2.05963
   R10        2.07414  -0.00000   0.00002  -0.00002   0.00000   2.07414
   R11        2.07153  -0.00000   0.00000   0.00000   0.00000   2.07153
   R12        2.07380   0.00000  -0.00000  -0.00000  -0.00000   2.07380
   R13        2.85392  -0.00000   0.00000   0.00001   0.00002   2.85393
   R14        2.07266   0.00000  -0.00005   0.00002  -0.00003   2.07263
   R15        2.06828   0.00000   0.00000   0.00000   0.00001   2.06828
   R16        2.07447  -0.00000  -0.00000  -0.00000  -0.00001   2.07446
   R17        2.07092  -0.00000  -0.00001  -0.00001  -0.00002   2.07091
   R18        2.06654  -0.00000   0.00005  -0.00001   0.00004   2.06658
    A1        1.98439  -0.00000   0.00004  -0.00004   0.00001   1.98439
    A2        1.97079   0.00000  -0.00010   0.00003  -0.00007   1.97072
    A3        1.83351   0.00000  -0.00020   0.00004  -0.00017   1.83335
    A4        1.98396   0.00000  -0.00016   0.00007  -0.00010   1.98386
    A5        1.83746   0.00000   0.00005  -0.00005  -0.00001   1.83745
    A6        1.83437   0.00000   0.00043  -0.00005   0.00037   1.83474
    A7        2.06725   0.00004   0.00041   0.00032   0.00073   2.06798
    A8        2.04332  -0.00000  -0.00017   0.00022   0.00005   2.04337
    A9        1.95781  -0.00003   0.00043   0.00002   0.00045   1.95826
   A10        1.91872  -0.00001  -0.00013   0.00007  -0.00005   1.91867
   A11        1.87136  -0.00000  -0.00007  -0.00004  -0.00011   1.87124
   A12        1.84997   0.00000   0.00002   0.00002   0.00004   1.85001
   A13        1.96883   0.00000  -0.00017   0.00006  -0.00011   1.96872
   A14        1.94859  -0.00000   0.00030  -0.00010   0.00021   1.94880
   A15        1.90102   0.00000   0.00004  -0.00001   0.00002   1.90104
   A16        1.89754  -0.00001   0.00010  -0.00004   0.00007   1.89761
   A17        1.92681  -0.00000   0.00006  -0.00004   0.00002   1.92684
   A18        1.95591   0.00001  -0.00025   0.00012  -0.00013   1.95578
   A19        1.89535   0.00000  -0.00005   0.00001  -0.00004   1.89530
   A20        1.88483   0.00000  -0.00001   0.00001   0.00000   1.88483
   A21        1.90203  -0.00000   0.00015  -0.00006   0.00009   1.90212
   A22        1.95701  -0.00000  -0.00041   0.00012  -0.00029   1.95672
   A23        1.86795   0.00000  -0.00003   0.00004   0.00001   1.86796
   A24        1.83752  -0.00000  -0.00007   0.00010   0.00003   1.83754
   A25        1.95852  -0.00000   0.00010  -0.00009   0.00001   1.95853
   A26        1.92784   0.00001   0.00005  -0.00001   0.00004   1.92789
   A27        1.91008  -0.00000   0.00037  -0.00016   0.00021   1.91028
   A28        1.87382  -0.00001   0.00014  -0.00002   0.00013   1.87394
   A29        1.93594   0.00000  -0.00006   0.00002  -0.00004   1.93590
   A30        1.95664  -0.00000  -0.00002  -0.00004  -0.00005   1.95658
   A31        1.89664   0.00000  -0.00000   0.00002   0.00002   1.89666
   A32        1.89391   0.00000  -0.00010   0.00002  -0.00008   1.89383
   A33        1.90536   0.00000   0.00003  -0.00001   0.00003   1.90538
    D1       -2.53095   0.00000   0.00512   0.00055   0.00567  -2.52527
    D2        1.31973   0.00000   0.00401  -0.00026   0.00375   1.32348
    D3        1.65219   0.00001   0.00515   0.00060   0.00575   1.65793
    D4       -0.78033   0.00001   0.00403  -0.00021   0.00383  -0.77650
    D5       -0.44778   0.00001   0.00511   0.00058   0.00569  -0.44210
    D6       -2.88030   0.00000   0.00400  -0.00023   0.00377  -2.87653
    D7        2.25185  -0.00000  -0.00309   0.00009  -0.00300   2.24885
    D8       -1.88525   0.00000  -0.00342   0.00018  -0.00324  -1.88848
    D9        0.14337   0.00000  -0.00340   0.00016  -0.00324   0.14013
   D10       -1.56627   0.00001  -0.00226   0.00093  -0.00133  -1.56760
   D11        0.57982   0.00001  -0.00259   0.00102  -0.00157   0.57825
   D12        2.60843   0.00001  -0.00257   0.00099  -0.00157   2.60686
   D13       -1.03262   0.00001   0.00266   0.00039   0.00305  -1.02957
   D14        1.12219   0.00001   0.00250   0.00039   0.00288   1.12507
   D15       -3.12960   0.00001   0.00287   0.00027   0.00314  -3.12646
   D16        2.77549  -0.00002   0.00160  -0.00048   0.00112   2.77661
   D17       -1.35289  -0.00002   0.00144  -0.00048   0.00096  -1.35193
   D18        0.67851  -0.00002   0.00181  -0.00060   0.00121   0.67973
   D19       -3.13804   0.00000   0.00075  -0.00016   0.00059  -3.13746
   D20       -1.06060  -0.00000   0.00079  -0.00020   0.00059  -1.06001
   D21        1.06306  -0.00000   0.00085  -0.00023   0.00062   1.06368
   D22        1.05751   0.00000   0.00104  -0.00020   0.00084   1.05835
   D23        3.13495   0.00000   0.00108  -0.00023   0.00084   3.13579
   D24       -1.02458  -0.00000   0.00114  -0.00026   0.00088  -1.02370
   D25       -1.09005  -0.00000   0.00089  -0.00015   0.00074  -1.08931
   D26        0.98739  -0.00000   0.00092  -0.00018   0.00074   0.98813
   D27        3.11105  -0.00000   0.00098  -0.00021   0.00077   3.11182
   D28       -3.01999   0.00000  -0.00124   0.00004  -0.00120  -3.02119
   D29       -0.95016   0.00000  -0.00119   0.00007  -0.00112  -0.95128
   D30        1.18481   0.00000  -0.00120   0.00005  -0.00116   1.18365
   D31        1.16013  -0.00000  -0.00098  -0.00004  -0.00102   1.15911
   D32       -3.05323  -0.00000  -0.00092  -0.00001  -0.00094  -3.05416
   D33       -0.91826  -0.00000  -0.00094  -0.00003  -0.00097  -0.91923
   D34       -0.97640  -0.00000  -0.00156   0.00023  -0.00132  -0.97773
   D35        1.09343   0.00000  -0.00150   0.00026  -0.00124   1.09218
   D36       -3.05479   0.00000  -0.00152   0.00024  -0.00128  -3.05607
         Item               Value     Threshold  Converged?
 Maximum Force            0.000053     0.000450     YES
 RMS     Force            0.000011     0.000300     YES
 Maximum Displacement     0.012288     0.001800     NO 
 RMS     Displacement     0.002905     0.001200     NO 
 Predicted change in Energy=-7.813116D-08
 GradGradGradGradGradGradGradGradGradGradGradGradGradGradGradGradGradGrad

                          Input orientation:                          
 ---------------------------------------------------------------------
 Center     Atomic      Atomic             Coordinates (Angstroms)
 Number     Number       Type             X           Y           Z
 ---------------------------------------------------------------------
      1          5           0       -1.788646    0.677458   -0.214630
      2          9           0       -1.567648    1.650813   -1.165056
      3          9           0       -2.116767    1.181778    1.032670
      4          9           0       -2.640685   -0.317470   -0.651969
      5          8           0       -0.350032   -0.053029   -0.016399
      6          6           0       -0.328489   -1.493218    0.247299
      7          6           0        0.618742   -2.178513   -0.711108
      8          6           0        0.661904    0.666960    0.760075
      9          6           0        0.994373    2.009720    0.154046
     10          1           0       -0.041032   -1.626666    1.297125
     11          1           0       -1.353867   -1.838182    0.115026
     12          1           0        0.616383   -3.255447   -0.499190
     13          1           0        0.292094   -2.025267   -1.746235
     14          1           0        1.648367   -1.814211   -0.604045
     15          1           0        0.277224    0.757560    1.783188
     16          1           0        1.542971    0.017635    0.758130
     17          1           0        1.839954    2.423717    0.718559
     18          1           0        1.291881    1.902577   -0.895219
     19          1           0        0.156813    2.709765    0.220148
 ---------------------------------------------------------------------
                    Distance matrix (angstroms):
                    1          2          3          4          5
     1  B    0.000000
     2  F    1.378249   0.000000
     3  F    1.384832   2.313336   0.000000
     4  F    1.380984   2.299740   2.315220   0.000000
     5  O    1.625581   2.388531   2.397216   2.391854   0.000000
     6  C    2.656552   3.662675   3.312152   2.745417   1.464289
     7  C    3.768099   4.432844   4.670688   3.753777   2.436970
     8  C    2.637300   3.105639   2.839076   3.724253   1.464688
     9  C    3.107416   2.903927   3.337163   4.390799   2.468078
    10  H    3.263210   4.374329   3.502280   3.503021   2.072959
    11  H    2.574130   3.722553   3.247190   2.134654   2.052249
    12  H    4.618753   5.411539   5.431912   4.389025   3.379723
    13  H    3.738986   4.160526   4.879556   3.565835   2.700811
    14  H    4.262994   4.760660   5.082423   4.542961   2.727763
    15  H    2.874980   3.590765   2.544490   3.949667   2.070995
    16  H    3.532888   4.005230   3.850231   4.427601   2.046546
    17  H    4.133642   3.969525   4.158932   5.428496   3.386809
    18  H    3.384341   2.883245   3.981857   4.522483   2.700481
    19  H    2.846773   2.452332   2.857290   4.213162   2.818844
                    6          7          8          9         10
     6  C    0.000000
     7  C    1.511760   0.000000
     8  C    2.431087   3.203586   0.000000
     9  C    3.745561   4.293121   1.510235   0.000000
    10  H    1.096619   2.184682   2.458305   3.949936   0.000000
    11  H    1.089907   2.165528   3.279506   4.508004   1.779222
    12  H    2.134357   1.097589   4.119842   5.318983   2.512343
    13  H    2.154618   1.096207   3.696815   4.515018   3.087377
    14  H    2.176185   1.097409   2.998357   3.952829   2.550233
    15  H    2.791387   3.867644   1.096790   2.176307   2.453992
    16  H    2.458858   2.799272   1.094489   2.152738   2.345912
    17  H    4.501844   4.971501   2.115590   1.097759   4.503159
    18  H    3.932221   4.140327   2.159541   1.095878   4.363322
    19  H    4.230995   4.997587   2.172484   1.093589   4.472544
                   11         12         13         14         15
    11  H    0.000000
    12  H    2.503555   0.000000
    13  H    2.491683   1.781468   0.000000
    14  H    3.087240   1.775711   1.785671   0.000000
    15  H    3.490143   4.629094   4.494572   3.767349   0.000000
    16  H    3.499901   3.626636   3.465543   2.285233   1.788952
    17  H    5.359899   5.935734   5.316440   4.443649   2.520246
    18  H    4.691892   5.217121   4.141469   3.745180   3.084552
    19  H    4.793436   6.025978   5.128888   4.834292   2.503737
                   16         17         18         19
    16  H    0.000000
    17  H    2.424664   0.000000
    18  H    2.519845   1.782203   0.000000
    19  H    3.075455   1.778538   1.784369   0.000000
 Stoichiometry    C4H10BF3O
 Framework group  C1[X(C4H10BF3O)]
 Deg. of freedom    51
 Full point group                 C1      NOp   1
 Largest Abelian subgroup         C1      NOp   1
 Largest concise Abelian subgroup C1      NOp   1
                         Standard orientation:                         
 ---------------------------------------------------------------------
 Center     Atomic      Atomic             Coordinates (Angstroms)
 Number     Number       Type             X           Y           Z
 ---------------------------------------------------------------------
      1          5           0       -0.967343   -0.710678   -0.047658
      2          9           0       -1.623409   -0.222878   -1.157252
      3          9           0       -1.623444   -0.453810    1.144529
      4          9           0       -0.573275   -2.026434   -0.191225
      5          8           0        0.415633    0.139880    0.032620
      6          6           0        1.625292   -0.536774    0.504857
      7          6           0        2.755540   -0.314792   -0.474267
      8          6           0        0.324020    1.516641    0.523995
      9          6           0       -0.597212    2.362329   -0.322736
     10          1           0        1.846552   -0.145461    1.505103
     11          1           0        1.366222   -1.592206    0.587582
     12          1           0        3.649450   -0.832909   -0.103886
     13          1           0        2.495803   -0.725055   -1.457065
     14          1           0        3.001776    0.748867   -0.585189
     15          1           0       -0.005294    1.463477    1.568827
     16          1           0        1.346071    1.906085    0.483349
     17          1           0       -0.512450    3.397047    0.033984
     18          1           0       -0.300002    2.329258   -1.377023
     19          1           0       -1.641159    2.048922   -0.233920
 ---------------------------------------------------------------------
 Rotational constants (GHZ):           1.7534166           1.4132367           1.0037438
 Standard basis: Aug-CC-pVDZ (5D, 7F)
 There are   315 symmetry adapted cartesian basis functions of A   symmetry.
 There are   297 symmetry adapted basis functions of A   symmetry.
   297 basis functions,   497 primitive gaussians,   315 cartesian basis functions
    37 alpha electrons       37 beta electrons
       nuclear repulsion energy       523.7996575214 Hartrees.
 NAtoms=   19 NActive=   19 NUniq=   19 SFac= 1.00D+00 NAtFMM=   60 NAOKFM=F Big=F
 Integral buffers will be    131072 words long.
 Raffenetti 2 integral format.
 Two-electron integral symmetry is turned on.
 Nuclear repulsion after empirical dispersion term =      523.7876073275 Hartrees.
 Force PCM accuracy= 1.00D-12.
 ------------------------------------------------------------------------------
 Polarizable Continuum Model (PCM)
 =================================
 Model                : C-PCM.
 Atomic radii         : UFF (Universal Force Field).
 Polarization charges : Total charges.
 Charge compensation  : None.
 Solution method      : On-the-fly selection.
 Cavity type          : Scaled VdW (van der Waals Surface) (Alpha=1.100).
 Cavity algorithm     : GePol (No added spheres)
                        Default sphere list used, NSphG=   19.
                        Lebedev-Laikov grids with approx.  5.0 points / Ang**2.
                        Smoothing algorithm: York/Karplus (Gamma=1.0000).
                        Polarization charges: spherical gaussians, with
                                              point-specific exponents (IZeta= 3).
                        Self-potential: point-specific (ISelfS= 7).
                        Self-field    : sphere-specific E.n sum rule (ISelfD= 2).
 1st derivatives      : Analytical E(r).r(x)/FMM algorithm (CHGder, D1EAlg=3).
                        Cavity 1st derivative terms included.
 Solvent              : Benzene, Eps=   2.270600 Eps(inf)=   2.253301
 ------------------------------------------------------------------------------
 Spheres list:
 ISph  on   Nord     Re0    Alpha      Xe            Ye            Ze
    1   B      1    2.0415  1.100     -0.967343     -0.710678     -0.047658
    2   F      2    1.6820  1.100     -1.623409     -0.222878     -1.157252
    3   F      3    1.6820  1.100     -1.623444     -0.453810      1.144529
    4   F      4    1.6820  1.100     -0.573275     -2.026434     -0.191225
    5   O      5    1.7500  1.100      0.415633      0.139880      0.032620
    6   C      6    1.9255  1.100      1.625292     -0.536774      0.504857
    7   C      7    1.9255  1.100      2.755540     -0.314792     -0.474267
    8   C      8    1.9255  1.100      0.324020      1.516641      0.523995
    9   C      9    1.9255  1.100     -0.597212      2.362329     -0.322736
   10   H     10    1.4430  1.100      1.846552     -0.145461      1.505103
   11   H     11    1.4430  1.100      1.366222     -1.592206      0.587582
   12   H     12    1.4430  1.100      3.649450     -0.832909     -0.103886
   13   H     13    1.4430  1.100      2.495803     -0.725055     -1.457065
   14   H     14    1.4430  1.100      3.001776      0.748867     -0.585189
   15   H     15    1.4430  1.100     -0.005294      1.463477      1.568827
   16   H     16    1.4430  1.100      1.346071      1.906085      0.483349
   17   H     17    1.4430  1.100     -0.512450      3.397047      0.033984
   18   H     18    1.4430  1.100     -0.300002      2.329258     -1.377023
   19   H     19    1.4430  1.100     -1.641159      2.048922     -0.233920
 ------------------------------------------------------------------------------
 One-electron integrals computed using PRISM.
 NBasis=   297 RedAO= T EigKep=  2.70D-05  NBF=   297
 NBsUse=   297 1.00D-06 EigRej= -1.00D+00 NBFU=   297
 Initial guess from the checkpoint file:  "/inspire/hdd/project/materialscienceresearch/lipenghui-253107030018/g16/00-B-DFT-Shift/04-output/BF3OEt2_C6D6/BF3OEt2_C6D6.chk"
 B after Tr=    -0.000000    0.000000   -0.000000
         Rot=    0.999999    0.000798    0.000315   -0.001175 Ang=   0.17 deg.
 Requested convergence on RMS density matrix=1.00D-08 within 128 cycles.
 Requested convergence on MAX density matrix=1.00D-06.
 Requested convergence on             energy=1.00D-06.
 No special actions if energy rises.
 Inv3:  Mode=1 IEnd=     7022700.
 Iteration    1 A*A^-1 deviation from unit magnitude is 4.44D-15 for   1521.
 Iteration    1 A*A^-1 deviation from orthogonality  is 2.28D-15 for   1506   1143.
 Iteration    1 A^-1*A deviation from unit magnitude is 4.44D-15 for   1521.
 Iteration    1 A^-1*A deviation from orthogonality  is 1.53D-15 for   1201    201.
 Error on total polarization charges =  0.00641
 SCF Done:  E(RwB97XD) =  -558.145968993     A.U. after    8 cycles
            NFock=  8  Conv=0.44D-08     -V/T= 2.0060
 D1PCM: C-PCM CHGder 1st derivatives, ID1Alg=3 FixD1E=F DoIter=F DoCFld=F I1PDM=0.
 Calling FoFJK, ICntrl=      2127 FMM=F ISym2X=0 I1Cent= 0 IOpClX= 0 NMat=1 NMatS=1 NMatT=0.
 ***** Axes restored to original set *****
 -------------------------------------------------------------------
 Center     Atomic                   Forces (Hartrees/Bohr)
 Number     Number              X              Y              Z
 -------------------------------------------------------------------
      1        5          -0.000013098    0.000019887   -0.000024879
      2        9          -0.000004292   -0.000006117    0.000013651
      3        9           0.000007288    0.000002058   -0.000010825
      4        9           0.000028822    0.000007808    0.000013281
      5        8          -0.000055693   -0.000059334    0.000092346
      6        6           0.000070669    0.000065788   -0.000026591
      7        6          -0.000002111    0.000006797    0.000015837
      8        6          -0.000043359   -0.000032477   -0.000091306
      9        6           0.000008659    0.000008688    0.000002931
     10        1          -0.000008573    0.000000237    0.000011068
     11        1           0.000004852    0.000001099   -0.000014338
     12        1          -0.000001975    0.000001217    0.000007952
     13        1           0.000001246    0.000004422    0.000001121
     14        1           0.000002762    0.000008865   -0.000013920
     15        1           0.000011277    0.000004230    0.000011735
     16        1           0.000002043   -0.000016438    0.000013907
     17        1          -0.000002947   -0.000009909    0.000001858
     18        1          -0.000004680    0.000004276   -0.000002162
     19        1          -0.000000892   -0.000011097   -0.000001667
 -------------------------------------------------------------------
 Cartesian Forces:  Max     0.000092346 RMS     0.000026954

 GradGradGradGradGradGradGradGradGradGradGradGradGradGradGradGradGradGrad
 Berny optimization.
 Using GEDIIS/GDIIS optimizer.
 FormGI is forming the generalized inverse of G from B-inverse, IUseBI=4.
 Internal  Forces:  Max     0.000089114 RMS     0.000019739
 Search for a local minimum.
 Step number  26 out of a maximum of   97
 All quantities printed in internal units (Hartrees-Bohrs-Radians)
 Mixed Optimization -- En-DIIS/RFO-DIIS
 Swapping is turned off.
 Update second derivatives using D2CorX and points   10   11   12   13   14
                                                     15   16   17   18   19
                                                     20   21   22   23   24
                                                     25   26
 DE= -3.56D-07 DEPred=-7.81D-08 R= 4.56D+00
 Trust test= 4.56D+00 RLast= 1.50D-02 DXMaxT set to 2.22D-01
 ITU=  0  0  0  0  1  1  1 -1 -1  1 -1  1 -1  0  1  1  1  1  1  1
 ITU=  1  1  1  1  1  0
     Eigenvalues ---    0.00069   0.00163   0.00275   0.00312   0.00352
     Eigenvalues ---    0.01567   0.04523   0.04786   0.05218   0.05340
     Eigenvalues ---    0.05399   0.05468   0.05744   0.05864   0.06291
     Eigenvalues ---    0.09682   0.10248   0.12803   0.13045   0.13196
     Eigenvalues ---    0.13480   0.15973   0.16023   0.16070   0.16188
     Eigenvalues ---    0.16424   0.16665   0.20771   0.22069   0.23739
     Eigenvalues ---    0.25262   0.25511   0.28149   0.28517   0.28675
     Eigenvalues ---    0.29314   0.31374   0.31884   0.32013   0.32108
     Eigenvalues ---    0.32119   0.32177   0.32180   0.32232   0.32445
     Eigenvalues ---    0.33221   0.36460   0.38297   0.41325   0.41886
     Eigenvalues ---    0.48334
 En-DIIS/RFO-DIIS/Sim-DIIS IScMMF=       -3 using points:    26   25   24   23   22   21   20   19   18   17
 RFO step:  Lambda=-2.77828003D-07.
 DIIS inversion failure, remove point  10.
 DIIS inversion failure, remove point   9.
 DIIS inversion failure, remove point   8.
 DIIS inversion failure, remove point   7.
 DIIS inversion failure, remove point   6.
 DIIS inversion failure, remove point   5.
 DIIS inversion failure, remove point   4.
 DIIS inversion failure, remove point   3.
 RFO-DIIS uses    2 points instead of   10
 DidBck=F Rises=F RFO-DIIS coefs:    0.94760    0.05240    0.00000    0.00000    0.00000
                  RFO-DIIS coefs:    0.00000    0.00000    0.00000    0.00000    0.00000
 Iteration  1 RMS(Cart)=  0.00200318 RMS(Int)=  0.00000134
 Iteration  2 RMS(Cart)=  0.00000193 RMS(Int)=  0.00000002
 Iteration  3 RMS(Cart)=  0.00000000 RMS(Int)=  0.00000002
 Variable       Old X    -DE/DX   Delta X   Delta X   Delta X     New X
                                 (Linear)    (Quad)   (Total)
    R1        2.60451  -0.00001  -0.00000   0.00002   0.00001   2.60453
    R2        2.61695  -0.00001  -0.00000  -0.00004  -0.00004   2.61691
    R3        2.60968  -0.00003  -0.00000  -0.00007  -0.00007   2.60961
    R4        3.07190  -0.00000   0.00000   0.00027   0.00027   3.07218
    R5        2.76711  -0.00009  -0.00000  -0.00015  -0.00016   2.76695
    R6        2.76786  -0.00008   0.00000  -0.00015  -0.00015   2.76771
    R7        2.85681  -0.00002  -0.00000   0.00002   0.00002   2.85684
    R8        2.07231   0.00001   0.00000   0.00004   0.00004   2.07235
    R9        2.05963  -0.00000   0.00000  -0.00002  -0.00002   2.05961
   R10        2.07414   0.00000  -0.00000  -0.00000  -0.00000   2.07414
   R11        2.07153  -0.00000  -0.00000   0.00001   0.00001   2.07154
   R12        2.07380   0.00000   0.00000  -0.00001  -0.00001   2.07379
   R13        2.85393  -0.00001  -0.00000   0.00002   0.00002   2.85395
   R14        2.07263   0.00001   0.00000  -0.00001  -0.00001   2.07263
   R15        2.06828   0.00001  -0.00000  -0.00002  -0.00002   2.06827
   R16        2.07446  -0.00000   0.00000  -0.00001  -0.00001   2.07445
   R17        2.07091  -0.00000   0.00000   0.00001   0.00001   2.07092
   R18        2.06658  -0.00001  -0.00000   0.00001   0.00000   2.06659
    A1        1.98439  -0.00001  -0.00000  -0.00004  -0.00004   1.98435
    A2        1.97072   0.00001   0.00000   0.00005   0.00005   1.97077
    A3        1.83335   0.00001   0.00001  -0.00014  -0.00013   1.83322
    A4        1.98386   0.00001   0.00001   0.00002   0.00002   1.98388
    A5        1.83745   0.00000   0.00000  -0.00004  -0.00004   1.83741
    A6        1.83474  -0.00003  -0.00002   0.00014   0.00012   1.83486
    A7        2.06798   0.00007  -0.00004   0.00045   0.00041   2.06839
    A8        2.04337   0.00002  -0.00000  -0.00027  -0.00027   2.04310
    A9        1.95826  -0.00007  -0.00002   0.00020   0.00018   1.95844
   A10        1.91867  -0.00002   0.00000   0.00016   0.00016   1.91883
   A11        1.87124   0.00000   0.00001   0.00004   0.00005   1.87129
   A12        1.85001   0.00001  -0.00000  -0.00015  -0.00016   1.84986
   A13        1.96872   0.00001   0.00001   0.00006   0.00007   1.96879
   A14        1.94880   0.00000  -0.00001  -0.00014  -0.00015   1.94865
   A15        1.90104  -0.00000  -0.00000   0.00002   0.00002   1.90106
   A16        1.89761  -0.00001  -0.00000  -0.00009  -0.00009   1.89752
   A17        1.92684  -0.00000  -0.00000  -0.00003  -0.00003   1.92680
   A18        1.95578   0.00001   0.00001   0.00022   0.00023   1.95600
   A19        1.89530   0.00001   0.00000  -0.00003  -0.00003   1.89528
   A20        1.88483   0.00001  -0.00000  -0.00005  -0.00005   1.88478
   A21        1.90212  -0.00001  -0.00000  -0.00003  -0.00003   1.90208
   A22        1.95672   0.00002   0.00002  -0.00023  -0.00021   1.95651
   A23        1.86796   0.00000  -0.00000   0.00006   0.00006   1.86802
   A24        1.83754  -0.00001  -0.00000   0.00017   0.00017   1.83771
   A25        1.95853  -0.00001  -0.00000   0.00003   0.00003   1.95856
   A26        1.92789   0.00001  -0.00000   0.00007   0.00006   1.92795
   A27        1.91028  -0.00001  -0.00001  -0.00010  -0.00011   1.91018
   A28        1.87394  -0.00001  -0.00001   0.00012   0.00011   1.87405
   A29        1.93590   0.00001   0.00000  -0.00005  -0.00004   1.93586
   A30        1.95658  -0.00001   0.00000  -0.00010  -0.00010   1.95648
   A31        1.89666   0.00000  -0.00000   0.00002   0.00002   1.89668
   A32        1.89383   0.00001   0.00000   0.00003   0.00004   1.89387
   A33        1.90538  -0.00000  -0.00000  -0.00002  -0.00002   1.90537
    D1       -2.52527  -0.00000  -0.00030   0.00182   0.00152  -2.52375
    D2        1.32348   0.00001  -0.00020   0.00120   0.00100   1.32448
    D3        1.65793  -0.00000  -0.00030   0.00195   0.00165   1.65958
    D4       -0.77650   0.00001  -0.00020   0.00133   0.00113  -0.77537
    D5       -0.44210  -0.00000  -0.00030   0.00188   0.00158  -0.44051
    D6       -2.87653   0.00001  -0.00020   0.00126   0.00106  -2.87547
    D7        2.24885  -0.00000   0.00016   0.00221   0.00236   2.25122
    D8       -1.88848  -0.00000   0.00017   0.00240   0.00257  -1.88591
    D9        0.14013   0.00000   0.00017   0.00237   0.00254   0.14267
   D10       -1.56760   0.00002   0.00007   0.00261   0.00268  -1.56492
   D11        0.57825   0.00002   0.00008   0.00281   0.00289   0.58114
   D12        2.60686   0.00002   0.00008   0.00278   0.00286   2.60972
   D13       -1.02957   0.00002  -0.00016  -0.00119  -0.00135  -1.03092
   D14        1.12507   0.00002  -0.00015  -0.00125  -0.00140   1.12367
   D15       -3.12646   0.00001  -0.00016  -0.00125  -0.00141  -3.12787
   D16        2.77661  -0.00002  -0.00006  -0.00188  -0.00194   2.77467
   D17       -1.35193  -0.00002  -0.00005  -0.00194  -0.00199  -1.35392
   D18        0.67973  -0.00003  -0.00006  -0.00195  -0.00201   0.67772
   D19       -3.13746  -0.00000  -0.00003   0.00045   0.00042  -3.13703
   D20       -1.06001  -0.00000  -0.00003   0.00034   0.00031  -1.05970
   D21        1.06368  -0.00001  -0.00003   0.00043   0.00040   1.06408
   D22        1.05835   0.00000  -0.00004   0.00025   0.00020   1.05855
   D23        3.13579   0.00000  -0.00004   0.00014   0.00009   3.13589
   D24       -1.02370  -0.00000  -0.00005   0.00023   0.00018  -1.02351
   D25       -1.08931  -0.00000  -0.00004   0.00028   0.00024  -1.08907
   D26        0.98813  -0.00000  -0.00004   0.00017   0.00013   0.98826
   D27        3.11182  -0.00001  -0.00004   0.00026   0.00022   3.11205
   D28       -3.02119   0.00000   0.00006  -0.00036  -0.00030  -3.02149
   D29       -0.95128   0.00000   0.00006  -0.00029  -0.00023  -0.95151
   D30        1.18365   0.00000   0.00006  -0.00042  -0.00036   1.18329
   D31        1.15911  -0.00001   0.00005  -0.00030  -0.00025   1.15886
   D32       -3.05416  -0.00001   0.00005  -0.00023  -0.00018  -3.05434
   D33       -0.91923  -0.00001   0.00005  -0.00036  -0.00031  -0.91954
   D34       -0.97773   0.00000   0.00007  -0.00025  -0.00018  -0.97791
   D35        1.09218   0.00000   0.00007  -0.00018  -0.00011   1.09207
   D36       -3.05607   0.00000   0.00007  -0.00031  -0.00024  -3.05631
         Item               Value     Threshold  Converged?
 Maximum Force            0.000089     0.000450     YES
 RMS     Force            0.000020     0.000300     YES
 Maximum Displacement     0.006723     0.001800     NO 
 RMS     Displacement     0.002003     0.001200     NO 
 Predicted change in Energy=-1.389183D-07
 GradGradGradGradGradGradGradGradGradGradGradGradGradGradGradGradGradGrad

                          Input orientation:                          
 ---------------------------------------------------------------------
 Center     Atomic      Atomic             Coordinates (Angstroms)
 Number     Number       Type             X           Y           Z
 ---------------------------------------------------------------------
      1          5           0       -1.789611    0.677989   -0.213115
      2          9           0       -1.569076    1.650731   -1.164285
      3          9           0       -2.116026    1.183189    1.034254
      4          9           0       -2.642670   -0.316677   -0.648941
      5          8           0       -0.350961   -0.053069   -0.016078
      6          6           0       -0.329049   -1.493390    0.246402
      7          6           0        0.620303   -2.177523   -0.710756
      8          6           0        0.661385    0.666579    0.760030
      9          6           0        0.994783    2.008644    0.152951
     10          1           0       -0.043656   -1.627622    1.296711
     11          1           0       -1.353983   -1.838718    0.111730
     12          1           0        0.617676   -3.254653   -0.499848
     13          1           0        0.295652   -2.023385   -1.746381
     14          1           0        1.649691   -1.813248   -0.601410
     15          1           0        0.276674    0.758213    1.783036
     16          1           0        1.542001    0.016657    0.758776
     17          1           0        1.840412    2.422754    0.717298
     18          1           0        1.292486    1.900398   -0.896151
     19          1           0        0.157508    2.709112    0.218192
 ---------------------------------------------------------------------
                    Distance matrix (angstroms):
                    1          2          3          4          5
     1  B    0.000000
     2  F    1.378256   0.000000
     3  F    1.384811   2.313293   0.000000
     4  F    1.380947   2.299756   2.315188   0.000000
     5  O    1.625726   2.388539   2.397287   2.392058   0.000000
     6  C    2.656931   3.662404   3.313317   2.745749   1.464207
     7  C    3.769519   4.433350   4.671931   3.756802   2.437054
     8  C    2.637143   3.105882   2.838326   3.724080   1.464609
     9  C    3.107651   2.904580   3.336945   4.391038   2.467844
    10  H    3.262480   4.373901   3.502037   3.501288   2.072938
    11  H    2.574705   3.721657   3.250182   2.134466   2.052055
    12  H    4.619840   5.411669   5.433327   4.391332   3.379709
    13  H    3.741209   4.161150   4.881622   3.570849   2.700778
    14  H    4.264485   4.761979   5.082781   4.546026   2.728269
    15  H    2.874124   3.590277   2.542891   3.948731   2.070969
    16  H    3.532926   4.005891   3.849396   4.427669   2.046598
    17  H    4.133636   3.970011   4.158171   5.428547   3.386688
    18  H    3.385283   2.884920   3.982311   4.523493   2.700273
    19  H    2.846534   2.452041   2.857158   4.212875   2.818344
                    6          7          8          9         10
     6  C    0.000000
     7  C    1.511773   0.000000
     8  C    2.431098   3.202158   0.000000
     9  C    3.745064   4.290713   1.510244   0.000000
    10  H    1.096639   2.184755   2.459363   3.950819   0.000000
    11  H    1.089898   2.165427   3.280017   4.507836   1.779241
    12  H    2.134298   1.097588   4.118891   5.317015   2.512412
    13  H    2.154607   1.096210   3.694829   4.511485   3.087421
    14  H    2.176352   1.097403   2.996633   3.950294   2.550440
    15  H    2.792465   3.867250   1.096786   2.176335   2.455877
    16  H    2.458373   2.797048   1.094479   2.152785   2.346771
    17  H    4.501610   4.968959   2.115675   1.097754   4.504551
    18  H    3.930980   4.137105   2.159522   1.095883   4.363582
    19  H    4.230668   4.995630   2.172423   1.093591   4.473358
                   11         12         13         14         15
    11  H    0.000000
    12  H    2.503266   0.000000
    13  H    2.491581   1.781451   0.000000
    14  H    3.087276   1.775674   1.785648   0.000000
    15  H    3.492328   4.629356   4.493821   3.766055   0.000000
    16  H    3.499687   3.624911   3.462798   2.282599   1.788873
    17  H    5.360132   5.933758   5.312641   4.440617   2.520272
    18  H    4.690480   5.214114   4.136743   3.742411   3.084559
    19  H    4.793609   6.024436   5.125930   4.832194   2.503786
                   16         17         18         19
    16  H    0.000000
    17  H    2.424886   0.000000
    18  H    2.519826   1.782217   0.000000
    19  H    3.075445   1.778560   1.784364   0.000000
 Stoichiometry    C4H10BF3O
 Framework group  C1[X(C4H10BF3O)]
 Deg. of freedom    51
 Full point group                 C1      NOp   1
 Largest Abelian subgroup         C1      NOp   1
 Largest concise Abelian subgroup C1      NOp   1
                         Standard orientation:                         
 ---------------------------------------------------------------------
 Center     Atomic      Atomic             Coordinates (Angstroms)
 Number     Number       Type             X           Y           Z
 ---------------------------------------------------------------------
      1          5           0       -0.969873   -0.708140   -0.047802
      2          9           0       -1.623739   -0.218496   -1.157890
      3          9           0       -1.625714   -0.448611    1.143928
      4          9           0       -0.580138   -2.025224   -0.190673
      5          8           0        0.415911    0.138078    0.032825
      6          6           0        1.623849   -0.542271    0.503899
      7          6           0        2.755330   -0.319909   -0.473734
      8          6           0        0.328297    1.514751    0.524939
      9          6           0       -0.589064    2.363822   -0.322625
     10          1           0        1.845161   -0.154409    1.505498
     11          1           0        1.362530   -1.597398    0.583246
     12          1           0        3.647703   -0.841293   -0.104237
     13          1           0        2.495355   -0.726633   -1.457942
     14          1           0        3.004299    0.743445   -0.581366
     15          1           0       -0.002585    1.462098    1.569297
     16          1           0        1.351645    1.900920    0.485987
     17          1           0       -0.501746    3.398072    0.034822
     18          1           0       -0.290370    2.330447   -1.376488
     19          1           0       -1.634065    2.053445   -0.235564
 ---------------------------------------------------------------------
 Rotational constants (GHZ):           1.7540329           1.4126536           1.0036087
 Standard basis: Aug-CC-pVDZ (5D, 7F)
 There are   315 symmetry adapted cartesian basis functions of A   symmetry.
 There are   297 symmetry adapted basis functions of A   symmetry.
   297 basis functions,   497 primitive gaussians,   315 cartesian basis functions
    37 alpha electrons       37 beta electrons
       nuclear repulsion energy       523.7923142876 Hartrees.
 NAtoms=   19 NActive=   19 NUniq=   19 SFac= 1.00D+00 NAtFMM=   60 NAOKFM=F Big=F
 Integral buffers will be    131072 words long.
 Raffenetti 2 integral format.
 Two-electron integral symmetry is turned on.
 Nuclear repulsion after empirical dispersion term =      523.7802651277 Hartrees.
 Force PCM accuracy= 1.00D-12.
 ------------------------------------------------------------------------------
 Polarizable Continuum Model (PCM)
 =================================
 Model                : C-PCM.
 Atomic radii         : UFF (Universal Force Field).
 Polarization charges : Total charges.
 Charge compensation  : None.
 Solution method      : On-the-fly selection.
 Cavity type          : Scaled VdW (van der Waals Surface) (Alpha=1.100).
 Cavity algorithm     : GePol (No added spheres)
                        Default sphere list used, NSphG=   19.
                        Lebedev-Laikov grids with approx.  5.0 points / Ang**2.
                        Smoothing algorithm: York/Karplus (Gamma=1.0000).
                        Polarization charges: spherical gaussians, with
                                              point-specific exponents (IZeta= 3).
                        Self-potential: point-specific (ISelfS= 7).
                        Self-field    : sphere-specific E.n sum rule (ISelfD= 2).
 1st derivatives      : Analytical E(r).r(x)/FMM algorithm (CHGder, D1EAlg=3).
                        Cavity 1st derivative terms included.
 Solvent              : Benzene, Eps=   2.270600 Eps(inf)=   2.253301
 ------------------------------------------------------------------------------
 Spheres list:
 ISph  on   Nord     Re0    Alpha      Xe            Ye            Ze
    1   B      1    2.0415  1.100     -0.969873     -0.708140     -0.047802
    2   F      2    1.6820  1.100     -1.623739     -0.218496     -1.157890
    3   F      3    1.6820  1.100     -1.625714     -0.448611      1.143928
    4   F      4    1.6820  1.100     -0.580138     -2.025224     -0.190673
    5   O      5    1.7500  1.100      0.415911      0.138078      0.032825
    6   C      6    1.9255  1.100      1.623849     -0.542271      0.503899
    7   C      7    1.9255  1.100      2.755330     -0.319909     -0.473734
    8   C      8    1.9255  1.100      0.328297      1.514751      0.524939
    9   C      9    1.9255  1.100     -0.589064      2.363822     -0.322625
   10   H     10    1.4430  1.100      1.845161     -0.154409      1.505498
   11   H     11    1.4430  1.100      1.362530     -1.597398      0.583246
   12   H     12    1.4430  1.100      3.647703     -0.841293     -0.104237
   13   H     13    1.4430  1.100      2.495355     -0.726633     -1.457942
   14   H     14    1.4430  1.100      3.004299      0.743445     -0.581366
   15   H     15    1.4430  1.100     -0.002585      1.462098      1.569297
   16   H     16    1.4430  1.100      1.351645      1.900920      0.485987
   17   H     17    1.4430  1.100     -0.501746      3.398072      0.034822
   18   H     18    1.4430  1.100     -0.290370      2.330447     -1.376488
   19   H     19    1.4430  1.100     -1.634065      2.053445     -0.235564
 ------------------------------------------------------------------------------
 One-electron integrals computed using PRISM.
 NBasis=   297 RedAO= T EigKep=  2.70D-05  NBF=   297
 NBsUse=   297 1.00D-06 EigRej= -1.00D+00 NBFU=   297
 Initial guess from the checkpoint file:  "/inspire/hdd/project/materialscienceresearch/lipenghui-253107030018/g16/00-B-DFT-Shift/04-output/BF3OEt2_C6D6/BF3OEt2_C6D6.chk"
 B after Tr=     0.000000    0.000000    0.000000
         Rot=    0.999999   -0.000146    0.000131    0.001423 Ang=  -0.16 deg.
 Requested convergence on RMS density matrix=1.00D-08 within 128 cycles.
 Requested convergence on MAX density matrix=1.00D-06.
 Requested convergence on             energy=1.00D-06.
 No special actions if energy rises.
 Inv3:  Mode=1 IEnd=     7059468.
 Iteration    1 A*A^-1 deviation from unit magnitude is 3.66D-15 for   1510.
 Iteration    1 A*A^-1 deviation from orthogonality  is 1.33D-15 for   1454   1152.
 Iteration    1 A^-1*A deviation from unit magnitude is 3.66D-15 for   1510.
 Iteration    1 A^-1*A deviation from orthogonality  is 1.49D-15 for   1494    920.
 Error on total polarization charges =  0.00641
 SCF Done:  E(RwB97XD) =  -558.145968907     A.U. after    8 cycles
            NFock=  8  Conv=0.52D-08     -V/T= 2.0060
 D1PCM: C-PCM CHGder 1st derivatives, ID1Alg=3 FixD1E=F DoIter=F DoCFld=F I1PDM=0.
 Calling FoFJK, ICntrl=      2127 FMM=F ISym2X=0 I1Cent= 0 IOpClX= 0 NMat=1 NMatS=1 NMatT=0.
 ***** Axes restored to original set *****
 -------------------------------------------------------------------
 Center     Atomic                   Forces (Hartrees/Bohr)
 Number     Number              X              Y              Z
 -------------------------------------------------------------------
      1        5          -0.000006400    0.000022665   -0.000027005
      2        9          -0.000003551   -0.000008192    0.000013471
      3        9           0.000006807   -0.000000431   -0.000007154
      4        9           0.000031222   -0.000002470    0.000015202
      5        8          -0.000070044   -0.000055570    0.000063031
      6        6           0.000063740    0.000057264   -0.000016116
      7        6          -0.000005334    0.000003894    0.000006770
      8        6          -0.000023958   -0.000014820   -0.000068700
      9        6           0.000007970    0.000008402    0.000008023
     10        1          -0.000006002   -0.000000737    0.000007405
     11        1          -0.000001223   -0.000000433   -0.000010418
     12        1          -0.000000718    0.000000239    0.000007665
     13        1           0.000001173    0.000003150    0.000001420
     14        1           0.000001406    0.000008310   -0.000011131
     15        1           0.000006284    0.000003162    0.000009871
     16        1           0.000001692   -0.000011333    0.000009053
     17        1          -0.000001475   -0.000008898    0.000003159
     18        1          -0.000004680    0.000004562   -0.000001251
     19        1           0.000003093   -0.000008762   -0.000003294
 -------------------------------------------------------------------
 Cartesian Forces:  Max     0.000070044 RMS     0.000022667

 GradGradGradGradGradGradGradGradGradGradGradGradGradGradGradGradGradGrad
 Berny optimization.
 Using GEDIIS/GDIIS optimizer.
 FormGI is forming the generalized inverse of G from B-inverse, IUseBI=4.
 Internal  Forces:  Max     0.000071863 RMS     0.000016671
 Search for a local minimum.
 Step number  27 out of a maximum of   97
 All quantities printed in internal units (Hartrees-Bohrs-Radians)
 Mixed Optimization -- En-DIIS/RFO-DIIS
 Swapping is turned off.
 Update second derivatives using D2CorX and points   10   11   12   13   14
                                                     15   16   17   18   19
                                                     20   21   22   23   24
                                                     25   26   27
 DE=  8.59D-08 DEPred=-1.39D-07 R=-6.19D-01
 Trust test=-6.19D-01 RLast= 8.53D-03 DXMaxT set to 1.11D-01
 ITU= -1  0  0  0  0  1  1  1 -1 -1  1 -1  1 -1  0  1  1  1  1  1
 ITU=  1  1  1  1  1  1  0
     Eigenvalues ---    0.00059   0.00131   0.00264   0.00297   0.00357
     Eigenvalues ---    0.01199   0.04520   0.04781   0.05231   0.05314
     Eigenvalues ---    0.05394   0.05472   0.05742   0.05865   0.06343
     Eigenvalues ---    0.09687   0.10239   0.12839   0.13034   0.13209
     Eigenvalues ---    0.13475   0.15987   0.16029   0.16074   0.16208
     Eigenvalues ---    0.16396   0.16666   0.20632   0.22152   0.23713
     Eigenvalues ---    0.25190   0.25533   0.28428   0.28498   0.28682
     Eigenvalues ---    0.29312   0.31344   0.31837   0.31995   0.32109
     Eigenvalues ---    0.32111   0.32176   0.32181   0.32239   0.32428
     Eigenvalues ---    0.33140   0.36094   0.37262   0.38440   0.42038
     Eigenvalues ---    0.50641
 En-DIIS/RFO-DIIS/Sim-DIIS IScMMF=       -3 using points:    27   26   25   24   23   22   21   20   19   18
 RFO step:  Lambda=-4.08598748D-07.
 DIIS inversion failure, remove point  10.
 DIIS inversion failure, remove point   9.
 DIIS inversion failure, remove point   8.
 DIIS inversion failure, remove point   7.
 DIIS inversion failure, remove point   6.
 DIIS inversion failure, remove point   5.
 DIIS inversion failure, remove point   4.
 RFO-DIIS uses    3 points instead of   10
 DidBck=F Rises=F RFO-DIIS coefs:    2.39509   -0.55069   -0.84440    0.00000    0.00000
                  RFO-DIIS coefs:    0.00000    0.00000    0.00000    0.00000    0.00000
 Iteration  1 RMS(Cart)=  0.00319172 RMS(Int)=  0.00000648
 Iteration  2 RMS(Cart)=  0.00000733 RMS(Int)=  0.00000070
 Iteration  3 RMS(Cart)=  0.00000000 RMS(Int)=  0.00000070
 Variable       Old X    -DE/DX   Delta X   Delta X   Delta X     New X
                                 (Linear)    (Quad)   (Total)
    R1        2.60453  -0.00001   0.00009  -0.00002   0.00007   2.60460
    R2        2.61691  -0.00001  -0.00004   0.00000  -0.00004   2.61688
    R3        2.60961  -0.00002  -0.00007  -0.00001  -0.00008   2.60953
    R4        3.07218  -0.00002   0.00035  -0.00035   0.00000   3.07218
    R5        2.76695  -0.00007  -0.00016  -0.00014  -0.00031   2.76664
    R6        2.76771  -0.00004  -0.00022  -0.00009  -0.00031   2.76740
    R7        2.85684  -0.00001   0.00005  -0.00004   0.00001   2.85685
    R8        2.07235   0.00000   0.00004  -0.00000   0.00004   2.07238
    R9        2.05961   0.00000  -0.00004   0.00002  -0.00002   2.05959
   R10        2.07414   0.00000  -0.00000   0.00000   0.00000   2.07414
   R11        2.07154  -0.00000   0.00001  -0.00000   0.00001   2.07154
   R12        2.07379   0.00000  -0.00002   0.00001  -0.00001   2.07378
   R13        2.85395  -0.00001   0.00004  -0.00003   0.00000   2.85395
   R14        2.07263   0.00001  -0.00004   0.00003  -0.00001   2.07262
   R15        2.06827   0.00001  -0.00002   0.00002  -0.00000   2.06826
   R16        2.07445  -0.00000  -0.00002  -0.00000  -0.00002   2.07443
   R17        2.07092  -0.00000   0.00000   0.00000   0.00000   2.07092
   R18        2.06659  -0.00001   0.00004  -0.00003   0.00001   2.06660
    A1        1.98435  -0.00000  -0.00005  -0.00008  -0.00013   1.98422
    A2        1.97077   0.00002   0.00002   0.00011   0.00013   1.97090
    A3        1.83322   0.00001  -0.00032   0.00007  -0.00025   1.83297
    A4        1.98388   0.00002  -0.00005   0.00007   0.00002   1.98390
    A5        1.83741   0.00000  -0.00006   0.00004  -0.00002   1.83739
    A6        1.83486  -0.00005   0.00049  -0.00023   0.00025   1.83512
    A7        2.06839   0.00005   0.00119   0.00044   0.00163   2.07002
    A8        2.04310   0.00003  -0.00034   0.00030  -0.00004   2.04305
    A9        1.95844  -0.00006   0.00063  -0.00004   0.00059   1.95903
   A10        1.91883  -0.00001   0.00018  -0.00006   0.00013   1.91896
   A11        1.87129   0.00000  -0.00003   0.00001  -0.00002   1.87127
   A12        1.84986   0.00000  -0.00018   0.00005  -0.00013   1.84973
   A13        1.96879   0.00001   0.00000   0.00007   0.00008   1.96887
   A14        1.94865  -0.00000  -0.00003  -0.00005  -0.00008   1.94857
   A15        1.90106  -0.00000   0.00004  -0.00003   0.00001   1.90107
   A16        1.89752  -0.00001  -0.00007   0.00003  -0.00005   1.89747
   A17        1.92680  -0.00000  -0.00003  -0.00002  -0.00005   1.92676
   A18        1.95600   0.00001   0.00021  -0.00005   0.00016   1.95616
   A19        1.89528   0.00001  -0.00008   0.00007  -0.00001   1.89527
   A20        1.88478   0.00000  -0.00006   0.00006  -0.00000   1.88478
   A21        1.90208  -0.00001   0.00003  -0.00008  -0.00006   1.90203
   A22        1.95651   0.00004  -0.00054   0.00017  -0.00037   1.95614
   A23        1.86802  -0.00001   0.00009  -0.00000   0.00009   1.86811
   A24        1.83771  -0.00002   0.00026  -0.00000   0.00025   1.83796
   A25        1.95856  -0.00001   0.00005  -0.00004   0.00001   1.95858
   A26        1.92795  -0.00000   0.00013  -0.00001   0.00012   1.92807
   A27        1.91018  -0.00000   0.00003  -0.00012  -0.00009   1.91009
   A28        1.87405  -0.00002   0.00026  -0.00009   0.00017   1.87422
   A29        1.93586   0.00001  -0.00009   0.00004  -0.00006   1.93581
   A30        1.95648  -0.00000  -0.00019   0.00000  -0.00019   1.95630
   A31        1.89668   0.00000   0.00005   0.00004   0.00008   1.89676
   A32        1.89387   0.00001  -0.00001   0.00006   0.00004   1.89391
   A33        1.90537  -0.00000  -0.00000  -0.00003  -0.00004   1.90533
    D1       -2.52375  -0.00000   0.00691   0.00034   0.00726  -2.51650
    D2        1.32448   0.00001   0.00457  -0.00065   0.00392   1.32840
    D3        1.65958  -0.00001   0.00715   0.00038   0.00753   1.66711
    D4       -0.77537   0.00001   0.00480  -0.00061   0.00420  -0.77118
    D5       -0.44051  -0.00000   0.00701   0.00040   0.00741  -0.43311
    D6       -2.87547   0.00001   0.00466  -0.00059   0.00407  -2.87140
    D7        2.25122  -0.00001   0.00077  -0.00114  -0.00037   2.25084
    D8       -1.88591  -0.00000   0.00086  -0.00107  -0.00021  -1.88612
    D9        0.14267  -0.00000   0.00081  -0.00108  -0.00028   0.14239
   D10       -1.56492   0.00001   0.00262  -0.00008   0.00254  -1.56237
   D11        0.58114   0.00001   0.00271  -0.00001   0.00270   0.58384
   D12        2.60972   0.00002   0.00266  -0.00002   0.00264   2.61236
   D13       -1.03092   0.00001   0.00069  -0.00041   0.00029  -1.03063
   D14        1.12367   0.00002   0.00048  -0.00035   0.00013   1.12380
   D15       -3.12787   0.00000   0.00068  -0.00049   0.00019  -3.12768
   D16        2.77467  -0.00002  -0.00176  -0.00151  -0.00327   2.77140
   D17       -1.35392  -0.00001  -0.00197  -0.00146  -0.00343  -1.35735
   D18        0.67772  -0.00003  -0.00178  -0.00160  -0.00337   0.67434
   D19       -3.13703  -0.00000   0.00108  -0.00099   0.00009  -3.13694
   D20       -1.05970  -0.00000   0.00093  -0.00091   0.00002  -1.05968
   D21        1.06408  -0.00000   0.00109  -0.00106   0.00003   1.06411
   D22        1.05855  -0.00000   0.00099  -0.00102  -0.00003   1.05853
   D23        3.13589   0.00000   0.00084  -0.00093  -0.00009   3.13579
   D24       -1.02351  -0.00000   0.00100  -0.00109  -0.00009  -1.02361
   D25       -1.08907  -0.00000   0.00096  -0.00099  -0.00003  -1.08910
   D26        0.98826  -0.00000   0.00081  -0.00091  -0.00010   0.98816
   D27        3.11205  -0.00001   0.00096  -0.00106  -0.00010   3.11195
   D28       -3.02149   0.00000  -0.00144  -0.00006  -0.00149  -3.02299
   D29       -0.95151   0.00000  -0.00127  -0.00005  -0.00132  -0.95284
   D30        1.18329   0.00000  -0.00148  -0.00007  -0.00154   1.18175
   D31        1.15886  -0.00001  -0.00121  -0.00014  -0.00135   1.15751
   D32       -3.05434  -0.00001  -0.00105  -0.00014  -0.00118  -3.05553
   D33       -0.91954  -0.00001  -0.00125  -0.00015  -0.00140  -0.92094
   D34       -0.97791   0.00000  -0.00137   0.00004  -0.00133  -0.97924
   D35        1.09207   0.00000  -0.00121   0.00005  -0.00116   1.09091
   D36       -3.05631   0.00000  -0.00141   0.00003  -0.00138  -3.05769
         Item               Value     Threshold  Converged?
 Maximum Force            0.000072     0.000450     YES
 RMS     Force            0.000017     0.000300     YES
 Maximum Displacement     0.013765     0.001800     NO 
 RMS     Displacement     0.003192     0.001200     NO 
 Predicted change in Energy=-1.999394D-07
 GradGradGradGradGradGradGradGradGradGradGradGradGradGradGradGradGradGrad

                          Input orientation:                          
 ---------------------------------------------------------------------
 Center     Atomic      Atomic             Coordinates (Angstroms)
 Number     Number       Type             X           Y           Z
 ---------------------------------------------------------------------
      1          5           0       -1.790106    0.678794   -0.212148
      2          9           0       -1.569340    1.646781   -1.168157
      3          9           0       -2.113533    1.190473    1.033334
      4          9           0       -2.645639   -0.316353   -0.641851
      5          8           0       -0.352226   -0.053510   -0.014103
      6          6           0       -0.329247   -1.494113    0.245818
      7          6           0        0.621640   -2.175847   -0.711537
      8          6           0        0.660587    0.665930    0.761274
      9          6           0        0.994738    2.007067    0.152556
     10          1           0       -0.044917   -1.629922    1.296233
     11          1           0       -1.353739   -1.840031    0.109395
     12          1           0        0.619602   -3.253337   -0.502458
     13          1           0        0.297868   -2.020198   -1.747214
     14          1           0        1.650664   -1.811024   -0.600658
     15          1           0        0.275946    0.759012    1.784172
     16          1           0        1.540765    0.015419    0.760871
     17          1           0        1.839698    2.422156    0.717165
     18          1           0        1.293507    1.897184   -0.896073
     19          1           0        0.157271    2.707499    0.215793
 ---------------------------------------------------------------------
                    Distance matrix (angstroms):
                    1          2          3          4          5
     1  B    0.000000
     2  F    1.378293   0.000000
     3  F    1.384791   2.313207   0.000000
     4  F    1.380905   2.299851   2.315148   0.000000
     5  O    1.625728   2.388346   2.397253   2.392258   0.000000
     6  C    2.658076   3.660925   3.318262   2.746042   1.464044
     7  C    3.770263   4.429603   4.675239   3.760012   2.437036
     8  C    2.636970   3.107627   2.836353   3.723542   1.464443
     9  C    3.106875   2.906644   3.332257   4.391094   2.467400
    10  H    3.263597   4.374227   3.507551   3.499341   2.072799
    11  H    2.576487   3.719742   3.258053   2.134238   2.051814
    12  H    4.620891   5.407937   5.438395   4.393986   3.379621
    13  H    3.741740   4.155539   4.884129   3.576192   2.700770
    14  H    4.264860   4.758875   5.084102   4.549061   2.728456
    15  H    2.874074   3.592974   2.541559   3.946854   2.070890
    16  H    3.532922   4.006900   3.848231   4.427605   2.046644
    17  H    4.132603   3.972050   4.152714   5.428131   3.386474
    18  H    3.385395   2.886628   3.978690   4.525621   2.700280
    19  H    2.844478   2.453900   2.850664   4.211358   2.817021
                    6          7          8          9         10
     6  C    0.000000
     7  C    1.511779   0.000000
     8  C    2.431306   3.200998   0.000000
     9  C    3.744315   4.287497   1.510246   0.000000
    10  H    1.096657   2.184828   2.460661   3.951781   0.000000
    11  H    1.089888   2.165369   3.280594   4.507480   1.779254
    12  H    2.134269   1.097590   4.118174   5.314285   2.512440
    13  H    2.154580   1.096213   3.693150   4.507063   3.087456
    14  H    2.176465   1.097398   2.995064   3.946567   2.550684
    15  H    2.794524   3.868006   1.096783   2.176344   2.459277
    16  H    2.457826   2.795429   1.094477   2.152872   2.346944
    17  H    4.501516   4.966537   2.115793   1.097743   4.506266
    18  H    3.929139   4.132196   2.159485   1.095884   4.363263
    19  H    4.229792   4.992259   2.172299   1.093597   4.474534
                   11         12         13         14         15
    11  H    0.000000
    12  H    2.503173   0.000000
    13  H    2.491438   1.781450   0.000000
    14  H    3.087306   1.775669   1.785610   0.000000
    15  H    3.495108   4.630953   4.493905   3.765946   0.000000
    16  H    3.499324   3.623439   3.461072   2.280730   1.788811
    17  H    5.360379   5.931892   5.308947   4.437590   2.519896
    18  H    4.688886   5.209314   4.130571   3.737062   3.084572
    19  H    4.793173   6.021728   5.120965   4.828444   2.504097
                   16         17         18         19
    16  H    0.000000
    17  H    2.425625   0.000000
    18  H    2.519453   1.782262   0.000000
    19  H    3.075462   1.778582   1.784346   0.000000
 Stoichiometry    C4H10BF3O
 Framework group  C1[X(C4H10BF3O)]
 Deg. of freedom    51
 Full point group                 C1      NOp   1
 Largest Abelian subgroup         C1      NOp   1
 Largest concise Abelian subgroup C1      NOp   1
                         Standard orientation:                         
 ---------------------------------------------------------------------
 Center     Atomic      Atomic             Coordinates (Angstroms)
 Number     Number       Type             X           Y           Z
 ---------------------------------------------------------------------
      1          5           0       -0.972096   -0.705727   -0.048016
      2          9           0       -1.619887   -0.217641   -1.162391
      3          9           0       -1.631689   -0.439458    1.140126
      4          9           0       -0.586582   -2.024681   -0.184535
      5          8           0        0.416200    0.136151    0.034846
      6          6           0        1.623216   -0.546938    0.503808
      7          6           0        2.754586   -0.324527   -0.473951
      8          6           0        0.332002    1.513037    0.526464
      9          6           0       -0.581647    2.364227   -0.322987
     10          1           0        1.845623   -0.161499    1.506120
     11          1           0        1.360197   -1.601786    0.581091
     12          1           0        3.646236   -0.848172   -0.105906
     13          1           0        2.493413   -0.728916   -1.458807
     14          1           0        3.005376    0.738579   -0.579743
     15          1           0       -0.000743    1.461725    1.570294
     16          1           0        1.356489    1.896328    0.489144
     17          1           0       -0.493300    3.398208    0.034946
     18          1           0       -0.280525    2.330503   -1.376149
     19          1           0       -1.627405    2.055676   -0.238488
 ---------------------------------------------------------------------
 Rotational constants (GHZ):           1.7548701           1.4120960           1.0036908
 Standard basis: Aug-CC-pVDZ (5D, 7F)
 There are   315 symmetry adapted cartesian basis functions of A   symmetry.
 There are   297 symmetry adapted basis functions of A   symmetry.
   297 basis functions,   497 primitive gaussians,   315 cartesian basis functions
    37 alpha electrons       37 beta electrons
       nuclear repulsion energy       523.7976926250 Hartrees.
 NAtoms=   19 NActive=   19 NUniq=   19 SFac= 1.00D+00 NAtFMM=   60 NAOKFM=F Big=F
 Integral buffers will be    131072 words long.
 Raffenetti 2 integral format.
 Two-electron integral symmetry is turned on.
 Nuclear repulsion after empirical dispersion term =      523.7856428309 Hartrees.
 Force PCM accuracy= 1.00D-12.
 ------------------------------------------------------------------------------
 Polarizable Continuum Model (PCM)
 =================================
 Model                : C-PCM.
 Atomic radii         : UFF (Universal Force Field).
 Polarization charges : Total charges.
 Charge compensation  : None.
 Solution method      : On-the-fly selection.
 Cavity type          : Scaled VdW (van der Waals Surface) (Alpha=1.100).
 Cavity algorithm     : GePol (No added spheres)
                        Default sphere list used, NSphG=   19.
                        Lebedev-Laikov grids with approx.  5.0 points / Ang**2.
                        Smoothing algorithm: York/Karplus (Gamma=1.0000).
                        Polarization charges: spherical gaussians, with
                                              point-specific exponents (IZeta= 3).
                        Self-potential: point-specific (ISelfS= 7).
                        Self-field    : sphere-specific E.n sum rule (ISelfD= 2).
 1st derivatives      : Analytical E(r).r(x)/FMM algorithm (CHGder, D1EAlg=3).
                        Cavity 1st derivative terms included.
 Solvent              : Benzene, Eps=   2.270600 Eps(inf)=   2.253301
 ------------------------------------------------------------------------------
 Spheres list:
 ISph  on   Nord     Re0    Alpha      Xe            Ye            Ze
    1   B      1    2.0415  1.100     -0.972096     -0.705727     -0.048016
    2   F      2    1.6820  1.100     -1.619887     -0.217641     -1.162391
    3   F      3    1.6820  1.100     -1.631689     -0.439458      1.140126
    4   F      4    1.6820  1.100     -0.586582     -2.024681     -0.184535
    5   O      5    1.7500  1.100      0.416200      0.136151      0.034846
    6   C      6    1.9255  1.100      1.623216     -0.546938      0.503808
    7   C      7    1.9255  1.100      2.754586     -0.324527     -0.473951
    8   C      8    1.9255  1.100      0.332002      1.513037      0.526464
    9   C      9    1.9255  1.100     -0.581647      2.364227     -0.322987
   10   H     10    1.4430  1.100      1.845623     -0.161499      1.506120
   11   H     11    1.4430  1.100      1.360197     -1.601786      0.581091
   12   H     12    1.4430  1.100      3.646236     -0.848172     -0.105906
   13   H     13    1.4430  1.100      2.493413     -0.728916     -1.458807
   14   H     14    1.4430  1.100      3.005376      0.738579     -0.579743
   15   H     15    1.4430  1.100     -0.000743      1.461725      1.570294
   16   H     16    1.4430  1.100      1.356489      1.896328      0.489144
   17   H     17    1.4430  1.100     -0.493300      3.398208      0.034946
   18   H     18    1.4430  1.100     -0.280525      2.330503     -1.376149
   19   H     19    1.4430  1.100     -1.627405      2.055676     -0.238488
 ------------------------------------------------------------------------------
 One-electron integrals computed using PRISM.
 NBasis=   297 RedAO= T EigKep=  2.70D-05  NBF=   297
 NBsUse=   297 1.00D-06 EigRej= -1.00D+00 NBFU=   297
 Initial guess from the checkpoint file:  "/inspire/hdd/project/materialscienceresearch/lipenghui-253107030018/g16/00-B-DFT-Shift/04-output/BF3OEt2_C6D6/BF3OEt2_C6D6.chk"
 B after Tr=     0.000000    0.000000   -0.000000
         Rot=    0.999999    0.000409    0.000506    0.001306 Ang=   0.17 deg.
 Requested convergence on RMS density matrix=1.00D-08 within 128 cycles.
 Requested convergence on MAX density matrix=1.00D-06.
 Requested convergence on             energy=1.00D-06.
 No special actions if energy rises.
 Inv3:  Mode=1 IEnd=     7004352.
 Iteration    1 A*A^-1 deviation from unit magnitude is 3.77D-15 for   1519.
 Iteration    1 A*A^-1 deviation from orthogonality  is 2.36D-15 for   1523    803.
 Iteration    1 A^-1*A deviation from unit magnitude is 3.77D-15 for   1519.
 Iteration    1 A^-1*A deviation from orthogonality  is 1.56D-15 for    358    219.
 Error on total polarization charges =  0.00641
 SCF Done:  E(RwB97XD) =  -558.145968883     A.U. after    8 cycles
            NFock=  8  Conv=0.80D-08     -V/T= 2.0060
 D1PCM: C-PCM CHGder 1st derivatives, ID1Alg=3 FixD1E=F DoIter=F DoCFld=F I1PDM=0.
 Calling FoFJK, ICntrl=      2127 FMM=F ISym2X=0 I1Cent= 0 IOpClX= 0 NMat=1 NMatS=1 NMatT=0.
 ***** Axes restored to original set *****
 -------------------------------------------------------------------
 Center     Atomic                   Forces (Hartrees/Bohr)
 Number     Number              X              Y              Z
 -------------------------------------------------------------------
      1        5          -0.000008956    0.000024613   -0.000021877
      2        9          -0.000005266   -0.000005313    0.000010389
      3        9           0.000002495   -0.000004116   -0.000001774
      4        9           0.000028977   -0.000010198    0.000013645
      5        8          -0.000056011   -0.000067749    0.000017417
      6        6           0.000042388    0.000051868    0.000001418
      7        6          -0.000006240   -0.000003375   -0.000004277
      8        6          -0.000001743    0.000008012   -0.000031904
      9        6           0.000009334    0.000004814    0.000010462
     10        1          -0.000003130   -0.000003765    0.000003442
     11        1          -0.000010241    0.000000895   -0.000005184
     12        1           0.000001557    0.000000367    0.000005843
     13        1           0.000001732    0.000001185    0.000000503
     14        1           0.000001598    0.000005776   -0.000005915
     15        1           0.000003878    0.000001601    0.000006047
     16        1           0.000000546   -0.000002720    0.000003042
     17        1           0.000001316   -0.000005018    0.000003115
     18        1          -0.000003068    0.000005032   -0.000001608
     19        1           0.000000833   -0.000001911   -0.000002783
 -------------------------------------------------------------------
 Cartesian Forces:  Max     0.000067749 RMS     0.000017176

 GradGradGradGradGradGradGradGradGradGradGradGradGradGradGradGradGradGrad
 Berny optimization.
 Using GEDIIS/GDIIS optimizer.
 FormGI is forming the generalized inverse of G from B-inverse, IUseBI=4.
 Internal  Forces:  Max     0.000059293 RMS     0.000012872
 Search for a local minimum.
 Step number  28 out of a maximum of   97
 All quantities printed in internal units (Hartrees-Bohrs-Radians)
 Mixed Optimization -- En-DIIS/RFO-DIIS
 Swapping is turned off.
 Update second derivatives using D2CorX and points   10   11   12   13   14
                                                     15   16   17   18   19
                                                     20   21   22   23   24
                                                     25   26   27   28
 DE=  2.42D-08 DEPred=-2.00D-07 R=-1.21D-01
 Trust test=-1.21D-01 RLast= 1.70D-02 DXMaxT set to 5.54D-02
 ITU= -1 -1  0  0  0  0  1  1  1 -1 -1  1 -1  1 -1  0  1  1  1  1
 ITU=  1  1  1  1  1  1  1  0
     Eigenvalues ---    0.00065   0.00130   0.00247   0.00300   0.00354
     Eigenvalues ---    0.01059   0.04520   0.04771   0.05244   0.05296
     Eigenvalues ---    0.05389   0.05489   0.05749   0.05863   0.06300
     Eigenvalues ---    0.09684   0.10230   0.12792   0.13031   0.13209
     Eigenvalues ---    0.13479   0.15972   0.16036   0.16081   0.16215
     Eigenvalues ---    0.16316   0.16635   0.20170   0.21666   0.23447
     Eigenvalues ---    0.25158   0.25563   0.28345   0.28460   0.28687
     Eigenvalues ---    0.29288   0.31298   0.31582   0.31990   0.32092
     Eigenvalues ---    0.32109   0.32174   0.32182   0.32220   0.32417
     Eigenvalues ---    0.32959   0.34289   0.37324   0.38554   0.42297
     Eigenvalues ---    0.49918
 En-DIIS/RFO-DIIS/Sim-DIIS IScMMF=       -3 using points:    28   27   26   25   24   23   22   21   20   19
 RFO step:  Lambda=-7.57023389D-08.
 DIIS inversion failure, remove point  10.
 DIIS inversion failure, remove point   9.
 DIIS inversion failure, remove point   8.
 DIIS inversion failure, remove point   7.
 DIIS inversion failure, remove point   6.
 DIIS inversion failure, remove point   5.
 RFO-DIIS uses    4 points instead of   10
 DidBck=F Rises=F RFO-DIIS coefs:    1.56841   -1.47670    0.48432    0.42397    0.00000
                  RFO-DIIS coefs:    0.00000    0.00000    0.00000    0.00000    0.00000
 Iteration  1 RMS(Cart)=  0.00056251 RMS(Int)=  0.00000030
 Iteration  2 RMS(Cart)=  0.00000025 RMS(Int)=  0.00000023
 Variable       Old X    -DE/DX   Delta X   Delta X   Delta X     New X
                                 (Linear)    (Quad)   (Total)
    R1        2.60460  -0.00001  -0.00001  -0.00003  -0.00004   2.60456
    R2        2.61688  -0.00000   0.00001  -0.00003  -0.00002   2.61686
    R3        2.60953  -0.00002   0.00000  -0.00003  -0.00003   2.60950
    R4        3.07218  -0.00001  -0.00023   0.00014  -0.00009   3.07209
    R5        2.76664  -0.00005  -0.00006  -0.00012  -0.00018   2.76646
    R6        2.76740   0.00001  -0.00003  -0.00004  -0.00007   2.76732
    R7        2.85685  -0.00000  -0.00002   0.00002  -0.00000   2.85685
    R8        2.07238   0.00000  -0.00001   0.00001  -0.00000   2.07238
    R9        2.05959   0.00001   0.00001   0.00002   0.00003   2.05962
   R10        2.07414   0.00000   0.00000  -0.00000  -0.00000   2.07414
   R11        2.07154  -0.00000  -0.00000   0.00000  -0.00000   2.07154
   R12        2.07378   0.00000   0.00001   0.00000   0.00001   2.07379
   R13        2.85395  -0.00000  -0.00002   0.00001  -0.00001   2.85394
   R14        2.07262   0.00000   0.00002   0.00001   0.00003   2.07265
   R15        2.06826   0.00000   0.00001  -0.00000   0.00001   2.06827
   R16        2.07443   0.00000  -0.00000   0.00000   0.00000   2.07444
   R17        2.07092  -0.00000  -0.00000   0.00000  -0.00000   2.07092
   R18        2.06660  -0.00000  -0.00001   0.00001  -0.00000   2.06660
    A1        1.98422   0.00000  -0.00004   0.00001  -0.00003   1.98419
    A2        1.97090   0.00002   0.00005   0.00005   0.00010   1.97101
    A3        1.83297   0.00002   0.00005   0.00003   0.00008   1.83305
    A4        1.98390   0.00001   0.00003   0.00002   0.00005   1.98395
    A5        1.83739   0.00000   0.00002  -0.00002   0.00001   1.83739
    A6        1.83512  -0.00006  -0.00013  -0.00011  -0.00024   1.83488
    A7        2.07002   0.00001   0.00024   0.00006   0.00030   2.07032
    A8        2.04305   0.00003   0.00020   0.00008   0.00028   2.04334
    A9        1.95903  -0.00003  -0.00002   0.00000  -0.00002   1.95901
   A10        1.91896   0.00000  -0.00005   0.00006   0.00001   1.91897
   A11        1.87127   0.00000  -0.00000   0.00003   0.00003   1.87130
   A12        1.84973  -0.00000   0.00005  -0.00005  -0.00000   1.84973
   A13        1.96887   0.00000   0.00003   0.00001   0.00004   1.96890
   A14        1.94857  -0.00000   0.00000  -0.00003  -0.00003   1.94854
   A15        1.90107  -0.00000  -0.00002  -0.00002  -0.00004   1.90103
   A16        1.89747  -0.00001   0.00003  -0.00003   0.00001   1.89747
   A17        1.92676   0.00000  -0.00001   0.00001   0.00000   1.92676
   A18        1.95616   0.00000  -0.00006   0.00003  -0.00003   1.95613
   A19        1.89527   0.00000   0.00004   0.00001   0.00005   1.89532
   A20        1.88478   0.00000   0.00004  -0.00001   0.00003   1.88481
   A21        1.90203  -0.00000  -0.00004  -0.00001  -0.00005   1.90197
   A22        1.95614   0.00005   0.00010   0.00011   0.00021   1.95635
   A23        1.86811  -0.00001  -0.00001   0.00002   0.00001   1.86812
   A24        1.83796  -0.00002  -0.00002   0.00001  -0.00001   1.83796
   A25        1.95858  -0.00001  -0.00003  -0.00006  -0.00008   1.95849
   A26        1.92807  -0.00001  -0.00001  -0.00003  -0.00004   1.92804
   A27        1.91009   0.00000  -0.00004  -0.00006  -0.00010   1.90999
   A28        1.87422  -0.00001  -0.00006  -0.00005  -0.00011   1.87411
   A29        1.93581   0.00001   0.00002   0.00004   0.00007   1.93587
   A30        1.95630   0.00000   0.00001   0.00001   0.00002   1.95631
   A31        1.89676   0.00000   0.00002   0.00000   0.00002   1.89678
   A32        1.89391   0.00000   0.00002   0.00001   0.00003   1.89394
   A33        1.90533  -0.00000  -0.00002  -0.00001  -0.00002   1.90531
    D1       -2.51650  -0.00000   0.00034   0.00005   0.00039  -2.51610
    D2        1.32840   0.00001  -0.00027  -0.00015  -0.00042   1.32798
    D3        1.66711  -0.00001   0.00035   0.00004   0.00038   1.66750
    D4       -0.77118  -0.00000  -0.00026  -0.00016  -0.00042  -0.77160
    D5       -0.43311   0.00000   0.00036   0.00007   0.00044  -0.43267
    D6       -2.87140   0.00001  -0.00025  -0.00013  -0.00037  -2.87177
    D7        2.25084  -0.00001  -0.00109   0.00000  -0.00108   2.24976
    D8       -1.88612  -0.00000  -0.00109   0.00007  -0.00101  -1.88714
    D9        0.14239  -0.00001  -0.00109   0.00004  -0.00105   0.14135
   D10       -1.56237   0.00000  -0.00043   0.00022  -0.00020  -1.56258
   D11        0.58384   0.00001  -0.00043   0.00029  -0.00013   0.58371
   D12        2.61236   0.00001  -0.00043   0.00026  -0.00017   2.61219
   D13       -1.03063   0.00000   0.00010   0.00037   0.00047  -1.03016
   D14        1.12380   0.00001   0.00012   0.00038   0.00050   1.12431
   D15       -3.12768  -0.00000   0.00006   0.00034   0.00040  -3.12729
   D16        2.77140  -0.00001  -0.00057   0.00017  -0.00041   2.77099
   D17       -1.35735   0.00000  -0.00055   0.00018  -0.00037  -1.35772
   D18        0.67434  -0.00001  -0.00061   0.00013  -0.00048   0.67387
   D19       -3.13694   0.00000  -0.00058  -0.00007  -0.00065  -3.13760
   D20       -1.05968   0.00000  -0.00052  -0.00007  -0.00058  -1.06026
   D21        1.06411   0.00000  -0.00061  -0.00006  -0.00067   1.06343
   D22        1.05853  -0.00000  -0.00056  -0.00017  -0.00072   1.05780
   D23        3.13579  -0.00000  -0.00049  -0.00016  -0.00065   3.13514
   D24       -1.02361  -0.00000  -0.00059  -0.00015  -0.00074  -1.02435
   D25       -1.08910  -0.00000  -0.00055  -0.00012  -0.00067  -1.08977
   D26        0.98816  -0.00000  -0.00049  -0.00011  -0.00060   0.98756
   D27        3.11195  -0.00000  -0.00059  -0.00011  -0.00069   3.11126
   D28       -3.02299   0.00000  -0.00007   0.00001  -0.00006  -3.02304
   D29       -0.95284   0.00000  -0.00006   0.00001  -0.00006  -0.95289
   D30        1.18175   0.00000  -0.00006   0.00003  -0.00003   1.18172
   D31        1.15751  -0.00001  -0.00011  -0.00005  -0.00016   1.15734
   D32       -3.05553  -0.00001  -0.00011  -0.00006  -0.00017  -3.05570
   D33       -0.92094  -0.00001  -0.00011  -0.00003  -0.00014  -0.92108
   D34       -0.97924   0.00001  -0.00003   0.00008   0.00005  -0.97920
   D35        1.09091   0.00000  -0.00003   0.00007   0.00004   1.09095
   D36       -3.05769   0.00001  -0.00003   0.00010   0.00007  -3.05762
         Item               Value     Threshold  Converged?
 Maximum Force            0.000059     0.000450     YES
 RMS     Force            0.000013     0.000300     YES
 Maximum Displacement     0.002204     0.001800     NO 
 RMS     Displacement     0.000563     0.001200     YES
 Predicted change in Energy=-3.629184D-08
 GradGradGradGradGradGradGradGradGradGradGradGradGradGradGradGradGradGrad

                          Input orientation:                          
 ---------------------------------------------------------------------
 Center     Atomic      Atomic             Coordinates (Angstroms)
 Number     Number       Type             X           Y           Z
 ---------------------------------------------------------------------
      1          5           0       -1.790142    0.678706   -0.212481
      2          9           0       -1.569042    1.646486   -1.168594
      3          9           0       -2.114108    1.190668    1.032734
      4          9           0       -2.645270   -0.316737   -0.642255
      5          8           0       -0.352409   -0.053563   -0.013649
      6          6           0       -0.329115   -1.494094    0.246118
      7          6           0        0.621369   -2.175639   -0.711771
      8          6           0        0.660503    0.665933    0.761473
      9          6           0        0.994884    2.006988    0.152716
     10          1           0       -0.044310   -1.629988    1.296392
     11          1           0       -1.353642   -1.840140    0.110145
     12          1           0        0.620078   -3.253061   -0.502337
     13          1           0        0.296726   -2.020448   -1.747244
     14          1           0        1.650277   -1.810189   -0.601825
     15          1           0        0.275998    0.759198    1.784421
     16          1           0        1.540617    0.015326    0.761154
     17          1           0        1.839891    2.421872    0.717409
     18          1           0        1.293688    1.897087   -0.895901
     19          1           0        0.157545    2.707573    0.215909
 ---------------------------------------------------------------------
                    Distance matrix (angstroms):
                    1          2          3          4          5
     1  B    0.000000
     2  F    1.378273   0.000000
     3  F    1.384782   2.313161   0.000000
     4  F    1.380889   2.299901   2.315165   0.000000
     5  O    1.625678   2.388359   2.397209   2.391990   0.000000
     6  C    2.658189   3.660884   3.318570   2.745897   1.463950
     7  C    3.769875   4.428908   4.675270   3.759159   2.436970
     8  C    2.637121   3.107654   2.836792   3.723469   1.464404
     9  C    3.107101   2.906810   3.332663   4.391173   2.467539
    10  H    3.264153   4.374500   3.508515   3.499711   2.072739
    11  H    2.576665   3.719963   3.258109   2.134283   2.051743
    12  H    4.620819   5.407559   5.438653   4.393640   3.379546
    13  H    3.741116   4.154796   4.883817   3.574769   2.700993
    14  H    4.264114   4.757504   5.084045   4.547940   2.728083
    15  H    2.874549   3.593292   2.542401   3.947176   2.070877
    16  H    3.532987   4.006818   3.848662   4.427355   2.046610
    17  H    4.132852   3.972286   4.153240   5.428198   3.386504
    18  H    3.385488   2.886588   3.978911   4.525566   2.700563
    19  H    2.844873   2.454355   2.851071   4.211730   2.817202
                    6          7          8          9         10
     6  C    0.000000
     7  C    1.511779   0.000000
     8  C    2.431183   3.201017   0.000000
     9  C    3.744232   4.287332   1.510240   0.000000
    10  H    1.096657   2.184853   2.460519   3.951647   0.000000
    11  H    1.089904   2.165357   3.280458   4.507525   1.779241
    12  H    2.134272   1.097589   4.117932   5.313915   2.512211
    13  H    2.154581   1.096212   3.693594   4.507495   3.087472
    14  H    2.176446   1.097403   2.994898   3.945847   2.550946
    15  H    2.794613   3.868271   1.096797   2.176290   2.459467
    16  H    2.457541   2.795505   1.094483   2.152845   2.346387
    17  H    4.501277   4.966333   2.115708   1.097745   4.505886
    18  H    3.929098   4.131950   2.159526   1.095884   4.363101
    19  H    4.229865   4.992142   2.172303   1.093595   4.474665
                   11         12         13         14         15
    11  H    0.000000
    12  H    2.503408   0.000000
    13  H    2.491208   1.781483   0.000000
    14  H    3.087285   1.775694   1.785579   0.000000
    15  H    3.495065   4.630969   4.494387   3.766239   0.000000
    16  H    3.499043   3.623003   3.461747   2.280841   1.788766
    17  H    5.360240   5.931323   5.309433   4.436966   2.519675
    18  H    4.689067   5.208903   4.131077   3.735978   3.084577
    19  H    4.793388   6.021543   5.121282   4.827744   2.504082
                   16         17         18         19
    16  H    0.000000
    17  H    2.425478   0.000000
    18  H    2.519490   1.782276   0.000000
    19  H    3.075448   1.778600   1.784330   0.000000
 Stoichiometry    C4H10BF3O
 Framework group  C1[X(C4H10BF3O)]
 Deg. of freedom    51
 Full point group                 C1      NOp   1
 Largest Abelian subgroup         C1      NOp   1
 Largest concise Abelian subgroup C1      NOp   1
                         Standard orientation:                         
 ---------------------------------------------------------------------
 Center     Atomic      Atomic             Coordinates (Angstroms)
 Number     Number       Type             X           Y           Z
 ---------------------------------------------------------------------
      1          5           0       -0.972058   -0.705836   -0.048057
      2          9           0       -1.619571   -0.217795   -1.162587
      3          9           0       -1.632096   -0.439743    1.139867
      4          9           0       -0.586059   -2.024643   -0.184479
      5          8           0        0.416085    0.136143    0.035366
      6          6           0        1.623261   -0.546588    0.504146
      7          6           0        2.754208   -0.324657   -0.474211
      8          6           0        0.331913    1.513162    0.526498
      9          6           0       -0.581610    2.364340   -0.323088
     10          1           0        1.846066   -0.160668    1.506185
     11          1           0        1.360334   -1.601428    0.582077
     12          1           0        3.646226   -0.847502   -0.105921
     13          1           0        2.492878   -0.730122   -1.458582
     14          1           0        3.004426    0.738472   -0.581175
     15          1           0       -0.000842    1.462227    1.570359
     16          1           0        1.356433    1.896379    0.489156
     17          1           0       -0.493063    3.398328    0.034782
     18          1           0       -0.280524    2.330476   -1.376255
     19          1           0       -1.627414    2.055960   -0.238556
 ---------------------------------------------------------------------
 Rotational constants (GHZ):           1.7547336           1.4122125           1.0037403
 Standard basis: Aug-CC-pVDZ (5D, 7F)
 There are   315 symmetry adapted cartesian basis functions of A   symmetry.
 There are   297 symmetry adapted basis functions of A   symmetry.
   297 basis functions,   497 primitive gaussians,   315 cartesian basis functions
    37 alpha electrons       37 beta electrons
       nuclear repulsion energy       523.8002689378 Hartrees.
 NAtoms=   19 NActive=   19 NUniq=   19 SFac= 1.00D+00 NAtFMM=   60 NAOKFM=F Big=F
 Integral buffers will be    131072 words long.
 Raffenetti 2 integral format.
 Two-electron integral symmetry is turned on.
 Nuclear repulsion after empirical dispersion term =      523.7882186664 Hartrees.
 Force PCM accuracy= 1.00D-12.
 ------------------------------------------------------------------------------
 Polarizable Continuum Model (PCM)
 =================================
 Model                : C-PCM.
 Atomic radii         : UFF (Universal Force Field).
 Polarization charges : Total charges.
 Charge compensation  : None.
 Solution method      : On-the-fly selection.
 Cavity type          : Scaled VdW (van der Waals Surface) (Alpha=1.100).
 Cavity algorithm     : GePol (No added spheres)
                        Default sphere list used, NSphG=   19.
                        Lebedev-Laikov grids with approx.  5.0 points / Ang**2.
                        Smoothing algorithm: York/Karplus (Gamma=1.0000).
                        Polarization charges: spherical gaussians, with
                                              point-specific exponents (IZeta= 3).
                        Self-potential: point-specific (ISelfS= 7).
                        Self-field    : sphere-specific E.n sum rule (ISelfD= 2).
 1st derivatives      : Analytical E(r).r(x)/FMM algorithm (CHGder, D1EAlg=3).
                        Cavity 1st derivative terms included.
 Solvent              : Benzene, Eps=   2.270600 Eps(inf)=   2.253301
 ------------------------------------------------------------------------------
 Spheres list:
 ISph  on   Nord     Re0    Alpha      Xe            Ye            Ze
    1   B      1    2.0415  1.100     -0.972058     -0.705836     -0.048057
    2   F      2    1.6820  1.100     -1.619571     -0.217795     -1.162587
    3   F      3    1.6820  1.100     -1.632096     -0.439743      1.139867
    4   F      4    1.6820  1.100     -0.586059     -2.024643     -0.184479
    5   O      5    1.7500  1.100      0.416085      0.136143      0.035366
    6   C      6    1.9255  1.100      1.623261     -0.546588      0.504146
    7   C      7    1.9255  1.100      2.754208     -0.324657     -0.474211
    8   C      8    1.9255  1.100      0.331913      1.513162      0.526498
    9   C      9    1.9255  1.100     -0.581610      2.364340     -0.323088
   10   H     10    1.4430  1.100      1.846066     -0.160668      1.506185
   11   H     11    1.4430  1.100      1.360334     -1.601428      0.582077
   12   H     12    1.4430  1.100      3.646226     -0.847502     -0.105921
   13   H     13    1.4430  1.100      2.492878     -0.730122     -1.458582
   14   H     14    1.4430  1.100      3.004426      0.738472     -0.581175
   15   H     15    1.4430  1.100     -0.000842      1.462227      1.570359
   16   H     16    1.4430  1.100      1.356433      1.896379      0.489156
   17   H     17    1.4430  1.100     -0.493063      3.398328      0.034782
   18   H     18    1.4430  1.100     -0.280524      2.330476     -1.376255
   19   H     19    1.4430  1.100     -1.627414      2.055960     -0.238556
 ------------------------------------------------------------------------------
 One-electron integrals computed using PRISM.
 NBasis=   297 RedAO= T EigKep=  2.70D-05  NBF=   297
 NBsUse=   297 1.00D-06 EigRej= -1.00D+00 NBFU=   297
 Initial guess from the checkpoint file:  "/inspire/hdd/project/materialscienceresearch/lipenghui-253107030018/g16/00-B-DFT-Shift/04-output/BF3OEt2_C6D6/BF3OEt2_C6D6.chk"
 B after Tr=    -0.000000   -0.000000    0.000000
         Rot=    1.000000    0.000026    0.000028   -0.000030 Ang=   0.01 deg.
 Requested convergence on RMS density matrix=1.00D-08 within 128 cycles.
 Requested convergence on MAX density matrix=1.00D-06.
 Requested convergence on             energy=1.00D-06.
 No special actions if energy rises.
 Inv3:  Mode=1 IEnd=     7004352.
 Iteration    1 A*A^-1 deviation from unit magnitude is 6.22D-15 for   1528.
 Iteration    1 A*A^-1 deviation from orthogonality  is 2.31D-15 for   1515   1266.
 Iteration    1 A^-1*A deviation from unit magnitude is 6.00D-15 for   1528.
 Iteration    1 A^-1*A deviation from orthogonality  is 1.61D-15 for   1468    814.
 Error on total polarization charges =  0.00641
 SCF Done:  E(RwB97XD) =  -558.145968942     A.U. after    7 cycles
            NFock=  7  Conv=0.57D-08     -V/T= 2.0060
 D1PCM: C-PCM CHGder 1st derivatives, ID1Alg=3 FixD1E=F DoIter=F DoCFld=F I1PDM=0.
 Calling FoFJK, ICntrl=      2127 FMM=F ISym2X=0 I1Cent= 0 IOpClX= 0 NMat=1 NMatS=1 NMatT=0.
 ***** Axes restored to original set *****
 -------------------------------------------------------------------
 Center     Atomic                   Forces (Hartrees/Bohr)
 Number     Number              X              Y              Z
 -------------------------------------------------------------------
      1        5          -0.000001669    0.000007558   -0.000002751
      2        9          -0.000002331   -0.000002389    0.000003122
      3        9           0.000000948   -0.000001189    0.000002404
      4        9           0.000003891   -0.000004443    0.000003310
      5        8          -0.000013276   -0.000024890   -0.000002115
      6        6           0.000008200    0.000016739   -0.000000183
      7        6          -0.000000925   -0.000001554   -0.000001944
      8        6           0.000007038    0.000009126    0.000000508
      9        6           0.000000733    0.000000658    0.000000776
     10        1           0.000001276   -0.000002313    0.000001083
     11        1          -0.000001015   -0.000001220    0.000000375
     12        1           0.000001948    0.000000106    0.000001079
     13        1           0.000000800   -0.000000051    0.000000274
     14        1           0.000000520    0.000001602   -0.000001463
     15        1          -0.000000231   -0.000000219   -0.000000073
     16        1          -0.000000558    0.000000249   -0.000000943
     17        1          -0.000000330    0.000000518   -0.000000610
     18        1          -0.000001712    0.000001878   -0.000000829
     19        1          -0.000003308   -0.000000166   -0.000002022
 -------------------------------------------------------------------
 Cartesian Forces:  Max     0.000024890 RMS     0.000005091

 GradGradGradGradGradGradGradGradGradGradGradGradGradGradGradGradGradGrad
 Berny optimization.
 Using GEDIIS/GDIIS optimizer.
 FormGI is forming the generalized inverse of G from B-inverse, IUseBI=4.
 Internal  Forces:  Max     0.000012589 RMS     0.000002467
 Search for a local minimum.
 Step number  29 out of a maximum of   97
 All quantities printed in internal units (Hartrees-Bohrs-Radians)
 Mixed Optimization -- En-DIIS/RFO-DIIS
 Swapping is turned off.
 Update second derivatives using D2CorX and points   10   11   12   13   14
                                                     15   16   17   18   19
                                                     20   21   22   23   24
                                                     25   26   27   28   29
 DE= -5.94D-08 DEPred=-3.63D-08 R= 1.64D+00
 Trust test= 1.64D+00 RLast= 3.17D-03 DXMaxT set to 5.54D-02
 ITU=  0 -1 -1  0  0  0  0  1  1  1 -1 -1  1 -1  1 -1  0  1  1  1
 ITU=  1  1  1  1  1  1  1  1  0
     Eigenvalues ---    0.00066   0.00133   0.00239   0.00305   0.00353
     Eigenvalues ---    0.01073   0.04520   0.04664   0.05224   0.05310
     Eigenvalues ---    0.05392   0.05439   0.05748   0.05863   0.06304
     Eigenvalues ---    0.09687   0.10237   0.12818   0.13015   0.13184
     Eigenvalues ---    0.13498   0.15811   0.16012   0.16059   0.16196
     Eigenvalues ---    0.16252   0.16528   0.18964   0.21792   0.23288
     Eigenvalues ---    0.25164   0.25493   0.28152   0.28474   0.28680
     Eigenvalues ---    0.29296   0.31363   0.31609   0.31994   0.32065
     Eigenvalues ---    0.32111   0.32169   0.32180   0.32185   0.32424
     Eigenvalues ---    0.32995   0.34943   0.37497   0.38825   0.42406
     Eigenvalues ---    0.44661
 En-DIIS/RFO-DIIS/Sim-DIIS IScMMF=       -3 using points:    29   28   27   26   25   24   23   22   21   20
 RFO step:  Lambda=-1.75141612D-09.
 DIIS inversion failure, remove point  10.
 DIIS inversion failure, remove point   9.
 DIIS inversion failure, remove point   8.
 DIIS inversion failure, remove point   7.
 DIIS inversion failure, remove point   6.
 DIIS inversion failure, remove point   5.
 RFO-DIIS uses    4 points instead of   10
 DidBck=F Rises=F RFO-DIIS coefs:    1.08963   -0.02450   -0.11517    0.05005    0.00000
                  RFO-DIIS coefs:    0.00000    0.00000    0.00000    0.00000    0.00000
 Iteration  1 RMS(Cart)=  0.00018457 RMS(Int)=  0.00000004
 Iteration  2 RMS(Cart)=  0.00000003 RMS(Int)=  0.00000004
 Variable       Old X    -DE/DX   Delta X   Delta X   Delta X     New X
                                 (Linear)    (Quad)   (Total)
    R1        2.60456  -0.00000   0.00000  -0.00001  -0.00001   2.60455
    R2        2.61686   0.00000  -0.00000   0.00000  -0.00000   2.61686
    R3        2.60950  -0.00000  -0.00000  -0.00000  -0.00001   2.60950
    R4        3.07209  -0.00000  -0.00002   0.00003   0.00001   3.07210
    R5        2.76646  -0.00001  -0.00003  -0.00002  -0.00005   2.76641
    R6        2.76732   0.00001  -0.00002   0.00003   0.00001   2.76733
    R7        2.85685   0.00000  -0.00000   0.00000   0.00000   2.85685
    R8        2.07238   0.00000   0.00000   0.00000   0.00000   2.07238
    R9        2.05962   0.00000   0.00000   0.00000   0.00001   2.05963
   R10        2.07414   0.00000   0.00000   0.00000   0.00000   2.07414
   R11        2.07154  -0.00000  -0.00000  -0.00000  -0.00000   2.07154
   R12        2.07379  -0.00000   0.00000   0.00000   0.00000   2.07379
   R13        2.85394  -0.00000  -0.00000  -0.00000  -0.00000   2.85394
   R14        2.07265   0.00000   0.00000  -0.00000   0.00000   2.07265
   R15        2.06827  -0.00000   0.00000  -0.00000   0.00000   2.06827
   R16        2.07444   0.00000  -0.00000   0.00000   0.00000   2.07444
   R17        2.07092  -0.00000  -0.00000  -0.00000  -0.00000   2.07092
   R18        2.06660   0.00000   0.00000   0.00000   0.00000   2.06660
    A1        1.98419   0.00000  -0.00001   0.00001  -0.00000   1.98419
    A2        1.97101   0.00000   0.00002   0.00001   0.00002   1.97103
    A3        1.83305   0.00000  -0.00000   0.00000  -0.00000   1.83305
    A4        1.98395   0.00000   0.00000   0.00000   0.00001   1.98396
    A5        1.83739  -0.00000   0.00000  -0.00001  -0.00000   1.83739
    A6        1.83488  -0.00001  -0.00001  -0.00002  -0.00003   1.83485
    A7        2.07032   0.00000   0.00011  -0.00000   0.00011   2.07043
    A8        2.04334  -0.00000   0.00004  -0.00004  -0.00001   2.04333
    A9        1.95901  -0.00000   0.00003  -0.00001   0.00002   1.95903
   A10        1.91897   0.00000   0.00000   0.00001   0.00001   1.91898
   A11        1.87130   0.00000  -0.00000   0.00002   0.00002   1.87132
   A12        1.84973  -0.00000  -0.00000   0.00000  -0.00000   1.84973
   A13        1.96890  -0.00000   0.00000  -0.00001  -0.00000   1.96890
   A14        1.94854  -0.00000  -0.00000  -0.00001  -0.00001   1.94853
   A15        1.90103   0.00000  -0.00000  -0.00001  -0.00001   1.90102
   A16        1.89747  -0.00000   0.00000  -0.00000   0.00000   1.89747
   A17        1.92676   0.00000  -0.00000   0.00001   0.00001   1.92676
   A18        1.95613  -0.00000  -0.00000  -0.00001  -0.00001   1.95612
   A19        1.89532   0.00000   0.00001   0.00001   0.00001   1.89533
   A20        1.88481   0.00000   0.00001  -0.00000   0.00000   1.88482
   A21        1.90197  -0.00000  -0.00001  -0.00000  -0.00001   1.90196
   A22        1.95635   0.00001   0.00001   0.00001   0.00002   1.95637
   A23        1.86812  -0.00000   0.00000  -0.00002  -0.00002   1.86810
   A24        1.83796  -0.00000   0.00001  -0.00001   0.00000   1.83796
   A25        1.95849  -0.00000  -0.00001  -0.00000  -0.00001   1.95848
   A26        1.92804  -0.00000   0.00000   0.00001   0.00001   1.92805
   A27        1.90999   0.00000  -0.00001   0.00000  -0.00001   1.90998
   A28        1.87411  -0.00000  -0.00000  -0.00000  -0.00001   1.87410
   A29        1.93587   0.00000   0.00000   0.00001   0.00001   1.93588
   A30        1.95631  -0.00000  -0.00001  -0.00000  -0.00001   1.95630
   A31        1.89678  -0.00000   0.00001  -0.00000   0.00000   1.89679
   A32        1.89394   0.00000   0.00000   0.00001   0.00001   1.89395
   A33        1.90531  -0.00000  -0.00000  -0.00001  -0.00001   1.90530
    D1       -2.51610   0.00000   0.00043  -0.00006   0.00037  -2.51573
    D2        1.32798   0.00000   0.00017   0.00003   0.00020   1.32818
    D3        1.66750  -0.00000   0.00044  -0.00007   0.00038   1.66788
    D4       -0.77160  -0.00000   0.00018   0.00003   0.00020  -0.77140
    D5       -0.43267   0.00000   0.00044  -0.00006   0.00038  -0.43229
    D6       -2.87177   0.00000   0.00018   0.00003   0.00021  -2.87156
    D7        2.24976   0.00000  -0.00024   0.00007  -0.00017   2.24959
    D8       -1.88714   0.00000  -0.00023   0.00007  -0.00016  -1.88730
    D9        0.14135   0.00000  -0.00024   0.00007  -0.00017   0.14118
   D10       -1.56258  -0.00000   0.00001  -0.00003  -0.00002  -1.56260
   D11        0.58371  -0.00000   0.00002  -0.00003  -0.00001   0.58370
   D12        2.61219  -0.00000   0.00001  -0.00003  -0.00001   2.61218
   D13       -1.03016   0.00000   0.00013  -0.00001   0.00011  -1.03005
   D14        1.12431   0.00000   0.00012  -0.00002   0.00010   1.12441
   D15       -3.12729  -0.00000   0.00012  -0.00003   0.00009  -3.12720
   D16        2.77099  -0.00000  -0.00015   0.00007  -0.00009   2.77091
   D17       -1.35772  -0.00000  -0.00016   0.00006  -0.00010  -1.35782
   D18        0.67387  -0.00000  -0.00016   0.00005  -0.00011   0.67375
   D19       -3.13760   0.00000  -0.00007  -0.00006  -0.00013  -3.13773
   D20       -1.06026   0.00000  -0.00007  -0.00005  -0.00011  -1.06038
   D21        1.06343   0.00000  -0.00008  -0.00005  -0.00013   1.06330
   D22        1.05780  -0.00000  -0.00008  -0.00008  -0.00016   1.05765
   D23        3.13514  -0.00000  -0.00007  -0.00007  -0.00014   3.13500
   D24       -1.02435  -0.00000  -0.00008  -0.00007  -0.00016  -1.02451
   D25       -1.08977  -0.00000  -0.00007  -0.00006  -0.00013  -1.08991
   D26        0.98756   0.00000  -0.00007  -0.00005  -0.00011   0.98745
   D27        3.11126  -0.00000  -0.00008  -0.00005  -0.00013   3.11113
   D28       -3.02304  -0.00000  -0.00009  -0.00014  -0.00023  -3.02327
   D29       -0.95289  -0.00000  -0.00008  -0.00014  -0.00022  -0.95311
   D30        1.18172  -0.00000  -0.00009  -0.00015  -0.00023   1.18149
   D31        1.15734  -0.00000  -0.00009  -0.00012  -0.00021   1.15713
   D32       -3.05570  -0.00000  -0.00008  -0.00012  -0.00020  -3.05590
   D33       -0.92108  -0.00000  -0.00009  -0.00013  -0.00021  -0.92129
   D34       -0.97920   0.00000  -0.00007  -0.00013  -0.00021  -0.97940
   D35        1.09095   0.00000  -0.00007  -0.00013  -0.00020   1.09075
   D36       -3.05762  -0.00000  -0.00007  -0.00014  -0.00021  -3.05783
         Item               Value     Threshold  Converged?
 Maximum Force            0.000013     0.000450     YES
 RMS     Force            0.000002     0.000300     YES
 Maximum Displacement     0.000774     0.001800     YES
 RMS     Displacement     0.000185     0.001200     YES
 Predicted change in Energy=-1.836867D-09
 Optimization completed.
    -- Stationary point found.
                           ----------------------------
                           !   Optimized Parameters   !
                           ! (Angstroms and Degrees)  !
 --------------------------                            --------------------------
 ! Name  Definition              Value          Derivative Info.                !
 --------------------------------------------------------------------------------
 ! R1    R(1,2)                  1.3783         -DE/DX =    0.0                 !
 ! R2    R(1,3)                  1.3848         -DE/DX =    0.0                 !
 ! R3    R(1,4)                  1.3809         -DE/DX =    0.0                 !
 ! R4    R(1,5)                  1.6257         -DE/DX =    0.0                 !
 ! R5    R(5,6)                  1.464          -DE/DX =    0.0                 !
 ! R6    R(5,8)                  1.4644         -DE/DX =    0.0                 !
 ! R7    R(6,7)                  1.5118         -DE/DX =    0.0                 !
 ! R8    R(6,10)                 1.0967         -DE/DX =    0.0                 !
 ! R9    R(6,11)                 1.0899         -DE/DX =    0.0                 !
 ! R10   R(7,12)                 1.0976         -DE/DX =    0.0                 !
 ! R11   R(7,13)                 1.0962         -DE/DX =    0.0                 !
 ! R12   R(7,14)                 1.0974         -DE/DX =    0.0                 !
 ! R13   R(8,9)                  1.5102         -DE/DX =    0.0                 !
 ! R14   R(8,15)                 1.0968         -DE/DX =    0.0                 !
 ! R15   R(8,16)                 1.0945         -DE/DX =    0.0                 !
 ! R16   R(9,17)                 1.0977         -DE/DX =    0.0                 !
 ! R17   R(9,18)                 1.0959         -DE/DX =    0.0                 !
 ! R18   R(9,19)                 1.0936         -DE/DX =    0.0                 !
 ! A1    A(2,1,3)              113.6859         -DE/DX =    0.0                 !
 ! A2    A(2,1,4)              112.9303         -DE/DX =    0.0                 !
 ! A3    A(2,1,5)              105.026          -DE/DX =    0.0                 !
 ! A4    A(3,1,4)              113.6719         -DE/DX =    0.0                 !
 ! A5    A(3,1,5)              105.2749         -DE/DX =    0.0                 !
 ! A6    A(4,1,5)              105.1308         -DE/DX =    0.0                 !
 ! A7    A(1,5,6)              118.6206         -DE/DX =    0.0                 !
 ! A8    A(1,5,8)              117.0745         -DE/DX =    0.0                 !
 ! A9    A(6,5,8)              112.243          -DE/DX =    0.0                 !
 ! A10   A(5,6,7)              109.949          -DE/DX =    0.0                 !
 ! A11   A(5,6,10)             107.2178         -DE/DX =    0.0                 !
 ! A12   A(5,6,11)             105.9815         -DE/DX =    0.0                 !
 ! A13   A(7,6,10)             112.8098         -DE/DX =    0.0                 !
 ! A14   A(7,6,11)             111.6429         -DE/DX =    0.0                 !
 ! A15   A(10,6,11)            108.9209         -DE/DX =    0.0                 !
 ! A16   A(6,7,12)             108.7173         -DE/DX =    0.0                 !
 ! A17   A(6,7,13)             110.3951         -DE/DX =    0.0                 !
 ! A18   A(6,7,14)             112.0779         -DE/DX =    0.0                 !
 ! A19   A(12,7,13)            108.594          -DE/DX =    0.0                 !
 ! A20   A(12,7,14)            107.9918         -DE/DX =    0.0                 !
 ! A21   A(13,7,14)            108.9751         -DE/DX =    0.0                 !
 ! A22   A(5,8,9)              112.0906         -DE/DX =    0.0                 !
 ! A23   A(5,8,15)             107.0354         -DE/DX =    0.0                 !
 ! A24   A(5,8,16)             105.3072         -DE/DX =    0.0                 !
 ! A25   A(9,8,15)             112.2134         -DE/DX =    0.0                 !
 ! A26   A(9,8,16)             110.4683         -DE/DX =    0.0                 !
 ! A27   A(15,8,16)            109.4343         -DE/DX =    0.0                 !
 ! A28   A(8,9,17)             107.3786         -DE/DX =    0.0                 !
 ! A29   A(8,9,18)             110.9173         -DE/DX =    0.0                 !
 ! A30   A(8,9,19)             112.0886         -DE/DX =    0.0                 !
 ! A31   A(17,9,18)            108.6776         -DE/DX =    0.0                 !
 ! A32   A(17,9,19)            108.5147         -DE/DX =    0.0                 !
 ! A33   A(18,9,19)            109.166          -DE/DX =    0.0                 !
 ! D1    D(2,1,5,6)           -144.1622         -DE/DX =    0.0                 !
 ! D2    D(2,1,5,8)             76.0877         -DE/DX =    0.0                 !
 ! D3    D(3,1,5,6)             95.5407         -DE/DX =    0.0                 !
 ! D4    D(3,1,5,8)            -44.2095         -DE/DX =    0.0                 !
 ! D5    D(4,1,5,6)            -24.7903         -DE/DX =    0.0                 !
 ! D6    D(4,1,5,8)           -164.5404         -DE/DX =    0.0                 !
 ! D7    D(1,5,6,7)            128.9017         -DE/DX =    0.0                 !
 ! D8    D(1,5,6,10)          -108.125          -DE/DX =    0.0                 !
 ! D9    D(1,5,6,11)             8.0986         -DE/DX =    0.0                 !
 ! D10   D(8,5,6,7)            -89.5292         -DE/DX =    0.0                 !
 ! D11   D(8,5,6,10)            33.4441         -DE/DX =    0.0                 !
 ! D12   D(8,5,6,11)           149.6677         -DE/DX =    0.0                 !
 ! D13   D(1,5,8,9)            -59.024          -DE/DX =    0.0                 !
 ! D14   D(1,5,8,15)            64.418          -DE/DX =    0.0                 !
 ! D15   D(1,5,8,16)          -179.1804         -DE/DX =    0.0                 !
 ! D16   D(6,5,8,9)            158.7661         -DE/DX =    0.0                 !
 ! D17   D(6,5,8,15)           -77.7918         -DE/DX =    0.0                 !
 ! D18   D(6,5,8,16)            38.6097         -DE/DX =    0.0                 !
 ! D19   D(5,6,7,12)          -179.7711         -DE/DX =    0.0                 !
 ! D20   D(5,6,7,13)           -60.7486         -DE/DX =    0.0                 !
 ! D21   D(5,6,7,14)            60.9303         -DE/DX =    0.0                 !
 ! D22   D(10,6,7,12)           60.6077         -DE/DX =    0.0                 !
 ! D23   D(10,6,7,13)          179.6302         -DE/DX =    0.0                 !
 ! D24   D(10,6,7,14)          -58.6909         -DE/DX =    0.0                 !
 ! D25   D(11,6,7,12)          -62.4395         -DE/DX =    0.0                 !
 ! D26   D(11,6,7,13)           56.583          -DE/DX =    0.0                 !
 ! D27   D(11,6,7,14)          178.2619         -DE/DX =    0.0                 !
 ! D28   D(5,8,9,17)          -173.2075         -DE/DX =    0.0                 !
 ! D29   D(5,8,9,18)           -54.5968         -DE/DX =    0.0                 !
 ! D30   D(5,8,9,19)            67.7077         -DE/DX =    0.0                 !
 ! D31   D(15,8,9,17)           66.3109         -DE/DX =    0.0                 !
 ! D32   D(15,8,9,18)         -175.0785         -DE/DX =    0.0                 !
 ! D33   D(15,8,9,19)          -52.7739         -DE/DX =    0.0                 !
 ! D34   D(16,8,9,17)          -56.1038         -DE/DX =    0.0                 !
 ! D35   D(16,8,9,18)           62.5068         -DE/DX =    0.0                 !
 ! D36   D(16,8,9,19)         -175.1887         -DE/DX =    0.0                 !
 --------------------------------------------------------------------------------
 GradGradGradGradGradGradGradGradGradGradGradGradGradGradGradGradGradGrad

                          Input orientation:                          
 ---------------------------------------------------------------------
 Center     Atomic      Atomic             Coordinates (Angstroms)
 Number     Number       Type             X           Y           Z
 ---------------------------------------------------------------------
      1          5           0       -1.790142    0.678706   -0.212481
      2          9           0       -1.569042    1.646486   -1.168594
      3          9           0       -2.114108    1.190668    1.032734
      4          9           0       -2.645270   -0.316737   -0.642255
      5          8           0       -0.352409   -0.053563   -0.013649
      6          6           0       -0.329115   -1.494094    0.246118
      7          6           0        0.621369   -2.175639   -0.711771
      8          6           0        0.660503    0.665933    0.761473
      9          6           0        0.994884    2.006988    0.152716
     10          1           0       -0.044310   -1.629988    1.296392
     11          1           0       -1.353642   -1.840140    0.110145
     12          1           0        0.620078   -3.253061   -0.502337
     13          1           0        0.296726   -2.020448   -1.747244
     14          1           0        1.650277   -1.810189   -0.601825
     15          1           0        0.275998    0.759198    1.784421
     16          1           0        1.540617    0.015326    0.761154
     17          1           0        1.839891    2.421872    0.717409
     18          1           0        1.293688    1.897087   -0.895901
     19          1           0        0.157545    2.707573    0.215909
 ---------------------------------------------------------------------
                    Distance matrix (angstroms):
                    1          2          3          4          5
     1  B    0.000000
     2  F    1.378273   0.000000
     3  F    1.384782   2.313161   0.000000
     4  F    1.380889   2.299901   2.315165   0.000000
     5  O    1.625678   2.388359   2.397209   2.391990   0.000000
     6  C    2.658189   3.660884   3.318570   2.745897   1.463950
     7  C    3.769875   4.428908   4.675270   3.759159   2.436970
     8  C    2.637121   3.107654   2.836792   3.723469   1.464404
     9  C    3.107101   2.906810   3.332663   4.391173   2.467539
    10  H    3.264153   4.374500   3.508515   3.499711   2.072739
    11  H    2.576665   3.719963   3.258109   2.134283   2.051743
    12  H    4.620819   5.407559   5.438653   4.393640   3.379546
    13  H    3.741116   4.154796   4.883817   3.574769   2.700993
    14  H    4.264114   4.757504   5.084045   4.547940   2.728083
    15  H    2.874549   3.593292   2.542401   3.947176   2.070877
    16  H    3.532987   4.006818   3.848662   4.427355   2.046610
    17  H    4.132852   3.972286   4.153240   5.428198   3.386504
    18  H    3.385488   2.886588   3.978911   4.525566   2.700563
    19  H    2.844873   2.454355   2.851071   4.211730   2.817202
                    6          7          8          9         10
     6  C    0.000000
     7  C    1.511779   0.000000
     8  C    2.431183   3.201017   0.000000
     9  C    3.744232   4.287332   1.510240   0.000000
    10  H    1.096657   2.184853   2.460519   3.951647   0.000000
    11  H    1.089904   2.165357   3.280458   4.507525   1.779241
    12  H    2.134272   1.097589   4.117932   5.313915   2.512211
    13  H    2.154581   1.096212   3.693594   4.507495   3.087472
    14  H    2.176446   1.097403   2.994898   3.945847   2.550946
    15  H    2.794613   3.868271   1.096797   2.176290   2.459467
    16  H    2.457541   2.795505   1.094483   2.152845   2.346387
    17  H    4.501277   4.966333   2.115708   1.097745   4.505886
    18  H    3.929098   4.131950   2.159526   1.095884   4.363101
    19  H    4.229865   4.992142   2.172303   1.093595   4.474665
                   11         12         13         14         15
    11  H    0.000000
    12  H    2.503408   0.000000
    13  H    2.491208   1.781483   0.000000
    14  H    3.087285   1.775694   1.785579   0.000000
    15  H    3.495065   4.630969   4.494387   3.766239   0.000000
    16  H    3.499043   3.623003   3.461747   2.280841   1.788766
    17  H    5.360240   5.931323   5.309433   4.436966   2.519675
    18  H    4.689067   5.208903   4.131077   3.735978   3.084577
    19  H    4.793388   6.021543   5.121282   4.827744   2.504082
                   16         17         18         19
    16  H    0.000000
    17  H    2.425478   0.000000
    18  H    2.519490   1.782276   0.000000
    19  H    3.075448   1.778600   1.784330   0.000000
 Stoichiometry    C4H10BF3O
 Framework group  C1[X(C4H10BF3O)]
 Deg. of freedom    51
 Full point group                 C1      NOp   1
 Largest Abelian subgroup         C1      NOp   1
 Largest concise Abelian subgroup C1      NOp   1
                         Standard orientation:                         
 ---------------------------------------------------------------------
 Center     Atomic      Atomic             Coordinates (Angstroms)
 Number     Number       Type             X           Y           Z
 ---------------------------------------------------------------------
      1          5           0       -0.972058   -0.705836   -0.048057
      2          9           0       -1.619571   -0.217795   -1.162587
      3          9           0       -1.632096   -0.439743    1.139867
      4          9           0       -0.586059   -2.024643   -0.184479
      5          8           0        0.416085    0.136143    0.035366
      6          6           0        1.623261   -0.546588    0.504146
      7          6           0        2.754208   -0.324657   -0.474211
      8          6           0        0.331913    1.513162    0.526498
      9          6           0       -0.581610    2.364340   -0.323088
     10          1           0        1.846066   -0.160668    1.506185
     11          1           0        1.360334   -1.601428    0.582077
     12          1           0        3.646226   -0.847502   -0.105921
     13          1           0        2.492878   -0.730122   -1.458582
     14          1           0        3.004426    0.738472   -0.581175
     15          1           0       -0.000842    1.462227    1.570359
     16          1           0        1.356433    1.896379    0.489156
     17          1           0       -0.493063    3.398328    0.034782
     18          1           0       -0.280524    2.330476   -1.376255
     19          1           0       -1.627414    2.055960   -0.238556
 ---------------------------------------------------------------------
 Rotational constants (GHZ):           1.7547336           1.4122125           1.0037403

 **********************************************************************

            Population analysis using the SCF Density.

 **********************************************************************

 Orbital symmetries:
       Occupied  (A) (A) (A) (A) (A) (A) (A) (A) (A) (A) (A) (A)
                 (A) (A) (A) (A) (A) (A) (A) (A) (A) (A) (A) (A)
                 (A) (A) (A) (A) (A) (A) (A) (A) (A) (A) (A) (A)
                 (A)
       Virtual   (A) (A) (A) (A) (A) (A) (A) (A) (A) (A) (A) (A)
                 (A) (A) (A) (A) (A) (A) (A) (A) (A) (A) (A) (A)
                 (A) (A) (A) (A) (A) (A) (A) (A) (A) (A) (A) (A)
                 (A) (A) (A) (A) (A) (A) (A) (A) (A) (A) (A) (A)
                 (A) (A) (A) (A) (A) (A) (A) (A) (A) (A) (A) (A)
                 (A) (A) (A) (A) (A) (A) (A) (A) (A) (A) (A) (A)
                 (A) (A) (A) (A) (A) (A) (A) (A) (A) (A) (A) (A)
                 (A) (A) (A) (A) (A) (A) (A) (A) (A) (A) (A) (A)
                 (A) (A) (A) (A) (A) (A) (A) (A) (A) (A) (A) (A)
                 (A) (A) (A) (A) (A) (A) (A) (A) (A) (A) (A) (A)
                 (A) (A) (A) (A) (A) (A) (A) (A) (A) (A) (A) (A)
                 (A) (A) (A) (A) (A) (A) (A) (A) (A) (A) (A) (A)
                 (A) (A) (A) (A) (A) (A) (A) (A) (A) (A) (A) (A)
                 (A) (A) (A) (A) (A) (A) (A) (A) (A) (A) (A) (A)
                 (A) (A) (A) (A) (A) (A) (A) (A) (A) (A) (A) (A)
                 (A) (A) (A) (A) (A) (A) (A) (A) (A) (A) (A) (A)
                 (A) (A) (A) (A) (A) (A) (A) (A) (A) (A) (A) (A)
                 (A) (A) (A) (A) (A) (A) (A) (A) (A) (A) (A) (A)
                 (A) (A) (A) (A) (A) (A) (A) (A) (A) (A) (A) (A)
                 (A) (A) (A) (A) (A) (A) (A) (A) (A) (A) (A) (A)
                 (A) (A) (A) (A) (A) (A) (A) (A) (A) (A) (A) (A)
                 (A) (A) (A) (A) (A) (A) (A) (A)
 The electronic state is 1-A.
 Alpha  occ. eigenvalues --  -24.80777 -24.80512 -24.80197 -19.35966 -10.37885
 Alpha  occ. eigenvalues --  -10.37622 -10.30966 -10.30322  -6.99103  -1.31446
 Alpha  occ. eigenvalues --   -1.27175  -1.26833  -1.20726  -0.90646  -0.86652
 Alpha  occ. eigenvalues --   -0.75918  -0.74684  -0.67150  -0.63663  -0.62190
 Alpha  occ. eigenvalues --   -0.60546  -0.59036  -0.58087  -0.55561  -0.52876
 Alpha  occ. eigenvalues --   -0.51400  -0.50885  -0.50401  -0.49121  -0.48487
 Alpha  occ. eigenvalues --   -0.48134  -0.47585  -0.46560  -0.46104  -0.45530
 Alpha  occ. eigenvalues --   -0.44427  -0.41284
 Alpha virt. eigenvalues --    0.03380   0.04498   0.04725   0.05079   0.06603
 Alpha virt. eigenvalues --    0.06948   0.07051   0.07210   0.07749   0.09198
 Alpha virt. eigenvalues --    0.09345   0.09856   0.10932   0.11878   0.12588
 Alpha virt. eigenvalues --    0.13712   0.14161   0.14469   0.14699   0.15293
 Alpha virt. eigenvalues --    0.16062   0.17056   0.17170   0.17772   0.18214
 Alpha virt. eigenvalues --    0.18704   0.19158   0.19585   0.20220   0.20522
 Alpha virt. eigenvalues --    0.22430   0.22697   0.23423   0.24047   0.24756
 Alpha virt. eigenvalues --    0.25402   0.26031   0.27117   0.27923   0.28118
 Alpha virt. eigenvalues --    0.28702   0.29542   0.29680   0.31414   0.31761
 Alpha virt. eigenvalues --    0.32296   0.32740   0.33604   0.34255   0.35263
 Alpha virt. eigenvalues --    0.36688   0.36876   0.37571   0.38535   0.38967
 Alpha virt. eigenvalues --    0.39789   0.40469   0.40597   0.41130   0.41341
 Alpha virt. eigenvalues --    0.42222   0.42521   0.43289   0.43511   0.43773
 Alpha virt. eigenvalues --    0.44792   0.45456   0.46126   0.47066   0.47819
 Alpha virt. eigenvalues --    0.49410   0.49841   0.50793   0.51022   0.52088
 Alpha virt. eigenvalues --    0.52730   0.53377   0.53730   0.54798   0.55205
 Alpha virt. eigenvalues --    0.55298   0.56548   0.56646   0.58103   0.59179
 Alpha virt. eigenvalues --    0.59483   0.59916   0.60863   0.61799   0.63804
 Alpha virt. eigenvalues --    0.63972   0.64572   0.65156   0.66116   0.66894
 Alpha virt. eigenvalues --    0.67631   0.69499   0.70456   0.70836   0.71161
 Alpha virt. eigenvalues --    0.72400   0.72598   0.73659   0.74047   0.75496
 Alpha virt. eigenvalues --    0.76078   0.76574   0.78128   0.78807   0.79342
 Alpha virt. eigenvalues --    0.80257   0.81637   0.82270   0.82964   0.83463
 Alpha virt. eigenvalues --    0.85917   0.87257   0.87948   0.88774   0.91411
 Alpha virt. eigenvalues --    0.91726   0.93545   0.95950   0.97214   0.98687
 Alpha virt. eigenvalues --    0.99669   1.00499   1.03859   1.04341   1.05966
 Alpha virt. eigenvalues --    1.07774   1.09220   1.10169   1.12443   1.14763
 Alpha virt. eigenvalues --    1.15386   1.17839   1.21166   1.22128   1.24951
 Alpha virt. eigenvalues --    1.27102   1.30143   1.31533   1.33561   1.34598
 Alpha virt. eigenvalues --    1.35999   1.38771   1.39653   1.41795   1.42288
 Alpha virt. eigenvalues --    1.44260   1.45557   1.46605   1.48006   1.49310
 Alpha virt. eigenvalues --    1.50364   1.52194   1.54019   1.55391   1.57971
 Alpha virt. eigenvalues --    1.60253   1.61985   1.62555   1.63605   1.65376
 Alpha virt. eigenvalues --    1.66889   1.67580   1.69299   1.70261   1.71397
 Alpha virt. eigenvalues --    1.73190   1.74240   1.74590   1.76677   1.77590
 Alpha virt. eigenvalues --    1.78612   1.80007   1.81678   1.82430   1.83040
 Alpha virt. eigenvalues --    1.85549   1.87274   1.88114   1.90637   1.92410
 Alpha virt. eigenvalues --    1.93467   1.95463   1.96735   1.98365   1.99476
 Alpha virt. eigenvalues --    2.01753   2.02148   2.03183   2.05239   2.06859
 Alpha virt. eigenvalues --    2.07172   2.09454   2.09943   2.11419   2.11830
 Alpha virt. eigenvalues --    2.14514   2.16517   2.19897   2.23613   2.25890
 Alpha virt. eigenvalues --    2.28156   2.30217   2.31673   2.33501   2.36104
 Alpha virt. eigenvalues --    2.38118   2.39423   2.40856   2.41852   2.46704
 Alpha virt. eigenvalues --    2.47486   2.48376   2.52204   2.54866   2.55357
 Alpha virt. eigenvalues --    2.58550   2.61172   2.63578   2.64897   2.67488
 Alpha virt. eigenvalues --    2.72033   2.73603   2.75733   2.82053   2.83766
 Alpha virt. eigenvalues --    2.85922   2.88237   2.93732   2.98732   3.07666
 Alpha virt. eigenvalues --    3.09430   3.16293   3.21321   3.36260   3.65047
 Alpha virt. eigenvalues --    3.67604   3.70360   3.73763   3.88999   3.96951
 Alpha virt. eigenvalues --    4.62531   4.64824   4.66824   4.67006   4.69041
 Alpha virt. eigenvalues --    4.71329   4.73517   4.75055   4.75935   4.79948
 Alpha virt. eigenvalues --    4.81959   4.84451   4.87275   4.93297   4.94900
          Condensed to atoms (all electrons):
               1          2          3          4          5          6
     1  B    3.514452  -0.025886   0.062911   0.125495  -0.329309  -0.088728
     2  F   -0.025886   9.612089  -0.117879  -0.182217   0.294693   0.031204
     3  F    0.062911  -0.117879   9.745351  -0.147404   0.010919  -0.062638
     4  F    0.125495  -0.182217  -0.147404   9.994390  -0.135267  -0.100289
     5  O   -0.329309   0.294693   0.010919  -0.135267  10.051343   0.086234
     6  C   -0.088728   0.031204  -0.062638  -0.100289   0.086234   5.035953
     7  C   -0.023576   0.016398   0.000358   0.003860  -0.033903   0.232357
     8  C    0.027566  -0.117800   0.041306   0.011408  -0.073929  -0.048719
     9  C    0.014661   0.018563  -0.036495   0.026030  -0.090683  -0.090210
    10  H    0.036112  -0.005154   0.000447  -0.002727  -0.128596  -0.015568
    11  H    0.025750   0.022078   0.004484  -0.081705  -0.302774   0.169423
    12  H    0.004166   0.001942   0.000446  -0.001635   0.129713   0.103044
    13  H    0.010909  -0.000825  -0.000098  -0.001956  -0.099088  -0.062554
    14  H   -0.014058   0.001814  -0.001159  -0.005937  -0.177923  -0.087769
    15  H    0.043899   0.007892   0.036183   0.015258  -0.064982   0.007212
    16  H    0.011363  -0.008369  -0.001860  -0.000986  -0.167145  -0.115928
    17  H    0.005464   0.002455   0.002116   0.000549   0.067101   0.004175
    18  H    0.015708   0.008720  -0.002856   0.006352  -0.110340  -0.044155
    19  H    0.042978  -0.032880   0.033714   0.010564  -0.112163  -0.019020
               7          8          9         10         11         12
     1  B   -0.023576   0.027566   0.014661   0.036112   0.025750   0.004166
     2  F    0.016398  -0.117800   0.018563  -0.005154   0.022078   0.001942
     3  F    0.000358   0.041306  -0.036495   0.000447   0.004484   0.000446
     4  F    0.003860   0.011408   0.026030  -0.002727  -0.081705  -0.001635
     5  O   -0.033903  -0.073929  -0.090683  -0.128596  -0.302774   0.129713
     6  C    0.232357  -0.048719  -0.090210  -0.015568   0.169423   0.103044
     7  C    4.473197  -0.028494   0.014932  -0.100706  -0.069389   0.257826
     8  C   -0.028494   5.069919   0.168947   0.027910  -0.027302  -0.030840
     9  C    0.014932   0.168947   4.664877   0.077225  -0.036177   0.000434
    10  H   -0.100706   0.027910   0.077225   1.677481  -0.364626  -0.111282
    11  H   -0.069389  -0.027302  -0.036177  -0.364626   2.202426  -0.084451
    12  H    0.257826  -0.030840   0.000434  -0.111282  -0.084451   1.420733
    13  H    0.308062   0.029798   0.011625   0.116863  -0.128757  -0.259608
    14  H    0.366864   0.009331  -0.025137  -0.076827   0.133913  -0.276200
    15  H    0.005274  -0.180994  -0.093626  -0.027172  -0.011736  -0.002055
    16  H    0.035777  -0.013602  -0.061900   0.033920   0.007349   0.000197
    17  H   -0.001550   0.106876   0.217180  -0.004012   0.000088  -0.000124
    18  H    0.008116  -0.109636   0.385975   0.007033  -0.010660  -0.000906
    19  H    0.000711  -0.003300   0.300325   0.008120  -0.001376  -0.000429
              13         14         15         16         17         18
     1  B    0.010909  -0.014058   0.043899   0.011363   0.005464   0.015708
     2  F   -0.000825   0.001814   0.007892  -0.008369   0.002455   0.008720
     3  F   -0.000098  -0.001159   0.036183  -0.001860   0.002116  -0.002856
     4  F   -0.001956  -0.005937   0.015258  -0.000986   0.000549   0.006352
     5  O   -0.099088  -0.177923  -0.064982  -0.167145   0.067101  -0.110340
     6  C   -0.062554  -0.087769   0.007212  -0.115928   0.004175  -0.044155
     7  C    0.308062   0.366864   0.005274   0.035777  -0.001550   0.008116
     8  C    0.029798   0.009331  -0.180994  -0.013602   0.106876  -0.109636
     9  C    0.011625  -0.025137  -0.093626  -0.061900   0.217180   0.385975
    10  H    0.116863  -0.076827  -0.027172   0.033920  -0.004012   0.007033
    11  H   -0.128757   0.133913  -0.011736   0.007349   0.000088  -0.010660
    12  H   -0.259608  -0.276200  -0.002055   0.000197  -0.000124  -0.000906
    13  H    1.412085  -0.198915   0.000832  -0.008808  -0.000604   0.006751
    14  H   -0.198915   1.533358   0.000068   0.037875   0.000752  -0.006492
    15  H    0.000832   0.000068   2.131724  -0.392033  -0.097626   0.140226
    16  H   -0.008808   0.037875  -0.392033   2.229244  -0.070998  -0.148472
    17  H   -0.000604   0.000752  -0.097626  -0.070998   1.419562  -0.248768
    18  H    0.006751  -0.006492   0.140226  -0.148472  -0.248768   1.523830
    19  H    0.000449   0.000698  -0.129121   0.108661  -0.259273  -0.287289
              19
     1  B    0.042978
     2  F   -0.032880
     3  F    0.033714
     4  F    0.010564
     5  O   -0.112163
     6  C   -0.019020
     7  C    0.000711
     8  C   -0.003300
     9  C    0.300325
    10  H    0.008120
    11  H   -0.001376
    12  H   -0.000429
    13  H    0.000449
    14  H    0.000698
    15  H   -0.129121
    16  H    0.108661
    17  H   -0.259273
    18  H   -0.287289
    19  H    1.474837
 Mulliken charges:
               1
     1  B    1.540121
     2  F   -0.526842
     3  F   -0.567847
     4  F   -0.533783
     5  O   -0.813901
     6  C    1.065973
     7  C    0.533885
     8  C    1.141555
     9  C    0.533453
    10  H   -0.148442
    11  H   -0.446557
    12  H   -0.150972
    13  H   -0.136164
    14  H   -0.214258
    15  H   -0.389224
    16  H   -0.474288
    17  H   -0.143361
    18  H   -0.133138
    19  H   -0.136208
 Sum of Mulliken charges =  -0.00000
 Mulliken charges with hydrogens summed into heavy atoms:
               1
     1  B    1.540121
     2  F   -0.526842
     3  F   -0.567847
     4  F   -0.533783
     5  O   -0.813901
     6  C    0.470973
     7  C    0.032490
     8  C    0.278043
     9  C    0.120747
 Electronic spatial extent (au):  <R**2>=           1265.1313
 Charge=             -0.0000 electrons
 Dipole moment (field-independent basis, Debye):
    X=              5.7744    Y=              3.6043    Z=              1.3337  Tot=              6.9364
 Quadrupole moment (field-independent basis, Debye-Ang):
   XX=            -52.2414   YY=            -51.4795   ZZ=            -55.0268
   XY=             -3.1778   XZ=              1.0052   YZ=              0.4398
 Traceless Quadrupole moment (field-independent basis, Debye-Ang):
   XX=              0.6745   YY=              1.4364   ZZ=             -2.1109
   XY=             -3.1778   XZ=              1.0052   YZ=              0.4398
 Octapole moment (field-independent basis, Debye-Ang**2):
  XXX=              3.4394  YYY=              5.8923  ZZZ=              0.7754  XYY=             -1.1548
  XXY=             -5.5560  XXZ=              1.0778  XZZ=              2.0594  YZZ=             -2.4093
  YYZ=              2.5019  XYZ=             -0.6262
 Hexadecapole moment (field-independent basis, Debye-Ang**3):
 XXXX=           -726.5291 YYYY=           -576.2185 ZZZZ=           -198.6539 XXXY=              0.5869
 XXXZ=              6.2036 YYYX=              4.5364 YYYZ=              2.1213 ZZZX=              1.7608
 ZZZY=              3.0889 XXYY=           -214.8776 XXZZ=           -167.9251 YYZZ=           -129.7708
 XXYZ=              0.1989 YYXZ=              1.4355 ZZXY=              0.4271
 N-N= 5.237882186664D+02 E-N=-2.364013125038D+03  KE= 5.548066749671D+02
 Unable to Open any file for archive entry.
 1\1\GINC-B-DFT-1--422A83DFA337-RYEOPXY2LR\FOpt\RwB97XD\Aug-CC-pVDZ\C4H
 10B1F3O1\ROOT\24-May-2026\0\\# nmr=giao wb97xd/aug-cc-pvdz opt freq in
 tegral=(acc2e=12,grid=ultrafine) scrf=(cpcm,solvent=benzene)\\BF3OEt2_
 C6D6 | solvent model: C6D6 as benzene\\0,1\B,-1.7901420067,0.678705911
 7,-0.2124808321\F,-1.569042072,1.6464857132,-1.1685942775\F,-2.1141075
 519,1.1906683147,1.0327343331\F,-2.6452700862,-0.3167367477,-0.6422545
 025\O,-0.3524089304,-0.0535630579,-0.0136489243\C,-0.3291154135,-1.494
 0936558,0.2461181792\C,0.6213689319,-2.1756386398,-0.7117707395\C,0.66
 05025509,0.6659331947,0.7614728949\C,0.9948843779,2.0069882177,0.15271
 64318\H,-0.0443096804,-1.62998792,1.2963922746\H,-1.3536419764,-1.8401
 395343,0.1101446029\H,0.6200777734,-3.2530607291,-0.5023373498\H,0.296
 7264713,-2.0204479124,-1.7472436105\H,1.65027717,-1.8101885543,-0.6018
 245331\H,0.2759980333,0.7591978465,1.7844208255\H,1.5406172062,0.01532
 5613,0.7611536726\H,1.839891247,2.4218723843,0.7174088796\H,1.29368832
 68,1.8970870919,-0.8959013564\H,0.1575446288,2.7075734635,0.2159090316
 \\Version=ES64L-G16RevC.01\State=1-A\HF=-558.1459689\RMSD=5.679e-09\RM
 SF=5.091e-06\Dipole=2.3260673,-1.2363349,0.7128841\Quadrupole=-1.49506
 12,2.8266768,-1.3316157,1.1166796,0.8787898,0.3955576\PG=C01 [X(C4H10B
 1F3O1)]\\@
 The archive entry for this job was punched.


 DIATOMIC MOLECULES ARE PECULIAR BECAUSE THEY ONLY HAVE TWO ENDS,
 AND THESE ENDS ARE VERY CLOSE TOGETHER.
 KLAUS RUEDENBERG, REV.MOD.PHYS. PG 176, 32, (1960)
 Job cpu time:       0 days  5 hours 46 minutes  1.8 seconds.
 Elapsed time:       0 days  0 hours 17 minutes 49.5 seconds.
 File lengths (MBytes):  RWF=    304 Int=      0 D2E=      0 Chk=     32 Scr=     32
 Normal termination of Gaussian 16 at Sun May 24 17:26:56 2026.
 Link1:  Proceeding to internal job step number  2.
 ----------------------------------------------------------------------
 #N Geom=AllCheck Guess=TCheck SCRF=Check GenChk RwB97XD/Aug-CC-pVDZ Fr
 eq
 ----------------------------------------------------------------------
 1/10=4,29=7,30=1,38=1,40=1/1,3;
 2/12=2,40=1/2;
 3/5=16,7=10,11=2,14=-4,25=1,27=12,30=1,36=2,70=2,71=2,74=-58,75=-5,116=1,140=1/1,2,3;
 4/5=101/1;
 5/5=2,38=6,87=12,98=1/2;
 8/6=4,10=90,11=11,87=12/1;
 10/15=4,46=1,87=12/2;
 11/6=1,8=1,9=11,15=111,16=1,87=12/1,2,10;
 10/6=1,46=1,87=12/2;
 6/7=2,8=2,9=2,10=2,28=1,87=12/1;
 7/8=1,10=1,25=1,87=12/1,2,3,16;
 1/10=4,30=1/3;
 99//99;
 Structure from the checkpoint file:  "/inspire/hdd/project/materialscienceresearch/lipenghui-253107030018/g16/00-B-DFT-Shift/04-output/BF3OEt2_C6D6/BF3OEt2_C6D6.chk"
 ---------------------------------------------
 BF3OEt2_C6D6 | solvent model: C6D6 as benzene
 ---------------------------------------------
 Charge =  0 Multiplicity = 1
 Redundant internal coordinates found in file.  (old form).
 B,0,-1.7901420067,0.6787059117,-0.2124808321
 F,0,-1.569042072,1.6464857132,-1.1685942775
 F,0,-2.1141075519,1.1906683147,1.0327343331
 F,0,-2.6452700862,-0.3167367477,-0.6422545025
 O,0,-0.3524089304,-0.0535630579,-0.0136489243
 C,0,-0.3291154135,-1.4940936558,0.2461181792
 C,0,0.6213689319,-2.1756386398,-0.7117707395
 C,0,0.6605025509,0.6659331947,0.7614728949
 C,0,0.9948843779,2.0069882177,0.1527164318
 H,0,-0.0443096804,-1.62998792,1.2963922746
 H,0,-1.3536419764,-1.8401395343,0.1101446029
 H,0,0.6200777734,-3.2530607291,-0.5023373498
 H,0,0.2967264713,-2.0204479124,-1.7472436105
 H,0,1.65027717,-1.8101885543,-0.6018245331
 H,0,0.2759980333,0.7591978465,1.7844208255
 H,0,1.5406172062,0.015325613,0.7611536726
 H,0,1.839891247,2.4218723843,0.7174088796
 H,0,1.2936883268,1.8970870919,-0.8959013564
 H,0,0.1575446288,2.7075734635,0.2159090316
 Recover connectivity data from disk.

 GradGradGradGradGradGradGradGradGradGradGradGradGradGradGradGradGradGrad
 Berny optimization.
 Initialization pass.
                           ----------------------------
                           !    Initial Parameters    !
                           ! (Angstroms and Degrees)  !
 --------------------------                            --------------------------
 ! Name  Definition              Value          Derivative Info.                !
 --------------------------------------------------------------------------------
 ! R1    R(1,2)                  1.3783         calculate D2E/DX2 analytically  !
 ! R2    R(1,3)                  1.3848         calculate D2E/DX2 analytically  !
 ! R3    R(1,4)                  1.3809         calculate D2E/DX2 analytically  !
 ! R4    R(1,5)                  1.6257         calculate D2E/DX2 analytically  !
 ! R5    R(5,6)                  1.464          calculate D2E/DX2 analytically  !
 ! R6    R(5,8)                  1.4644         calculate D2E/DX2 analytically  !
 ! R7    R(6,7)                  1.5118         calculate D2E/DX2 analytically  !
 ! R8    R(6,10)                 1.0967         calculate D2E/DX2 analytically  !
 ! R9    R(6,11)                 1.0899         calculate D2E/DX2 analytically  !
 ! R10   R(7,12)                 1.0976         calculate D2E/DX2 analytically  !
 ! R11   R(7,13)                 1.0962         calculate D2E/DX2 analytically  !
 ! R12   R(7,14)                 1.0974         calculate D2E/DX2 analytically  !
 ! R13   R(8,9)                  1.5102         calculate D2E/DX2 analytically  !
 ! R14   R(8,15)                 1.0968         calculate D2E/DX2 analytically  !
 ! R15   R(8,16)                 1.0945         calculate D2E/DX2 analytically  !
 ! R16   R(9,17)                 1.0977         calculate D2E/DX2 analytically  !
 ! R17   R(9,18)                 1.0959         calculate D2E/DX2 analytically  !
 ! R18   R(9,19)                 1.0936         calculate D2E/DX2 analytically  !
 ! A1    A(2,1,3)              113.6859         calculate D2E/DX2 analytically  !
 ! A2    A(2,1,4)              112.9303         calculate D2E/DX2 analytically  !
 ! A3    A(2,1,5)              105.026          calculate D2E/DX2 analytically  !
 ! A4    A(3,1,4)              113.6719         calculate D2E/DX2 analytically  !
 ! A5    A(3,1,5)              105.2749         calculate D2E/DX2 analytically  !
 ! A6    A(4,1,5)              105.1308         calculate D2E/DX2 analytically  !
 ! A7    A(1,5,6)              118.6206         calculate D2E/DX2 analytically  !
 ! A8    A(1,5,8)              117.0745         calculate D2E/DX2 analytically  !
 ! A9    A(6,5,8)              112.243          calculate D2E/DX2 analytically  !
 ! A10   A(5,6,7)              109.949          calculate D2E/DX2 analytically  !
 ! A11   A(5,6,10)             107.2178         calculate D2E/DX2 analytically  !
 ! A12   A(5,6,11)             105.9815         calculate D2E/DX2 analytically  !
 ! A13   A(7,6,10)             112.8098         calculate D2E/DX2 analytically  !
 ! A14   A(7,6,11)             111.6429         calculate D2E/DX2 analytically  !
 ! A15   A(10,6,11)            108.9209         calculate D2E/DX2 analytically  !
 ! A16   A(6,7,12)             108.7173         calculate D2E/DX2 analytically  !
 ! A17   A(6,7,13)             110.3951         calculate D2E/DX2 analytically  !
 ! A18   A(6,7,14)             112.0779         calculate D2E/DX2 analytically  !
 ! A19   A(12,7,13)            108.594          calculate D2E/DX2 analytically  !
 ! A20   A(12,7,14)            107.9918         calculate D2E/DX2 analytically  !
 ! A21   A(13,7,14)            108.9751         calculate D2E/DX2 analytically  !
 ! A22   A(5,8,9)              112.0906         calculate D2E/DX2 analytically  !
 ! A23   A(5,8,15)             107.0354         calculate D2E/DX2 analytically  !
 ! A24   A(5,8,16)             105.3072         calculate D2E/DX2 analytically  !
 ! A25   A(9,8,15)             112.2134         calculate D2E/DX2 analytically  !
 ! A26   A(9,8,16)             110.4683         calculate D2E/DX2 analytically  !
 ! A27   A(15,8,16)            109.4343         calculate D2E/DX2 analytically  !
 ! A28   A(8,9,17)             107.3786         calculate D2E/DX2 analytically  !
 ! A29   A(8,9,18)             110.9173         calculate D2E/DX2 analytically  !
 ! A30   A(8,9,19)             112.0886         calculate D2E/DX2 analytically  !
 ! A31   A(17,9,18)            108.6776         calculate D2E/DX2 analytically  !
 ! A32   A(17,9,19)            108.5147         calculate D2E/DX2 analytically  !
 ! A33   A(18,9,19)            109.166          calculate D2E/DX2 analytically  !
 ! D1    D(2,1,5,6)           -144.1622         calculate D2E/DX2 analytically  !
 ! D2    D(2,1,5,8)             76.0877         calculate D2E/DX2 analytically  !
 ! D3    D(3,1,5,6)             95.5407         calculate D2E/DX2 analytically  !
 ! D4    D(3,1,5,8)            -44.2095         calculate D2E/DX2 analytically  !
 ! D5    D(4,1,5,6)            -24.7903         calculate D2E/DX2 analytically  !
 ! D6    D(4,1,5,8)           -164.5404         calculate D2E/DX2 analytically  !
 ! D7    D(1,5,6,7)            128.9017         calculate D2E/DX2 analytically  !
 ! D8    D(1,5,6,10)          -108.125          calculate D2E/DX2 analytically  !
 ! D9    D(1,5,6,11)             8.0986         calculate D2E/DX2 analytically  !
 ! D10   D(8,5,6,7)            -89.5292         calculate D2E/DX2 analytically  !
 ! D11   D(8,5,6,10)            33.4441         calculate D2E/DX2 analytically  !
 ! D12   D(8,5,6,11)           149.6677         calculate D2E/DX2 analytically  !
 ! D13   D(1,5,8,9)            -59.024          calculate D2E/DX2 analytically  !
 ! D14   D(1,5,8,15)            64.418          calculate D2E/DX2 analytically  !
 ! D15   D(1,5,8,16)          -179.1804         calculate D2E/DX2 analytically  !
 ! D16   D(6,5,8,9)            158.7661         calculate D2E/DX2 analytically  !
 ! D17   D(6,5,8,15)           -77.7918         calculate D2E/DX2 analytically  !
 ! D18   D(6,5,8,16)            38.6097         calculate D2E/DX2 analytically  !
 ! D19   D(5,6,7,12)          -179.7711         calculate D2E/DX2 analytically  !
 ! D20   D(5,6,7,13)           -60.7486         calculate D2E/DX2 analytically  !
 ! D21   D(5,6,7,14)            60.9303         calculate D2E/DX2 analytically  !
 ! D22   D(10,6,7,12)           60.6077         calculate D2E/DX2 analytically  !
 ! D23   D(10,6,7,13)          179.6302         calculate D2E/DX2 analytically  !
 ! D24   D(10,6,7,14)          -58.6909         calculate D2E/DX2 analytically  !
 ! D25   D(11,6,7,12)          -62.4395         calculate D2E/DX2 analytically  !
 ! D26   D(11,6,7,13)           56.583          calculate D2E/DX2 analytically  !
 ! D27   D(11,6,7,14)          178.2619         calculate D2E/DX2 analytically  !
 ! D28   D(5,8,9,17)          -173.2075         calculate D2E/DX2 analytically  !
 ! D29   D(5,8,9,18)           -54.5968         calculate D2E/DX2 analytically  !
 ! D30   D(5,8,9,19)            67.7077         calculate D2E/DX2 analytically  !
 ! D31   D(15,8,9,17)           66.3109         calculate D2E/DX2 analytically  !
 ! D32   D(15,8,9,18)         -175.0785         calculate D2E/DX2 analytically  !
 ! D33   D(15,8,9,19)          -52.7739         calculate D2E/DX2 analytically  !
 ! D34   D(16,8,9,17)          -56.1038         calculate D2E/DX2 analytically  !
 ! D35   D(16,8,9,18)           62.5068         calculate D2E/DX2 analytically  !
 ! D36   D(16,8,9,19)         -175.1887         calculate D2E/DX2 analytically  !
 --------------------------------------------------------------------------------
 Trust Radius=3.00D-01 FncErr=1.00D-07 GrdErr=1.00D-07 EigMax=2.50D+02 EigMin=1.00D-04
 Number of steps in this run=      2 maximum allowed number of steps=      2.
 GradGradGradGradGradGradGradGradGradGradGradGradGradGradGradGradGradGrad

                          Input orientation:                          
 ---------------------------------------------------------------------
 Center     Atomic      Atomic             Coordinates (Angstroms)
 Number     Number       Type             X           Y           Z
 ---------------------------------------------------------------------
      1          5           0       -1.790142    0.678706   -0.212481
      2          9           0       -1.569042    1.646486   -1.168594
      3          9           0       -2.114108    1.190668    1.032734
      4          9           0       -2.645270   -0.316737   -0.642255
      5          8           0       -0.352409   -0.053563   -0.013649
      6          6           0       -0.329115   -1.494094    0.246118
      7          6           0        0.621369   -2.175639   -0.711771
      8          6           0        0.660503    0.665933    0.761473
      9          6           0        0.994884    2.006988    0.152716
     10          1           0       -0.044310   -1.629988    1.296392
     11          1           0       -1.353642   -1.840140    0.110145
     12          1           0        0.620078   -3.253061   -0.502337
     13          1           0        0.296726   -2.020448   -1.747244
     14          1           0        1.650277   -1.810189   -0.601825
     15          1           0        0.275998    0.759198    1.784421
     16          1           0        1.540617    0.015326    0.761154
     17          1           0        1.839891    2.421872    0.717409
     18          1           0        1.293688    1.897087   -0.895901
     19          1           0        0.157545    2.707573    0.215909
 ---------------------------------------------------------------------
                    Distance matrix (angstroms):
                    1          2          3          4          5
     1  B    0.000000
     2  F    1.378273   0.000000
     3  F    1.384782   2.313161   0.000000
     4  F    1.380889   2.299901   2.315165   0.000000
     5  O    1.625678   2.388359   2.397209   2.391990   0.000000
     6  C    2.658189   3.660884   3.318570   2.745897   1.463950
     7  C    3.769875   4.428908   4.675270   3.759159   2.436970
     8  C    2.637121   3.107654   2.836792   3.723469   1.464404
     9  C    3.107101   2.906810   3.332663   4.391173   2.467539
    10  H    3.264153   4.374500   3.508515   3.499711   2.072739
    11  H    2.576665   3.719963   3.258109   2.134283   2.051743
    12  H    4.620819   5.407559   5.438653   4.393640   3.379546
    13  H    3.741116   4.154796   4.883817   3.574769   2.700993
    14  H    4.264114   4.757504   5.084045   4.547940   2.728083
    15  H    2.874549   3.593292   2.542401   3.947176   2.070877
    16  H    3.532987   4.006818   3.848662   4.427355   2.046610
    17  H    4.132852   3.972286   4.153240   5.428198   3.386504
    18  H    3.385488   2.886588   3.978911   4.525566   2.700563
    19  H    2.844873   2.454355   2.851071   4.211730   2.817202
                    6          7          8          9         10
     6  C    0.000000
     7  C    1.511779   0.000000
     8  C    2.431183   3.201017   0.000000
     9  C    3.744232   4.287332   1.510240   0.000000
    10  H    1.096657   2.184853   2.460519   3.951647   0.000000
    11  H    1.089904   2.165357   3.280458   4.507525   1.779241
    12  H    2.134272   1.097589   4.117932   5.313915   2.512211
    13  H    2.154581   1.096212   3.693594   4.507495   3.087472
    14  H    2.176446   1.097403   2.994898   3.945847   2.550946
    15  H    2.794613   3.868271   1.096797   2.176290   2.459467
    16  H    2.457541   2.795505   1.094483   2.152845   2.346387
    17  H    4.501277   4.966333   2.115708   1.097745   4.505886
    18  H    3.929098   4.131950   2.159526   1.095884   4.363101
    19  H    4.229865   4.992142   2.172303   1.093595   4.474665
                   11         12         13         14         15
    11  H    0.000000
    12  H    2.503408   0.000000
    13  H    2.491208   1.781483   0.000000
    14  H    3.087285   1.775694   1.785579   0.000000
    15  H    3.495065   4.630969   4.494387   3.766239   0.000000
    16  H    3.499043   3.623003   3.461747   2.280841   1.788766
    17  H    5.360240   5.931323   5.309433   4.436966   2.519675
    18  H    4.689067   5.208903   4.131077   3.735978   3.084577
    19  H    4.793388   6.021543   5.121282   4.827744   2.504082
                   16         17         18         19
    16  H    0.000000
    17  H    2.425478   0.000000
    18  H    2.519490   1.782276   0.000000
    19  H    3.075448   1.778600   1.784330   0.000000
 Stoichiometry    C4H10BF3O
 Framework group  C1[X(C4H10BF3O)]
 Deg. of freedom    51
 Full point group                 C1      NOp   1
 Largest Abelian subgroup         C1      NOp   1
 Largest concise Abelian subgroup C1      NOp   1
                         Standard orientation:                         
 ---------------------------------------------------------------------
 Center     Atomic      Atomic             Coordinates (Angstroms)
 Number     Number       Type             X           Y           Z
 ---------------------------------------------------------------------
      1          5           0       -0.972058   -0.705836   -0.048057
      2          9           0       -1.619571   -0.217795   -1.162587
      3          9           0       -1.632096   -0.439743    1.139867
      4          9           0       -0.586059   -2.024643   -0.184479
      5          8           0        0.416085    0.136143    0.035366
      6          6           0        1.623261   -0.546588    0.504146
      7          6           0        2.754208   -0.324657   -0.474211
      8          6           0        0.331913    1.513162    0.526498
      9          6           0       -0.581610    2.364340   -0.323088
     10          1           0        1.846066   -0.160668    1.506185
     11          1           0        1.360334   -1.601428    0.582077
     12          1           0        3.646226   -0.847502   -0.105921
     13          1           0        2.492878   -0.730122   -1.458582
     14          1           0        3.004426    0.738472   -0.581175
     15          1           0       -0.000842    1.462227    1.570359
     16          1           0        1.356433    1.896379    0.489156
     17          1           0       -0.493063    3.398328    0.034782
     18          1           0       -0.280524    2.330476   -1.376255
     19          1           0       -1.627414    2.055960   -0.238556
 ---------------------------------------------------------------------
 Rotational constants (GHZ):           1.7547336           1.4122125           1.0037403
 Standard basis: Aug-CC-pVDZ (5D, 7F)
 There are   315 symmetry adapted cartesian basis functions of A   symmetry.
 There are   297 symmetry adapted basis functions of A   symmetry.
   297 basis functions,   497 primitive gaussians,   315 cartesian basis functions
    37 alpha electrons       37 beta electrons
       nuclear repulsion energy       523.8002689378 Hartrees.
 NAtoms=   19 NActive=   19 NUniq=   19 SFac= 1.00D+00 NAtFMM=   60 NAOKFM=F Big=F
 Integral buffers will be    131072 words long.
 Raffenetti 2 integral format.
 Two-electron integral symmetry is turned on.
 Nuclear repulsion after empirical dispersion term =      523.7882186664 Hartrees.
 Force inversion solution in PCM.
 Force PCM accuracy= 1.00D-12.
 ------------------------------------------------------------------------------
 Polarizable Continuum Model (PCM)
 =================================
 Model                : C-PCM.
 Atomic radii         : UFF (Universal Force Field).
 Polarization charges : Total charges.
 Charge compensation  : None.
 Solution method      : Matrix inversion.
 Cavity type          : Scaled VdW (van der Waals Surface) (Alpha=1.100).
 Cavity algorithm     : GePol (No added spheres)
                        Default sphere list used, NSphG=   19.
                        Lebedev-Laikov grids with approx.  5.0 points / Ang**2.
                        Smoothing algorithm: York/Karplus (Gamma=1.0000).
                        Polarization charges: spherical gaussians, with
                                              point-specific exponents (IZeta= 3).
                        Self-potential: point-specific (ISelfS= 7).
                        Self-field    : sphere-specific E.n sum rule (ISelfD= 2).
 1st derivatives      : Analytical E(r).r(x)/FMM algorithm (CHGder, D1EAlg=3).
                        Cavity 1st derivative terms included.
 2nd derivatives      : Analytical E(r).r(xy)/FMM algorithm (CHGder, D2EAlg=3).
                        Cavity 2nd derivative terms included.
 Solvent              : Benzene, Eps=   2.270600 Eps(inf)=   2.253301
 ------------------------------------------------------------------------------
 Spheres list:
 ISph  on   Nord     Re0    Alpha      Xe            Ye            Ze
    1   B      1    2.0415  1.100     -0.972058     -0.705836     -0.048057
    2   F      2    1.6820  1.100     -1.619571     -0.217795     -1.162587
    3   F      3    1.6820  1.100     -1.632096     -0.439743      1.139867
    4   F      4    1.6820  1.100     -0.586059     -2.024643     -0.184479
    5   O      5    1.7500  1.100      0.416085      0.136143      0.035366
    6   C      6    1.9255  1.100      1.623261     -0.546588      0.504146
    7   C      7    1.9255  1.100      2.754208     -0.324657     -0.474211
    8   C      8    1.9255  1.100      0.331913      1.513162      0.526498
    9   C      9    1.9255  1.100     -0.581610      2.364340     -0.323088
   10   H     10    1.4430  1.100      1.846066     -0.160668      1.506185
   11   H     11    1.4430  1.100      1.360334     -1.601428      0.582077
   12   H     12    1.4430  1.100      3.646226     -0.847502     -0.105921
   13   H     13    1.4430  1.100      2.492878     -0.730122     -1.458582
   14   H     14    1.4430  1.100      3.004426      0.738472     -0.581175
   15   H     15    1.4430  1.100     -0.000842      1.462227      1.570359
   16   H     16    1.4430  1.100      1.356433      1.896379      0.489156
   17   H     17    1.4430  1.100     -0.493063      3.398328      0.034782
   18   H     18    1.4430  1.100     -0.280524      2.330476     -1.376255
   19   H     19    1.4430  1.100     -1.627414      2.055960     -0.238556
 ------------------------------------------------------------------------------
 One-electron integrals computed using PRISM.
 NBasis=   297 RedAO= T EigKep=  2.70D-05  NBF=   297
 NBsUse=   297 1.00D-06 EigRej= -1.00D+00 NBFU=   297
 Initial guess from the checkpoint file:  "/inspire/hdd/project/materialscienceresearch/lipenghui-253107030018/g16/00-B-DFT-Shift/04-output/BF3OEt2_C6D6/BF3OEt2_C6D6.chk"
 B after Tr=    -0.000000    0.000000   -0.000000
         Rot=    1.000000    0.000000    0.000000   -0.000000 Ang=   0.00 deg.
 Requested convergence on RMS density matrix=1.00D-08 within 128 cycles.
 Requested convergence on MAX density matrix=1.00D-06.
 Requested convergence on             energy=1.00D-06.
 No special actions if energy rises.
 Inv3:  Mode=1 IEnd=     7004352.
 Iteration    1 A*A^-1 deviation from unit magnitude is 6.00D-15 for   1528.
 Iteration    1 A*A^-1 deviation from orthogonality  is 2.09D-15 for   1515   1266.
 Iteration    1 A^-1*A deviation from unit magnitude is 6.22D-15 for   1528.
 Iteration    1 A^-1*A deviation from orthogonality  is 1.67D-15 for   1468    814.
 Error on total polarization charges =  0.00641
 SCF Done:  E(RwB97XD) =  -558.145968942     A.U. after    1 cycles
            NFock=  1  Conv=0.15D-08     -V/T= 2.0060
 DoSCS=F DFT=T ScalE2(SS,OS)=  1.000000  1.000000
 Range of M.O.s used for correlation:     1   297
 NBasis=   297 NAE=    37 NBE=    37 NFC=     0 NFV=     0
 NROrb=    297 NOA=    37 NOB=    37 NVA=   260 NVB=   260

 **** Warning!!: The largest alpha MO coefficient is  0.29137868D+02

 NEqPCM:  Using equilibrium solvation (IEInf=0, Eps=   2.2706, EpsInf=   2.2533)
          Differentiating once with respect to magnetic field using GIAOs.
          Electric field/nuclear overlap derivatives assumed to be zero.
 FoFJK:  IHMeth= 1 ICntrl=    6127 DoSepK=T KAlg= 0 I1Cent=           0 FoldK=F
 IRaf=         1 NMat=       1 IRICut=       1 DoRegI=T DoRafI=F ISym2E= 0 IDoP0=0 IntGTp=1.
          There are     3 degrees of freedom in the 1st order CPHF.  IDoFFX=0 NUNeed=     3.
      3 vectors produced by pass  0 Test12= 3.21D-13 3.33D-08 XBig12= 1.54D+01 6.10D-01.
 AX will form     3 AO Fock derivatives at one time.
      3 vectors produced by pass  1 Test12= 3.21D-13 3.33D-08 XBig12= 1.16D-01 4.81D-02.
      3 vectors produced by pass  2 Test12= 3.21D-13 3.33D-08 XBig12= 7.76D-04 4.35D-03.
      3 vectors produced by pass  3 Test12= 3.21D-13 3.33D-08 XBig12= 5.72D-06 4.43D-04.
      3 vectors produced by pass  4 Test12= 3.21D-13 3.33D-08 XBig12= 5.11D-08 5.22D-05.
      3 vectors produced by pass  5 Test12= 3.21D-13 3.33D-08 XBig12= 4.97D-10 4.98D-06.
      3 vectors produced by pass  6 Test12= 3.21D-13 3.33D-08 XBig12= 3.62D-12 3.45D-07.
 InvSVY:  IOpt=1 It=  1 EMax= 8.88D-16
 Solved reduced A of dimension    21 with     3 vectors.
 Calculating GIAO nuclear magnetic shielding tensors.
 SCF GIAO Magnetic shielding tensor (ppm):
      1  B    Isotropic =   111.3248   Anisotropy =     8.9400
   XX=   104.8578   YX=    -5.9215   ZX=    -0.7222
   XY=    -5.9116   YY=   112.9552   ZY=    -1.2699
   XZ=     0.4138   YZ=    -1.4820   ZZ=   116.1614
   Eigenvalues:   101.6952   114.9944   117.2848
      2  F    Isotropic =   338.4302   Anisotropy =    49.8722
   XX=   343.2438   YX=    11.2824   ZX=    25.3274
   XY=     6.7062   YY=   324.4376   ZY=   -16.4764
   XZ=    25.3073   YZ=   -16.0084   ZZ=   347.6093
   Eigenvalues:   304.2502   339.3621   371.6783
      3  F    Isotropic =   354.9451   Anisotropy =    50.4685
   XX=   351.7033   YX=     6.4188   ZX=   -10.2520
   XY=     5.8371   YY=   332.6405   ZY=     5.7311
   XZ=   -23.9851   YZ=     5.7912   ZZ=   380.4915
   Eigenvalues:   328.3715   347.8731   388.5908
      4  F    Isotropic =   346.6618   Anisotropy =    41.1411
   XX=   350.6055   YX=    -7.1633   ZX=    -0.5920
   XY=    -1.7573   YY=   370.3543   ZY=     8.7857
   XZ=    -4.1414   YZ=    15.4805   ZZ=   319.0256
   Eigenvalues:   316.2498   349.6464   374.0892
      5  O    Isotropic =   263.3114   Anisotropy =    42.6056
   XX=   287.9187   YX=    10.2867   ZX=    12.0753
   XY=    -9.5246   YY=   264.6287   ZY=    -2.3464
   XZ=    16.6266   YZ=     2.4034   ZZ=   237.3867
   Eigenvalues:   233.5954   264.6236   291.7151
      6  C    Isotropic =   124.9707   Anisotropy =    88.9648
   XX=   153.7406   YX=   -39.7217   ZX=    23.4690
   XY=   -32.0568   YY=   113.3741   ZY=   -19.7344
   XZ=    18.8000   YZ=   -14.9076   ZZ=   107.7973
   Eigenvalues:    90.3130   100.3184   184.2806
      7  C    Isotropic =   182.1576   Anisotropy =    20.1370
   XX=   191.5808   YX=    -6.5555   ZX=    -4.1444
   XY=    -2.2112   YY=   168.8825   ZY=    -7.6341
   XZ=    -8.2258   YZ=    -4.8704   ZZ=   186.0096
   Eigenvalues:   165.3793   185.5113   195.5823
      8  C    Isotropic =   124.2114   Anisotropy =    80.5691
   XX=    94.3698   YX=   -12.2552   ZX=    20.6082
   XY=   -10.0918   YY=   169.2185   ZY=    25.3344
   XZ=    16.4746   YZ=    22.8468   ZZ=   109.0459
   Eigenvalues:    75.9478   118.7623   177.9242
      9  C    Isotropic =   180.0129   Anisotropy =    18.0005
   XX=   173.2594   YX=    -8.1451   ZX=     7.8359
   XY=    -5.8765   YY=   187.6056   ZY=     0.0921
   XZ=     6.9075   YZ=    -3.0098   ZZ=   179.1735
   Eigenvalues:   166.9702   181.0552   192.0132
     10  H    Isotropic =    28.0476   Anisotropy =     7.3590
   XX=    29.3832   YX=    -1.3014   ZX=     3.0540
   XY=    -2.8131   YY=    24.1361   ZY=    -2.1733
   XZ=     1.6118   YZ=    -0.0982   ZZ=    30.6235
   Eigenvalues:    23.4100    27.7791    32.9536
     11  H    Isotropic =    26.5803   Anisotropy =     5.3208
   XX=    29.5896   YX=    -1.5595   ZX=     1.0619
   XY=     0.6041   YY=    28.2313   ZY=    -1.9334
   XZ=     0.6199   YZ=    -2.9434   ZZ=    21.9199
   Eigenvalues:    21.0391    28.5743    30.1275
     12  H    Isotropic =    30.4705   Anisotropy =    11.2689
   XX=    36.2949   YX=    -3.9516   ZX=     1.0418
   XY=    -3.7769   YY=    28.1361   ZY=    -0.7948
   XZ=     1.0483   YZ=    -0.8615   ZZ=    26.9804
   Eigenvalues:    26.3164    27.1120    37.9831
     13  H    Isotropic =    30.1480   Anisotropy =     7.9032
   XX=    28.9888   YX=     0.1803   ZX=    -1.7832
   XY=    -0.0787   YY=    27.4648   ZY=     2.7177
   XZ=    -0.7247   YZ=     3.4333   ZZ=    33.9903
   Eigenvalues:    26.1474    28.8797    35.4168
     14  H    Isotropic =    30.0788   Anisotropy =     7.0205
   XX=    30.8608   YX=     2.6965   ZX=    -2.2103
   XY=     1.8751   YY=    32.7476   ZY=    -0.3368
   XZ=    -2.1287   YZ=    -1.4310   ZZ=    26.6282
   Eigenvalues:    25.7128    29.7645    34.7592
     15  H    Isotropic =    27.2997   Anisotropy =     6.5480
   XX=    23.8334   YX=    -0.4122   ZX=     0.8483
   XY=    -0.5869   YY=    28.2522   ZY=     3.6334
   XZ=    -0.4076   YZ=     1.3904   ZZ=    29.8134
   Eigenvalues:    23.7256    26.5085    31.6650
     16  H    Isotropic =    27.6395   Anisotropy =     6.0634
   XX=    28.9249   YX=    -0.5135   ZX=     1.0708
   XY=     1.6464   YY=    31.1465   ZY=     1.1693
   XZ=     2.3330   YZ=     1.7428   ZZ=    22.8471
   Eigenvalues:    22.2211    29.0157    31.6818
     17  H    Isotropic =    30.4642   Anisotropy =    11.0652
   XX=    27.1275   YX=    -1.2969   ZX=     0.3584
   XY=    -0.8971   YY=    37.5693   ZY=     1.3999
   XZ=     0.3320   YZ=     1.3352   ZZ=    26.6959
   Eigenvalues:    26.2392    27.3125    37.8411
     18  H    Isotropic =    30.1570   Anisotropy =     7.3855
   XX=    27.2678   YX=    -0.4043   ZX=    -0.0263
   XY=    -0.3394   YY=    29.1129   ZY=    -2.6409
   XZ=    -1.2061   YZ=    -2.1523   ZZ=    34.0902
   Eigenvalues:    26.9646    28.4256    35.0806
     19  H    Isotropic =    29.5901   Anisotropy =     5.9414
   XX=    33.5030   YX=     0.2378   ZX=     0.1610
   XY=    -0.5331   YY=    30.1509   ZY=    -0.6973
   XZ=     0.9669   YZ=    -0.4638   ZZ=    25.1164
   Eigenvalues:    25.0154    30.2038    33.5510
 End of Minotr F.D. properties file   721 does not exist.
 End of Minotr F.D. properties file   722 does not exist.
 End of Minotr F.D. properties file   788 does not exist.
 Symmetrizing basis deriv contribution to polar:
 IMax=3 JMax=2 DiffMx= 0.00D+00
 G2DrvN: will do    20 centers at a time, making    1 passes.
 Calling FoFCou, ICntrl=  3107 FMM=F I1Cent=   0 AccDes= 1.00D-12.
 NEqPCM:  Using equilibrium solvation (IEInf=0, Eps=   2.2706, EpsInf=   2.2533)
 G2PCM: DoFxE=T DoFxN=T DoGrad=T DoDP/DQ/DG/TGxP=FFFF NFrqRd=   0 IEInf=0 SqF1=F DoCFld=F IF1Alg=4.
 End of G2Drv F.D. properties file   721 does not exist.
 End of G2Drv F.D. properties file   722 does not exist.
 End of G2Drv F.D. properties file   788 does not exist.
          IDoAtm=1111111111111111111
 NEqPCM:  Using equilibrium solvation (IEInf=0, Eps=   2.2706, EpsInf=   2.2533)
          Differentiating once with respect to electric field.
                with respect to dipole field.
          Differentiating once with respect to nuclear coordinates.
 Keep R1 ints in memory in canonical form, NReq=1994496423.
          There are    60 degrees of freedom in the 1st order CPHF.  IDoFFX=5 NUNeed=    60.
     57 vectors produced by pass  0 Test12= 1.60D-14 1.67D-09 XBig12= 2.33D+01 8.64D-01.
 AX will form    57 AO Fock derivatives at one time.
     57 vectors produced by pass  1 Test12= 1.60D-14 1.67D-09 XBig12= 1.77D+00 1.70D-01.
     57 vectors produced by pass  2 Test12= 1.60D-14 1.67D-09 XBig12= 7.47D-02 2.95D-02.
     57 vectors produced by pass  3 Test12= 1.60D-14 1.67D-09 XBig12= 7.22D-04 2.89D-03.
     57 vectors produced by pass  4 Test12= 1.60D-14 1.67D-09 XBig12= 5.80D-06 2.29D-04.
     57 vectors produced by pass  5 Test12= 1.60D-14 1.67D-09 XBig12= 3.15D-08 1.63D-05.
     46 vectors produced by pass  6 Test12= 1.60D-14 1.67D-09 XBig12= 1.65D-10 1.06D-06.
      7 vectors produced by pass  7 Test12= 1.60D-14 1.67D-09 XBig12= 8.43D-13 7.28D-08.
      3 vectors produced by pass  8 Test12= 1.60D-14 1.67D-09 XBig12= 3.97D-15 5.39D-09.
 InvSVY:  IOpt=1 It=  1 EMax= 2.66D-15
 Solved reduced A of dimension   398 with    60 vectors.
 Isotropic polarizability for W=    0.000000       79.92 Bohr**3.
 Dipole-magnetic dipole polarizability for W=    0.000000:
                 1             2             3 
      1  -0.291447D+01  0.288276D+01 -0.269343D+02
      2  -0.541432D+01  0.172672D+01  0.356728D+02
      3   0.285883D+02 -0.388309D+02  0.173322D+01
 DQ contribution to OR G for W=    0.000000:
                 1             2             3 
      1  -0.329857D+01 -0.135888D+01 -0.891279D+02
      2   0.857413D+00  0.117574D+00  0.121228D+03
      3   0.100253D+03 -0.131478D+03  0.318099D+01
 Optical Rotation G' tensor for W=    0.000000:
                 1             2             3 
      1   0.905331D+00  0.570206D+00  0.977166D+00
      2   0.570206D+00 -0.561231D+00 -0.491694D+00
      3   0.977166D+00 -0.491694D+00  0.201372D+00
 OR G Eigenvalues:    -1.2606     0.1965     1.6096  Iso=    -0.1818
 Eigenvectors:
   (1)  -0.432068   0.727218   0.533358
   (2)   0.345267   0.679738  -0.647107
   (3)   0.833131   0.095443   0.544777
 w=    0.000000 a.u., Optical Rotation Beta=     -0.1818 au.
 Molar Mass =    141.9276 grams/mole, [Alpha]D (static) =      -49.52 deg.
 AAT (total):
 -0.0416 -0.0552  0.9959
  0.0984  0.0202 -1.2560
 -0.8577  1.0782  0.0176
  0.0755  0.2627 -0.1729
 -0.4907  0.0985  0.6499
  0.2400 -0.6547 -0.1968
 -0.0624 -0.2574 -0.1984
  0.4269 -0.0773  0.5642
  0.3031 -0.7129  0.1590
  0.0451  0.0634 -0.8714
 -0.0565 -0.0347  0.4908
  0.5854 -0.1624 -0.0022
 -0.1085 -0.0615 -0.0391
  0.0583  0.1364 -0.2370
  0.0747 -0.0302 -0.0311
  0.1091  0.0766 -0.1009
  0.0662 -0.0830  0.0715
  0.0255 -0.1497 -0.0102
  0.0114  0.0507  0.0707
 -0.0637 -0.0749 -0.0244
  0.0149  0.1961  0.0513
  0.0113 -0.0369 -0.1933
 -0.0722 -0.0892  0.2082
  0.0744 -0.0349  0.0649
 -0.0577  0.0565  0.1356
 -0.0829 -0.0029  0.0821
 -0.1467 -0.0839  0.0744
 -0.0463  0.0522  0.0002
 -0.0476  0.1166  0.0428
  0.1210  0.0292 -0.0381
  0.0273 -0.0285  0.1214
  0.0073 -0.0250  0.0318
 -0.1307 -0.0327 -0.0180
  0.0243  0.1387  0.1750
 -0.0680 -0.0821  0.1784
 -0.0720 -0.1602  0.0544
 -0.0146 -0.0899  0.0186
  0.1208  0.1083 -0.0011
 -0.0740  0.1969 -0.0823
 -0.0329 -0.0456 -0.2165
 -0.0663 -0.0055 -0.1983
  0.1213 -0.0898  0.0332
  0.0499  0.1281 -0.0285
  0.0164 -0.0399 -0.0381
 -0.0901  0.1181 -0.0098
  0.0034 -0.1069  0.0343
  0.0021  0.0287  0.0664
  0.0963 -0.0705 -0.0535
 -0.0373  0.0402 -0.2230
 -0.1613 -0.0150  0.0847
  0.1860 -0.0015  0.0558
  0.0564 -0.1170 -0.0272
  0.1575  0.0037  0.0011
 -0.1466 -0.1226 -0.0484
 -0.0121  0.0633  0.1729
  0.0252  0.0200 -0.1508
  0.0234  0.1252 -0.0188
 End of Minotr F.D. properties file   721 does not exist.
 End of Minotr F.D. properties file   722 does not exist.
 End of Minotr F.D. properties file   788 does not exist.

 **********************************************************************

            Population analysis using the SCF Density.

 **********************************************************************

 Orbital symmetries:
       Occupied  (A) (A) (A) (A) (A) (A) (A) (A) (A) (A) (A) (A)
                 (A) (A) (A) (A) (A) (A) (A) (A) (A) (A) (A) (A)
                 (A) (A) (A) (A) (A) (A) (A) (A) (A) (A) (A) (A)
                 (A)
       Virtual   (A) (A) (A) (A) (A) (A) (A) (A) (A) (A) (A) (A)
                 (A) (A) (A) (A) (A) (A) (A) (A) (A) (A) (A) (A)
                 (A) (A) (A) (A) (A) (A) (A) (A) (A) (A) (A) (A)
                 (A) (A) (A) (A) (A) (A) (A) (A) (A) (A) (A) (A)
                 (A) (A) (A) (A) (A) (A) (A) (A) (A) (A) (A) (A)
                 (A) (A) (A) (A) (A) (A) (A) (A) (A) (A) (A) (A)
                 (A) (A) (A) (A) (A) (A) (A) (A) (A) (A) (A) (A)
                 (A) (A) (A) (A) (A) (A) (A) (A) (A) (A) (A) (A)
                 (A) (A) (A) (A) (A) (A) (A) (A) (A) (A) (A) (A)
                 (A) (A) (A) (A) (A) (A) (A) (A) (A) (A) (A) (A)
                 (A) (A) (A) (A) (A) (A) (A) (A) (A) (A) (A) (A)
                 (A) (A) (A) (A) (A) (A) (A) (A) (A) (A) (A) (A)
                 (A) (A) (A) (A) (A) (A) (A) (A) (A) (A) (A) (A)
                 (A) (A) (A) (A) (A) (A) (A) (A) (A) (A) (A) (A)
                 (A) (A) (A) (A) (A) (A) (A) (A) (A) (A) (A) (A)
                 (A) (A) (A) (A) (A) (A) (A) (A) (A) (A) (A) (A)
                 (A) (A) (A) (A) (A) (A) (A) (A) (A) (A) (A) (A)
                 (A) (A) (A) (A) (A) (A) (A) (A) (A) (A) (A) (A)
                 (A) (A) (A) (A) (A) (A) (A) (A) (A) (A) (A) (A)
                 (A) (A) (A) (A) (A) (A) (A) (A) (A) (A) (A) (A)
                 (A) (A) (A) (A) (A) (A) (A) (A) (A) (A) (A) (A)
                 (A) (A) (A) (A) (A) (A) (A) (A)
 The electronic state is 1-A.
 Alpha  occ. eigenvalues --  -24.80777 -24.80512 -24.80197 -19.35966 -10.37885
 Alpha  occ. eigenvalues --  -10.37622 -10.30966 -10.30322  -6.99103  -1.31446
 Alpha  occ. eigenvalues --   -1.27175  -1.26833  -1.20726  -0.90646  -0.86652
 Alpha  occ. eigenvalues --   -0.75918  -0.74684  -0.67150  -0.63663  -0.62190
 Alpha  occ. eigenvalues --   -0.60546  -0.59036  -0.58087  -0.55561  -0.52876
 Alpha  occ. eigenvalues --   -0.51400  -0.50885  -0.50401  -0.49121  -0.48487
 Alpha  occ. eigenvalues --   -0.48134  -0.47585  -0.46560  -0.46104  -0.45530
 Alpha  occ. eigenvalues --   -0.44427  -0.41284
 Alpha virt. eigenvalues --    0.03380   0.04498   0.04725   0.05079   0.06603
 Alpha virt. eigenvalues --    0.06948   0.07051   0.07210   0.07749   0.09198
 Alpha virt. eigenvalues --    0.09345   0.09856   0.10932   0.11878   0.12588
 Alpha virt. eigenvalues --    0.13712   0.14161   0.14469   0.14699   0.15293
 Alpha virt. eigenvalues --    0.16062   0.17056   0.17170   0.17772   0.18214
 Alpha virt. eigenvalues --    0.18704   0.19158   0.19585   0.20220   0.20522
 Alpha virt. eigenvalues --    0.22430   0.22697   0.23423   0.24047   0.24756
 Alpha virt. eigenvalues --    0.25402   0.26031   0.27117   0.27923   0.28118
 Alpha virt. eigenvalues --    0.28702   0.29542   0.29680   0.31414   0.31761
 Alpha virt. eigenvalues --    0.32296   0.32740   0.33604   0.34255   0.35263
 Alpha virt. eigenvalues --    0.36688   0.36876   0.37571   0.38535   0.38967
 Alpha virt. eigenvalues --    0.39789   0.40469   0.40597   0.41130   0.41341
 Alpha virt. eigenvalues --    0.42222   0.42521   0.43289   0.43511   0.43773
 Alpha virt. eigenvalues --    0.44792   0.45456   0.46126   0.47066   0.47819
 Alpha virt. eigenvalues --    0.49410   0.49841   0.50793   0.51022   0.52088
 Alpha virt. eigenvalues --    0.52730   0.53377   0.53730   0.54798   0.55205
 Alpha virt. eigenvalues --    0.55298   0.56548   0.56646   0.58103   0.59179
 Alpha virt. eigenvalues --    0.59483   0.59916   0.60863   0.61799   0.63804
 Alpha virt. eigenvalues --    0.63972   0.64572   0.65156   0.66116   0.66894
 Alpha virt. eigenvalues --    0.67631   0.69499   0.70456   0.70836   0.71161
 Alpha virt. eigenvalues --    0.72400   0.72598   0.73659   0.74047   0.75496
 Alpha virt. eigenvalues --    0.76078   0.76574   0.78128   0.78807   0.79342
 Alpha virt. eigenvalues --    0.80257   0.81637   0.82270   0.82964   0.83463
 Alpha virt. eigenvalues --    0.85917   0.87257   0.87948   0.88774   0.91411
 Alpha virt. eigenvalues --    0.91726   0.93545   0.95950   0.97214   0.98687
 Alpha virt. eigenvalues --    0.99669   1.00499   1.03859   1.04341   1.05966
 Alpha virt. eigenvalues --    1.07774   1.09220   1.10169   1.12443   1.14763
 Alpha virt. eigenvalues --    1.15386   1.17839   1.21166   1.22128   1.24951
 Alpha virt. eigenvalues --    1.27102   1.30143   1.31533   1.33561   1.34598
 Alpha virt. eigenvalues --    1.35999   1.38771   1.39653   1.41795   1.42288
 Alpha virt. eigenvalues --    1.44260   1.45557   1.46605   1.48006   1.49310
 Alpha virt. eigenvalues --    1.50364   1.52194   1.54019   1.55391   1.57971
 Alpha virt. eigenvalues --    1.60253   1.61985   1.62555   1.63605   1.65376
 Alpha virt. eigenvalues --    1.66889   1.67580   1.69299   1.70261   1.71397
 Alpha virt. eigenvalues --    1.73190   1.74240   1.74590   1.76677   1.77590
 Alpha virt. eigenvalues --    1.78612   1.80007   1.81678   1.82430   1.83040
 Alpha virt. eigenvalues --    1.85549   1.87274   1.88114   1.90637   1.92410
 Alpha virt. eigenvalues --    1.93467   1.95463   1.96735   1.98365   1.99476
 Alpha virt. eigenvalues --    2.01753   2.02148   2.03183   2.05239   2.06859
 Alpha virt. eigenvalues --    2.07172   2.09454   2.09943   2.11419   2.11830
 Alpha virt. eigenvalues --    2.14514   2.16517   2.19897   2.23613   2.25890
 Alpha virt. eigenvalues --    2.28156   2.30217   2.31673   2.33501   2.36104
 Alpha virt. eigenvalues --    2.38118   2.39423   2.40856   2.41852   2.46704
 Alpha virt. eigenvalues --    2.47486   2.48376   2.52204   2.54866   2.55357
 Alpha virt. eigenvalues --    2.58550   2.61172   2.63578   2.64897   2.67488
 Alpha virt. eigenvalues --    2.72033   2.73603   2.75733   2.82053   2.83766
 Alpha virt. eigenvalues --    2.85922   2.88237   2.93732   2.98732   3.07666
 Alpha virt. eigenvalues --    3.09430   3.16293   3.21321   3.36260   3.65047
 Alpha virt. eigenvalues --    3.67604   3.70360   3.73763   3.88999   3.96951
 Alpha virt. eigenvalues --    4.62531   4.64824   4.66824   4.67006   4.69041
 Alpha virt. eigenvalues --    4.71329   4.73517   4.75055   4.75935   4.79948
 Alpha virt. eigenvalues --    4.81959   4.84451   4.87275   4.93297   4.94900
          Condensed to atoms (all electrons):
               1          2          3          4          5          6
     1  B    3.514452  -0.025886   0.062911   0.125495  -0.329308  -0.088728
     2  F   -0.025886   9.612089  -0.117879  -0.182217   0.294693   0.031204
     3  F    0.062911  -0.117879   9.745351  -0.147404   0.010919  -0.062638
     4  F    0.125495  -0.182217  -0.147404   9.994390  -0.135267  -0.100289
     5  O   -0.329308   0.294693   0.010919  -0.135267  10.051342   0.086234
     6  C   -0.088728   0.031204  -0.062638  -0.100289   0.086234   5.035953
     7  C   -0.023576   0.016398   0.000358   0.003860  -0.033903   0.232357
     8  C    0.027566  -0.117800   0.041306   0.011408  -0.073929  -0.048719
     9  C    0.014661   0.018563  -0.036495   0.026030  -0.090683  -0.090210
    10  H    0.036112  -0.005154   0.000447  -0.002727  -0.128596  -0.015568
    11  H    0.025750   0.022078   0.004484  -0.081705  -0.302774   0.169423
    12  H    0.004166   0.001942   0.000446  -0.001635   0.129713   0.103044
    13  H    0.010909  -0.000825  -0.000098  -0.001956  -0.099088  -0.062554
    14  H   -0.014058   0.001814  -0.001159  -0.005937  -0.177923  -0.087768
    15  H    0.043899   0.007892   0.036183   0.015258  -0.064982   0.007212
    16  H    0.011363  -0.008369  -0.001860  -0.000986  -0.167145  -0.115928
    17  H    0.005464   0.002455   0.002116   0.000549   0.067101   0.004175
    18  H    0.015708   0.008720  -0.002856   0.006352  -0.110340  -0.044155
    19  H    0.042978  -0.032880   0.033714   0.010564  -0.112163  -0.019020
               7          8          9         10         11         12
     1  B   -0.023576   0.027566   0.014661   0.036112   0.025750   0.004166
     2  F    0.016398  -0.117800   0.018563  -0.005154   0.022078   0.001942
     3  F    0.000358   0.041306  -0.036495   0.000447   0.004484   0.000446
     4  F    0.003860   0.011408   0.026030  -0.002727  -0.081705  -0.001635
     5  O   -0.033903  -0.073929  -0.090683  -0.128596  -0.302774   0.129713
     6  C    0.232357  -0.048719  -0.090210  -0.015568   0.169423   0.103044
     7  C    4.473197  -0.028494   0.014932  -0.100706  -0.069389   0.257826
     8  C   -0.028494   5.069919   0.168947   0.027910  -0.027302  -0.030840
     9  C    0.014932   0.168947   4.664877   0.077225  -0.036177   0.000434
    10  H   -0.100706   0.027910   0.077225   1.677481  -0.364626  -0.111282
    11  H   -0.069389  -0.027302  -0.036177  -0.364626   2.202426  -0.084451
    12  H    0.257826  -0.030840   0.000434  -0.111282  -0.084451   1.420733
    13  H    0.308062   0.029798   0.011625   0.116863  -0.128757  -0.259608
    14  H    0.366864   0.009331  -0.025137  -0.076827   0.133913  -0.276200
    15  H    0.005274  -0.180994  -0.093626  -0.027172  -0.011736  -0.002055
    16  H    0.035777  -0.013602  -0.061900   0.033920   0.007349   0.000197
    17  H   -0.001550   0.106876   0.217180  -0.004012   0.000088  -0.000124
    18  H    0.008116  -0.109636   0.385975   0.007033  -0.010660  -0.000906
    19  H    0.000711  -0.003300   0.300325   0.008120  -0.001376  -0.000429
              13         14         15         16         17         18
     1  B    0.010909  -0.014058   0.043899   0.011363   0.005464   0.015708
     2  F   -0.000825   0.001814   0.007892  -0.008369   0.002455   0.008720
     3  F   -0.000098  -0.001159   0.036183  -0.001860   0.002116  -0.002856
     4  F   -0.001956  -0.005937   0.015258  -0.000986   0.000549   0.006352
     5  O   -0.099088  -0.177923  -0.064982  -0.167145   0.067101  -0.110340
     6  C   -0.062554  -0.087768   0.007212  -0.115928   0.004175  -0.044155
     7  C    0.308062   0.366864   0.005274   0.035777  -0.001550   0.008116
     8  C    0.029798   0.009331  -0.180994  -0.013602   0.106876  -0.109636
     9  C    0.011625  -0.025137  -0.093626  -0.061900   0.217180   0.385975
    10  H    0.116863  -0.076827  -0.027172   0.033920  -0.004012   0.007033
    11  H   -0.128757   0.133913  -0.011736   0.007349   0.000088  -0.010660
    12  H   -0.259608  -0.276200  -0.002055   0.000197  -0.000124  -0.000906
    13  H    1.412085  -0.198915   0.000832  -0.008808  -0.000604   0.006751
    14  H   -0.198915   1.533358   0.000068   0.037875   0.000752  -0.006492
    15  H    0.000832   0.000068   2.131724  -0.392033  -0.097626   0.140226
    16  H   -0.008808   0.037875  -0.392033   2.229244  -0.070998  -0.148472
    17  H   -0.000604   0.000752  -0.097626  -0.070998   1.419562  -0.248768
    18  H    0.006751  -0.006492   0.140226  -0.148472  -0.248768   1.523830
    19  H    0.000449   0.000698  -0.129121   0.108661  -0.259273  -0.287289
              19
     1  B    0.042978
     2  F   -0.032880
     3  F    0.033714
     4  F    0.010564
     5  O   -0.112163
     6  C   -0.019020
     7  C    0.000711
     8  C   -0.003300
     9  C    0.300325
    10  H    0.008120
    11  H   -0.001376
    12  H   -0.000429
    13  H    0.000449
    14  H    0.000698
    15  H   -0.129121
    16  H    0.108661
    17  H   -0.259273
    18  H   -0.287289
    19  H    1.474837
 Mulliken charges:
               1
     1  B    1.540121
     2  F   -0.526842
     3  F   -0.567847
     4  F   -0.533783
     5  O   -0.813901
     6  C    1.065973
     7  C    0.533885
     8  C    1.141555
     9  C    0.533453
    10  H   -0.148442
    11  H   -0.446557
    12  H   -0.150972
    13  H   -0.136164
    14  H   -0.214258
    15  H   -0.389224
    16  H   -0.474289
    17  H   -0.143361
    18  H   -0.133138
    19  H   -0.136208
 Sum of Mulliken charges =   0.00000
 Mulliken charges with hydrogens summed into heavy atoms:
               1
     1  B    1.540121
     2  F   -0.526842
     3  F   -0.567847
     4  F   -0.533783
     5  O   -0.813901
     6  C    0.470973
     7  C    0.032490
     8  C    0.278043
     9  C    0.120746
 APT charges:
               1
     1  B    2.042849
     2  F   -0.718757
     3  F   -0.719706
     4  F   -0.726352
     5  O   -1.054680
     6  C    0.552487
     7  C    0.001903
     8  C    0.566811
     9  C    0.002924
    10  H   -0.022875
    11  H    0.042262
    12  H    0.009828
    13  H    0.007856
    14  H   -0.001056
    15  H   -0.015321
    16  H   -0.012526
    17  H    0.006505
    18  H    0.009158
    19  H    0.028689
 Sum of APT charges =   0.00000
 APT charges with hydrogens summed into heavy atoms:
               1
     1  B    2.042849
     2  F   -0.718757
     3  F   -0.719706
     4  F   -0.726352
     5  O   -1.054680
     6  C    0.571875
     7  C    0.018531
     8  C    0.538964
     9  C    0.047275
 Electronic spatial extent (au):  <R**2>=           1265.1313
 Charge=             -0.0000 electrons
 Dipole moment (field-independent basis, Debye):
    X=              5.7744    Y=              3.6043    Z=              1.3337  Tot=              6.9364
 Quadrupole moment (field-independent basis, Debye-Ang):
   XX=            -52.2414   YY=            -51.4795   ZZ=            -55.0268
   XY=             -3.1778   XZ=              1.0052   YZ=              0.4398
 Traceless Quadrupole moment (field-independent basis, Debye-Ang):
   XX=              0.6745   YY=              1.4364   ZZ=             -2.1109
   XY=             -3.1778   XZ=              1.0052   YZ=              0.4398
 Octapole moment (field-independent basis, Debye-Ang**2):
  XXX=              3.4394  YYY=              5.8923  ZZZ=              0.7754  XYY=             -1.1548
  XXY=             -5.5560  XXZ=              1.0778  XZZ=              2.0594  YZZ=             -2.4093
  YYZ=              2.5019  XYZ=             -0.6262
 Hexadecapole moment (field-independent basis, Debye-Ang**3):
 XXXX=           -726.5292 YYYY=           -576.2185 ZZZZ=           -198.6539 XXXY=              0.5869
 XXXZ=              6.2036 YYYX=              4.5365 YYYZ=              2.1213 ZZZX=              1.7608
 ZZZY=              3.0889 XXYY=           -214.8776 XXZZ=           -167.9251 YYZZ=           -129.7708
 XXYZ=              0.1989 YYXZ=              1.4355 ZZXY=              0.4271
 N-N= 5.237882186664D+02 E-N=-2.364013119513D+03  KE= 5.548066730036D+02
  Exact polarizability:      83.497      -3.894      82.302       0.359      -0.269      73.950
 Approx polarizability:      73.017      -1.566      73.872       0.754       0.398      70.764
 D2PCM: C-PCM CHGder 2nd derivatives, FixD1E=F FixD2E=F DoIter=F DoCFld=F I1PDM=0
 Calling FoFJK, ICntrl=    100127 FMM=F ISym2X=0 I1Cent= 0 IOpClX= 0 NMat=1 NMatS=1 NMatT=0.
 Full mass-weighted force constant matrix:
 Low frequencies ---   -6.4005   -0.0006   -0.0005    0.0006    5.9869    8.6880
 Low frequencies ---   23.2107   50.4241   74.1402
 Diagonal vibrational polarizability:
       44.0573006      40.3170703      19.6910822
 Harmonic frequencies (cm**-1), IR intensities (KM/Mole), Raman scattering
 activities (A**4/AMU), depolarization ratios for plane and unpolarized
 incident light, reduced masses (AMU), force constants (mDyne/A),
 Dipole strengths (10**-40 esu**2-cm**2),
 Rotational strengths (10**-44 esu**2-cm**2),
 E-M angle = Angle between electric and magnetic dipole transition moments (deg),
 and normal coordinates:
                      1                      2                      3
                      A                      A                      A
 Frequencies --     22.9417                50.3702                74.1304
 Red. masses --      6.7634                 2.3947                 2.7039
 Frc consts  --      0.0021                 0.0036                 0.0088
 IR Inten    --      0.3034                 1.2158                 0.5971
 Dip. str.   --     52.7652                96.2950                32.1343
 Rot. str.   --     -1.1246                 9.7450                -1.6392
 E-M angle   --     99.1237                43.0980               116.1518
  Atom  AN      X      Y      Z        X      Y      Z        X      Y      Z
     1   5     0.01   0.01  -0.01    -0.04  -0.02   0.02     0.00  -0.02   0.02
     2   9     0.19  -0.12  -0.17    -0.04  -0.03   0.01     0.04  -0.00   0.01
     3   9    -0.16   0.20  -0.15    -0.01   0.03   0.02    -0.07  -0.09  -0.00
     4   9    -0.03  -0.02   0.24    -0.08  -0.04   0.05     0.06  -0.00  -0.00
     5   8     0.02  -0.02   0.07    -0.01  -0.04  -0.03    -0.04   0.02   0.12
     6   6     0.07  -0.02  -0.10     0.00  -0.06  -0.10     0.01   0.04   0.02
     7   6    -0.04   0.03  -0.21     0.07   0.22   0.04    -0.12  -0.01  -0.15
     8   6     0.03  -0.04   0.12    -0.01  -0.07   0.03    -0.07   0.02   0.11
     9   6    -0.08  -0.05   0.23     0.14   0.01  -0.06     0.17   0.06  -0.11
    10   1     0.18  -0.06  -0.10    -0.10  -0.28   0.01     0.14   0.11  -0.03
    11   1     0.09  -0.03  -0.11     0.06  -0.09  -0.36     0.02   0.05   0.13
    12   1     0.01   0.02  -0.34     0.06   0.17  -0.01    -0.05   0.05  -0.23
    13   1    -0.15   0.08  -0.20     0.16   0.45  -0.08    -0.25  -0.09  -0.08
    14   1    -0.06   0.04  -0.19     0.05   0.26   0.31    -0.18  -0.01  -0.26
    15   1     0.13  -0.08   0.15    -0.15  -0.11  -0.02    -0.30   0.04   0.03
    16   1     0.01  -0.00   0.04     0.01  -0.10   0.18    -0.04  -0.04   0.33
    17   1    -0.15  -0.07   0.30     0.13  -0.01  -0.01     0.14   0.06  -0.11
    18   1    -0.14   0.04   0.21     0.28   0.03  -0.02     0.42   0.03  -0.04
    19   1    -0.05  -0.14   0.27     0.11   0.04  -0.21     0.14   0.11  -0.36
                      4                      5                      6
                      A                      A                      A
 Frequencies --    169.5608               212.9710               224.3294
 Red. masses --      2.5414                 1.6463                 1.8853
 Frc consts  --      0.0431                 0.0440                 0.0559
 IR Inten    --      2.6073                 0.8567                 0.9918
 Dip. str.   --     61.3448                16.0471                17.6385
 Rot. str.   --     -9.9933                 9.0007                -4.3306
 E-M angle   --    115.2145                66.0538               116.5886
  Atom  AN      X      Y      Z        X      Y      Z        X      Y      Z
     1   5    -0.01   0.00   0.04     0.02   0.01  -0.00    -0.06  -0.03   0.00
     2   9     0.08   0.12   0.03     0.04   0.08   0.01    -0.06  -0.05  -0.00
     3   9    -0.10  -0.06   0.01     0.05   0.05   0.01    -0.10  -0.06  -0.02
     4   9    -0.04   0.01  -0.03    -0.08  -0.02  -0.02     0.02  -0.01   0.01
     5   8     0.00  -0.05   0.13     0.02  -0.04  -0.00    -0.01   0.00  -0.01
     6   6     0.05  -0.03   0.02     0.04   0.01   0.01    -0.00   0.02  -0.01
     7   6    -0.01   0.10  -0.03     0.02   0.02  -0.02     0.01   0.04   0.01
     8   6     0.08   0.02  -0.07    -0.08  -0.06   0.04     0.14   0.03  -0.06
     9   6    -0.04  -0.12  -0.08    -0.03  -0.08  -0.03     0.08   0.08   0.06
    10   1     0.08  -0.09   0.04     0.04   0.07  -0.01    -0.02   0.04  -0.01
    11   1     0.09  -0.04  -0.06     0.07  -0.00   0.07     0.03   0.01   0.01
    12   1     0.00   0.02  -0.17     0.19   0.48   0.22     0.15   0.45   0.27
    13   1    -0.10   0.25  -0.07     0.21  -0.42   0.11     0.24  -0.35   0.12
    14   1     0.02   0.10   0.11    -0.37   0.08  -0.39    -0.30   0.09  -0.31
    15   1     0.25   0.19  -0.01    -0.17  -0.11   0.00     0.28   0.09  -0.01
    16   1     0.08   0.01  -0.29    -0.09  -0.02   0.14     0.15  -0.04  -0.21
    17   1     0.15  -0.03  -0.38    -0.04  -0.07  -0.05     0.16   0.06   0.08
    18   1    -0.31  -0.43  -0.14     0.02  -0.11  -0.01    -0.04   0.09   0.03
    19   1    -0.05   0.01   0.26    -0.04  -0.06  -0.07     0.08   0.11   0.17
                      7                      8                      9
                      A                      A                      A
 Frequencies --    271.7351               294.2121               309.4877
 Red. masses --      4.5535                 2.6595                 1.7935
 Frc consts  --      0.1981                 0.1356                 0.1012
 IR Inten    --      3.5262                 3.1712                 0.2210
 Dip. str.   --     51.7689                42.9999                 2.8483
 Rot. str.   --     -4.4414                 4.8963                 5.2770
 E-M angle   --    106.7992                68.2092                43.9896
  Atom  AN      X      Y      Z        X      Y      Z        X      Y      Z
     1   5     0.01  -0.07   0.03     0.05  -0.01  -0.03     0.01   0.00   0.01
     2   9     0.23   0.09  -0.02     0.06  -0.08  -0.07     0.03   0.05   0.01
     3   9     0.02  -0.16   0.06     0.16   0.04   0.02    -0.05  -0.06  -0.01
     4   9    -0.19  -0.14   0.08    -0.02  -0.05  -0.03     0.04  -0.00   0.08
     5   8    -0.02   0.01  -0.07    -0.06   0.00   0.00    -0.01   0.03  -0.08
     6   6    -0.03   0.06  -0.01    -0.12  -0.03   0.06    -0.01   0.00  -0.09
     7   6    -0.00   0.00  -0.00    -0.18   0.07   0.02     0.08  -0.06  -0.00
     8   6    -0.01   0.06  -0.13     0.02   0.01   0.01    -0.09  -0.01   0.04
     9   6    -0.03   0.19   0.01     0.05   0.06   0.04    -0.01   0.06   0.01
    10   1    -0.04   0.10  -0.02    -0.14  -0.06   0.07    -0.04  -0.03  -0.07
    11   1    -0.03   0.06   0.03    -0.11  -0.03   0.01    -0.04   0.01  -0.11
    12   1    -0.05  -0.08  -0.01    -0.10   0.15  -0.07     0.01  -0.08   0.13
    13   1    -0.03   0.05  -0.01    -0.23   0.07   0.03     0.19  -0.09  -0.02
    14   1     0.08  -0.01   0.02    -0.30   0.09   0.02     0.14  -0.07  -0.01
    15   1     0.07   0.07  -0.11     0.07   0.03   0.02    -0.20  -0.12   0.00
    16   1    -0.00   0.03  -0.20     0.04  -0.06  -0.04    -0.09  -0.01   0.18
    17   1    -0.20   0.07   0.42     0.42   0.13  -0.24     0.41   0.14  -0.31
    18   1     0.09   0.63   0.03    -0.22  -0.28  -0.03    -0.24  -0.34  -0.04
    19   1    -0.01   0.04  -0.21    -0.01   0.35   0.36    -0.09   0.41   0.31
                     10                     11                     12
                      A                      A                      A
 Frequencies --    318.6083               375.0059               419.9042
 Red. masses --      3.5268                 3.1233                 5.0988
 Frc consts  --      0.2109                 0.2588                 0.5297
 IR Inten    --      0.7464                 2.3234                 9.3872
 Dip. str.   --      9.3456                24.7169                89.1853
 Rot. str.   --      1.2561                -3.2311                 6.0497
 E-M angle   --     73.2093               116.4296                50.7424
  Atom  AN      X      Y      Z        X      Y      Z        X      Y      Z
     1   5     0.08   0.08   0.04    -0.02   0.04   0.03     0.07  -0.07   0.09
     2   9     0.09   0.09   0.03     0.05  -0.11  -0.07     0.04  -0.08   0.13
     3   9    -0.02  -0.01   0.02     0.04  -0.05   0.08    -0.06   0.19  -0.01
     4   9     0.19   0.10   0.07    -0.07   0.04  -0.05     0.05  -0.09  -0.18
     5   8    -0.07  -0.05  -0.04    -0.02   0.13   0.12    -0.06  -0.12   0.16
     6   6    -0.15  -0.19  -0.07    -0.05  -0.08  -0.14     0.07  -0.10  -0.03
     7   6    -0.12   0.00   0.03     0.08  -0.06  -0.01     0.09  -0.03  -0.02
     8   6    -0.01  -0.04  -0.08     0.02   0.17   0.09    -0.13   0.02  -0.10
     9   6    -0.04  -0.02  -0.03    -0.04  -0.02  -0.05    -0.09   0.23  -0.02
    10   1    -0.22  -0.39   0.02     0.02  -0.38  -0.04     0.11  -0.19  -0.00
    11   1    -0.18  -0.19  -0.31    -0.17  -0.07  -0.41     0.08  -0.11  -0.13
    12   1    -0.03   0.22   0.11     0.04   0.06   0.26     0.08  -0.00   0.06
    13   1     0.05  -0.08   0.01     0.34  -0.20  -0.02     0.19  -0.06  -0.04
    14   1    -0.35   0.05   0.01     0.02  -0.06  -0.06     0.08  -0.03   0.00
    15   1     0.03  -0.02  -0.06     0.02   0.24   0.10    -0.12   0.15  -0.09
    16   1    -0.00  -0.07  -0.12     0.02   0.17   0.05    -0.12  -0.04  -0.14
    17   1    -0.22  -0.08   0.21    -0.25   0.05  -0.19     0.20   0.16   0.15
    18   1     0.08   0.25  -0.00     0.04  -0.13  -0.02    -0.19   0.37  -0.06
    19   1    -0.00  -0.17  -0.20     0.01  -0.18  -0.08    -0.15   0.46   0.03
                     13                     14                     15
                      A                      A                      A
 Frequencies --    472.8905               493.3196               536.8803
 Red. masses --      8.2101                 6.5618                 3.8545
 Frc consts  --      1.0817                 0.9409                 0.6546
 IR Inten    --      5.6972                10.8324                10.9078
 Dip. str.   --     48.0625                87.5998                81.0530
 Rot. str.   --     -9.8955                19.3911                15.5229
 E-M angle   --    116.9820                48.3931                38.3589
  Atom  AN      X      Y      Z        X      Y      Z        X      Y      Z
     1   5    -0.13   0.05   0.21     0.07  -0.16   0.08     0.09   0.08   0.05
     2   9     0.23  -0.17  -0.05     0.09   0.03   0.26     0.01  -0.11   0.06
     3   9    -0.16   0.06   0.30    -0.10   0.13  -0.11    -0.10  -0.06  -0.01
     4   9     0.00   0.18  -0.21     0.02  -0.23  -0.10    -0.09   0.08  -0.03
     5   8    -0.07  -0.04  -0.19     0.04   0.18  -0.15     0.23   0.06  -0.14
     6   6    -0.04   0.17  -0.03    -0.17   0.09  -0.08     0.10  -0.17   0.13
     7   6     0.02   0.02   0.00    -0.09  -0.00   0.03    -0.06  -0.00   0.01
     8   6     0.01  -0.18  -0.04     0.11   0.11   0.11    -0.01   0.06  -0.01
     9   6     0.08  -0.10   0.05     0.05  -0.12   0.01    -0.06   0.07  -0.02
    10   1    -0.10   0.42  -0.11    -0.19  -0.02  -0.03     0.03  -0.25   0.17
    11   1     0.07   0.16   0.22    -0.23   0.10  -0.15    -0.05  -0.15  -0.03
    12   1    -0.10  -0.13   0.08    -0.14  -0.01   0.12     0.19   0.18  -0.35
    13   1     0.01   0.02   0.00    -0.03  -0.03   0.03    -0.31   0.09   0.04
    14   1     0.21  -0.03  -0.01    -0.05  -0.01  -0.01    -0.38   0.08   0.04
    15   1     0.02  -0.28  -0.03     0.11  -0.02   0.10    -0.21  -0.12  -0.08
    16   1     0.01  -0.18   0.00     0.11   0.12   0.12    -0.05   0.20   0.24
    17   1     0.16  -0.11   0.06    -0.25  -0.02  -0.22    -0.01   0.08  -0.05
    18   1     0.06  -0.11   0.04     0.14  -0.31   0.05    -0.14   0.05  -0.05
    19   1     0.05  -0.02   0.05     0.13  -0.39  -0.02    -0.06   0.10   0.06
                     16                     17                     18
                      A                      A                      A
 Frequencies --    616.0283               778.0152               811.1508
 Red. masses --      7.4210                 2.4934                 1.4419
 Frc consts  --      1.6593                 0.8892                 0.5590
 IR Inten    --    305.4458               229.8395                83.3836
 Dip. str.   --   1978.0666              1178.5393               410.0971
 Rot. str.   --    -44.6281               -72.3259                23.6283
 E-M angle   --    131.3070               108.4780                70.3981
  Atom  AN      X      Y      Z        X      Y      Z        X      Y      Z
     1   5     0.48   0.29   0.03     0.13   0.08   0.00    -0.09  -0.05  -0.00
     2   9    -0.00  -0.14   0.16    -0.04   0.04  -0.08     0.03  -0.02   0.05
     3   9     0.01  -0.10  -0.19    -0.06   0.02   0.09     0.04  -0.01  -0.05
     4   9    -0.18   0.13   0.01     0.02  -0.10  -0.01    -0.01   0.06   0.01
     5   8    -0.17  -0.07   0.03    -0.08  -0.05  -0.08     0.02   0.00   0.03
     6   6    -0.05   0.10  -0.06     0.05  -0.11   0.01    -0.04  -0.05  -0.05
     7   6     0.01   0.02  -0.01     0.03  -0.02  -0.02    -0.03  -0.03  -0.01
     8   6    -0.01  -0.05  -0.00     0.01   0.11   0.09     0.02  -0.00  -0.01
     9   6     0.05  -0.05   0.03    -0.01   0.04   0.01     0.00   0.00  -0.01
    10   1    -0.07   0.29  -0.14     0.12   0.35  -0.18     0.27   0.31  -0.25
    11   1     0.04   0.09   0.12     0.03  -0.07   0.47    -0.11   0.01   0.44
    12   1    -0.17  -0.11   0.24     0.13   0.13  -0.06     0.02   0.15   0.13
    13   1     0.17  -0.04  -0.02     0.18   0.20  -0.14     0.34   0.23  -0.21
    14   1     0.24  -0.03  -0.01    -0.18   0.06   0.28    -0.22   0.06   0.41
    15   1     0.16  -0.01   0.05     0.18   0.01   0.13    -0.11   0.01  -0.05
    16   1     0.04  -0.23  -0.22     0.04  -0.01  -0.12     0.01   0.04   0.13
    17   1     0.09  -0.07   0.06    -0.17   0.13  -0.23    -0.02  -0.01   0.04
    18   1     0.11  -0.05   0.05     0.16  -0.19   0.07    -0.11   0.06  -0.04
    19   1     0.04  -0.03  -0.02     0.02  -0.09  -0.11     0.02  -0.03   0.08
                     19                     20                     21
                      A                      A                      A
 Frequencies --    821.8877               877.6846               929.9799
 Red. masses --      1.2405                 2.6097                 2.4627
 Frc consts  --      0.4937                 1.1844                 1.2549
 IR Inten    --     27.3232                23.0223                20.9438
 Dip. str.   --    132.6253               104.6448                89.8442
 Rot. str.   --     21.3021                29.2751                -9.5908
 E-M angle   --     67.6153                57.1674                98.2633
  Atom  AN      X      Y      Z        X      Y      Z        X      Y      Z
     1   5     0.06   0.03  -0.00     0.12   0.08  -0.00    -0.02   0.02   0.00
     2   9    -0.02   0.01  -0.03    -0.05   0.02  -0.06     0.02  -0.00   0.02
     3   9    -0.02   0.01   0.03    -0.06   0.01   0.07     0.01   0.00  -0.02
     4   9     0.01  -0.04  -0.00     0.01  -0.10  -0.01     0.00  -0.02  -0.00
     5   8    -0.01  -0.02   0.02     0.13   0.12   0.07    -0.15   0.16  -0.01
     6   6    -0.01   0.02  -0.01    -0.02   0.03  -0.06     0.00  -0.06   0.09
     7   6    -0.01   0.01  -0.00    -0.08  -0.01   0.00     0.16  -0.04  -0.04
     8   6     0.06   0.03  -0.04    -0.05  -0.09  -0.07    -0.05  -0.04  -0.06
     9   6     0.04  -0.00  -0.02     0.01  -0.10   0.00     0.07  -0.09   0.02
    10   1    -0.02   0.01  -0.01     0.21   0.02  -0.10    -0.14  -0.00   0.10
    11   1     0.03   0.01  -0.01    -0.20   0.08  -0.01    -0.27   0.01   0.09
    12   1    -0.06  -0.03   0.06    -0.16   0.03   0.25     0.46   0.17  -0.48
    13   1     0.01  -0.03   0.01     0.20   0.06  -0.09    -0.10   0.14  -0.05
    14   1     0.06  -0.01  -0.03    -0.07   0.01   0.22    -0.20   0.05  -0.01
    15   1    -0.45  -0.01  -0.20     0.02   0.02  -0.04    -0.11   0.20  -0.07
    16   1     0.12  -0.12   0.47    -0.14   0.16  -0.15    -0.04  -0.06  -0.05
    17   1    -0.17  -0.03   0.10     0.44  -0.25   0.34     0.17  -0.18   0.25
    18   1    -0.39   0.15  -0.15     0.07   0.18   0.01    -0.07   0.09  -0.02
    19   1     0.15  -0.26   0.39    -0.11   0.30  -0.06     0.05  -0.01   0.16
                     22                     23                     24
                      A                      A                      A
 Frequencies --   1041.7591              1054.7296              1116.9170
 Red. masses --      3.1503                 2.3953                 2.1674
 Frc consts  --      2.0143                 1.5700                 1.5931
 IR Inten    --    104.5022                48.3660                 7.5406
 Dip. str.   --    400.1893               182.9392                26.9334
 Rot. str.   --    -20.5449                -8.6546               -42.1643
 E-M angle   --    105.2024               110.0064               128.4258
  Atom  AN      X      Y      Z        X      Y      Z        X      Y      Z
     1   5    -0.06   0.01   0.02    -0.02  -0.05  -0.00    -0.04   0.04  -0.02
     2   9     0.02  -0.00   0.02     0.01  -0.00   0.00     0.01  -0.01   0.01
     3   9     0.02  -0.00  -0.03     0.01   0.00  -0.01     0.00  -0.00  -0.00
     4   9    -0.00  -0.01  -0.00    -0.00   0.03   0.00     0.01  -0.02  -0.00
     5   8    -0.14   0.13  -0.06    -0.00  -0.10  -0.06     0.01   0.01  -0.03
     6   6     0.30  -0.09   0.02     0.01  -0.03  -0.03    -0.09  -0.09   0.20
     7   6    -0.16   0.03   0.04    -0.02   0.02   0.03     0.01   0.10  -0.18
     8   6    -0.04  -0.05  -0.03    -0.07   0.26   0.01     0.02   0.01   0.01
     9   6     0.05  -0.00   0.02     0.06  -0.15   0.03    -0.02  -0.01  -0.01
    10   1     0.41  -0.07  -0.02    -0.05   0.06  -0.06    -0.07  -0.09   0.20
    11   1     0.28  -0.10  -0.15     0.28  -0.10   0.05    -0.07  -0.10   0.18
    12   1    -0.40  -0.12   0.44    -0.07  -0.08   0.02    -0.25  -0.07   0.27
    13   1     0.06  -0.18   0.08    -0.08  -0.07   0.07     0.51  -0.11  -0.23
    14   1     0.12  -0.04   0.15     0.06  -0.01  -0.08     0.53  -0.02  -0.14
    15   1    -0.01   0.16  -0.01    -0.19   0.35  -0.03    -0.02  -0.02   0.00
    16   1    -0.02  -0.09  -0.07    -0.10   0.30  -0.08     0.02   0.03   0.04
    17   1    -0.09   0.01  -0.01     0.41  -0.29   0.37     0.07  -0.03   0.03
    18   1    -0.04  -0.07  -0.00     0.12   0.15   0.05     0.01   0.06  -0.00
    19   1     0.09  -0.14   0.08    -0.01   0.15   0.16    -0.05   0.09  -0.04
                     25                     26                     27
                      A                      A                      A
 Frequencies --   1128.3841              1163.3150              1174.9057
 Red. masses --      2.0880                 5.6478                 2.7509
 Frc consts  --      1.5664                 4.5032                 2.2373
 IR Inten    --      7.8805               317.8245               209.2301
 Dip. str.   --     27.8616              1089.9272               710.4420
 Rot. str.   --      3.3018               -93.9902               187.3166
 E-M angle   --     87.1396                98.3499                66.9620
  Atom  AN      X      Y      Z        X      Y      Z        X      Y      Z
     1   5    -0.04   0.06   0.00    -0.14   0.20   0.52     0.09  -0.17   0.23
     2   9     0.01  -0.01   0.01    -0.04   0.02  -0.10    -0.05   0.04  -0.08
     3   9     0.01  -0.00  -0.01     0.09  -0.04  -0.16     0.01  -0.00  -0.04
     4   9     0.01  -0.03  -0.00     0.03  -0.09  -0.03    -0.02   0.06  -0.00
     5   8    -0.03   0.03  -0.03    -0.02  -0.02   0.01     0.03  -0.02  -0.05
     6   6     0.01  -0.04  -0.05    -0.01  -0.01  -0.02    -0.01   0.07   0.06
     7   6     0.01   0.03   0.05     0.01   0.01   0.02    -0.02  -0.05  -0.05
     8   6     0.10  -0.05   0.18     0.09   0.03  -0.09    -0.09  -0.02   0.11
     9   6    -0.08  -0.02  -0.17    -0.07  -0.02   0.06     0.06   0.02  -0.08
    10   1    -0.07   0.18  -0.12    -0.02   0.10  -0.06     0.03  -0.20   0.16
    11   1     0.15  -0.07   0.14    -0.01  -0.01   0.04    -0.07   0.07  -0.17
    12   1    -0.01  -0.08  -0.07     0.01  -0.03  -0.04     0.03   0.13   0.08
    13   1    -0.17  -0.07   0.13    -0.09  -0.02   0.06     0.20   0.11  -0.17
    14   1     0.03   0.00  -0.13    -0.00   0.01  -0.06    -0.05  -0.01   0.18
    15   1     0.20   0.09   0.23    -0.20  -0.25  -0.19     0.24   0.27   0.23
    16   1     0.12  -0.10   0.06     0.04   0.21   0.36    -0.02  -0.23  -0.29
    17   1     0.13  -0.15   0.23     0.18   0.01  -0.09    -0.13  -0.05   0.17
    18   1    -0.30   0.46  -0.24     0.24  -0.11   0.15    -0.30   0.14  -0.18
    19   1    -0.17   0.34   0.02    -0.14   0.14  -0.27     0.12  -0.11   0.25
                     28                     29                     30
                      A                      A                      A
 Frequencies --   1202.3652              1209.0162              1325.1694
 Red. masses --      3.7337                 1.8807                 1.1035
 Frc consts  --      3.1802                 1.6197                 1.1417
 IR Inten    --    390.6535                27.1054                 8.0042
 Dip. str.   --   1296.1723                89.4398                24.0965
 Rot. str.   --      7.3992               -25.6151                11.0650
 E-M angle   --     89.0803               101.6022                68.4961
  Atom  AN      X      Y      Z        X      Y      Z        X      Y      Z
     1   5    -0.20   0.34  -0.05    -0.01   0.02  -0.05     0.00  -0.01  -0.00
     2   9     0.04  -0.04   0.06     0.01  -0.01   0.02    -0.00   0.00  -0.00
     3   9     0.02  -0.02  -0.02     0.00   0.00   0.01     0.00   0.00   0.00
     4   9     0.04  -0.11  -0.01     0.00  -0.00   0.00     0.00   0.01   0.00
     5   8     0.08  -0.09  -0.02    -0.07  -0.05  -0.03    -0.02  -0.03  -0.02
     6   6    -0.01   0.08   0.01     0.07   0.13   0.07    -0.02   0.00   0.01
     7   6    -0.01  -0.04  -0.01    -0.04  -0.11  -0.04     0.01   0.04   0.04
     8   6    -0.15   0.01   0.05     0.10   0.05   0.02    -0.00   0.04   0.00
     9   6     0.12   0.02  -0.02    -0.07  -0.04  -0.02    -0.01  -0.01  -0.01
    10   1     0.05  -0.10   0.07     0.03  -0.28   0.24     0.73  -0.18  -0.08
    11   1    -0.15   0.11  -0.19     0.01   0.12  -0.38    -0.51   0.13   0.00
    12   1     0.05   0.09   0.02     0.10   0.22   0.10     0.02  -0.04  -0.08
    13   1     0.05   0.09  -0.08     0.18   0.19  -0.22    -0.07  -0.03   0.09
    14   1    -0.10  -0.00   0.12    -0.21  -0.02   0.36     0.10   0.00  -0.18
    15   1     0.17   0.26   0.16    -0.05  -0.17  -0.04     0.04  -0.16   0.01
    16   1    -0.13  -0.09  -0.37     0.13  -0.01   0.23     0.08  -0.18   0.02
    17   1    -0.28   0.02   0.09     0.19  -0.07   0.01     0.04  -0.03   0.03
    18   1    -0.22  -0.03  -0.11     0.11   0.14   0.03     0.04   0.04   0.00
    19   1     0.20  -0.20   0.31    -0.16   0.22  -0.13    -0.02   0.02   0.04
                     31                     32                     33
                      A                      A                      A
 Frequencies --   1331.2181              1386.0666              1397.6189
 Red. masses --      1.0983                 1.2035                 1.2183
 Frc consts  --      1.1468                 1.3623                 1.4021
 IR Inten    --      2.7893                 1.8753                 6.6689
 Dip. str.   --      8.3591                 5.3976                19.0359
 Rot. str.   --      6.0551                 1.0071                -8.8920
 E-M angle   --     77.2496                83.5905               116.8913
  Atom  AN      X      Y      Z        X      Y      Z        X      Y      Z
     1   5    -0.00   0.01  -0.00    -0.00   0.02   0.00    -0.01   0.00  -0.00
     2   9    -0.00  -0.00   0.00     0.00  -0.00   0.00     0.00  -0.00   0.00
     3   9    -0.00  -0.00   0.00    -0.00  -0.00  -0.00     0.00  -0.00  -0.00
     4   9     0.00  -0.00   0.00    -0.00  -0.01  -0.00     0.00  -0.00   0.00
     5   8     0.04  -0.01  -0.02     0.01   0.04   0.00     0.01   0.01   0.01
     6   6    -0.00   0.01  -0.01    -0.06   0.01   0.01     0.02  -0.01  -0.01
     7   6    -0.01   0.00   0.01    -0.06  -0.03   0.07     0.03   0.01  -0.03
     8   6     0.02  -0.02  -0.00    -0.01   0.01  -0.01    -0.02   0.03  -0.01
     9   6    -0.05  -0.00   0.04    -0.02   0.02  -0.02    -0.07   0.06  -0.07
    10   1    -0.02  -0.00  -0.01     0.25  -0.01  -0.05    -0.15  -0.02   0.03
    11   1    -0.07   0.03   0.03     0.56  -0.16  -0.10    -0.03   0.01   0.09
    12   1     0.00   0.02   0.00     0.21   0.13  -0.35    -0.09  -0.04   0.19
    13   1     0.00   0.02  -0.01     0.35   0.15  -0.12    -0.18  -0.03   0.04
    14   1     0.02  -0.01  -0.02     0.20  -0.12  -0.23    -0.11   0.05   0.11
    15   1    -0.24   0.73  -0.04     0.02  -0.11  -0.01     0.15  -0.15   0.04
    16   1     0.20  -0.52   0.06     0.06  -0.20  -0.02     0.11  -0.30   0.10
    17   1     0.05   0.03  -0.08     0.08  -0.04   0.12     0.27  -0.14   0.41
    18   1     0.12  -0.06   0.09     0.11  -0.11   0.02     0.35  -0.35   0.07
    19   1    -0.09   0.06  -0.17     0.02  -0.09   0.08     0.07  -0.29   0.28
                     34                     35                     36
                      A                      A                      A
 Frequencies --   1418.5598              1440.5606              1461.5849
 Red. masses --      1.2873                 1.2884                 1.0409
 Frc consts  --      1.5263                 1.5753                 1.3101
 IR Inten    --     28.4817                10.8686                 5.3834
 Dip. str.   --     80.0988                30.0987                14.6939
 Rot. str.   --      7.4620                 3.9544                 0.6800
 E-M angle   --     75.3995                74.5769                88.1215
  Atom  AN      X      Y      Z        X      Y      Z        X      Y      Z
     1   5     0.00   0.01   0.00     0.02   0.00  -0.01     0.00  -0.00   0.00
     2   9    -0.00  -0.00   0.00    -0.00   0.00  -0.00    -0.00   0.00  -0.00
     3   9    -0.00  -0.00   0.00    -0.00   0.00   0.00     0.00   0.00  -0.00
     4   9    -0.00  -0.00  -0.00    -0.00  -0.00   0.00    -0.00   0.00   0.00
     5   8     0.00   0.03  -0.01    -0.03  -0.03  -0.03     0.00   0.00   0.00
     6   6    -0.10   0.00   0.04    -0.03   0.01   0.03    -0.01  -0.02  -0.01
     7   6     0.10  -0.02  -0.05     0.02   0.00   0.00    -0.02  -0.03  -0.02
     8   6    -0.01   0.00  -0.01     0.07  -0.08   0.04     0.02  -0.00   0.02
     9   6     0.01  -0.02   0.02    -0.02   0.07  -0.02     0.00   0.01  -0.00
    10   1     0.38  -0.10  -0.02     0.26   0.05  -0.05     0.04   0.07  -0.06
    11   1     0.50  -0.16  -0.03    -0.01  -0.01  -0.19    -0.01  -0.02  -0.02
    12   1    -0.14  -0.10   0.40    -0.02  -0.08  -0.01     0.22   0.57   0.25
    13   1    -0.38   0.18  -0.00     0.01   0.02  -0.01    -0.43   0.07   0.06
    14   1    -0.33   0.09  -0.01    -0.10   0.02  -0.05     0.52  -0.13   0.13
    15   1     0.01  -0.02  -0.01    -0.20   0.37  -0.03    -0.16  -0.04  -0.05
    16   1     0.03  -0.12  -0.02    -0.17   0.57  -0.03    -0.01   0.03  -0.15
    17   1    -0.05   0.03  -0.12     0.10  -0.06   0.32    -0.04  -0.01   0.05
    18   1    -0.07   0.10  -0.01    -0.05  -0.39  -0.02    -0.00  -0.06  -0.00
    19   1    -0.02   0.06  -0.07     0.04  -0.17  -0.11    -0.01   0.03  -0.00
                     37                     38                     39
                      A                      A                      A
 Frequencies --   1468.2136              1476.0565              1480.0189
 Red. masses --      1.0623                 1.0735                 1.0538
 Frc consts  --      1.3492                 1.3780                 1.3601
 IR Inten    --      7.0164                 1.4406                 4.0964
 Dip. str.   --     19.0648                 3.8935                11.0418
 Rot. str.   --     -6.2268                 0.3959                -0.7722
 E-M angle   --    116.9828                79.0475                97.5687
  Atom  AN      X      Y      Z        X      Y      Z        X      Y      Z
     1   5    -0.00   0.00   0.00    -0.00  -0.00   0.00     0.00  -0.01   0.01
     2   9    -0.00   0.00  -0.00     0.00   0.00   0.00    -0.00   0.00  -0.00
     3   9     0.00  -0.00  -0.00     0.00   0.00  -0.00     0.00  -0.00  -0.00
     4   9     0.00  -0.00  -0.00     0.00   0.00  -0.00    -0.00   0.00  -0.00
     5   8     0.00  -0.00  -0.00    -0.00  -0.00   0.00     0.00   0.00   0.00
     6   6    -0.01  -0.00   0.01     0.05  -0.01  -0.02    -0.00  -0.00   0.01
     7   6     0.00   0.00  -0.00    -0.01  -0.03   0.04     0.01   0.01  -0.00
     8   6     0.00  -0.03   0.03     0.01  -0.00   0.01     0.04  -0.02   0.02
     9   6    -0.05   0.01  -0.00    -0.00   0.00  -0.00    -0.00  -0.02  -0.04
    10   1     0.05   0.09  -0.04    -0.16  -0.11   0.07     0.01   0.11  -0.03
    11   1    -0.01  -0.01  -0.11    -0.15   0.05   0.18    -0.01  -0.01  -0.12
    12   1     0.01   0.02  -0.01    -0.09   0.01   0.27    -0.04  -0.09  -0.03
    13   1    -0.02  -0.04   0.02     0.00   0.61  -0.23     0.05  -0.03   0.00
    14   1     0.02   0.00   0.05    -0.05  -0.07  -0.60    -0.10   0.03   0.01
    15   1    -0.09   0.07   0.00    -0.08  -0.03  -0.02    -0.30  -0.03  -0.10
    16   1    -0.07   0.13  -0.12    -0.02   0.07  -0.09     0.00   0.02  -0.27
    17   1     0.40   0.11  -0.41     0.03   0.01  -0.02    -0.42   0.02   0.01
    18   1     0.25   0.47   0.06     0.04   0.03   0.01     0.44  -0.01   0.10
    19   1     0.12  -0.45   0.27     0.01  -0.04   0.05    -0.08   0.38   0.49
                     40                     41                     42
                      A                      A                      A
 Frequencies --   1497.9978              1504.4559              3063.2010
 Red. masses --      1.0808                 1.0950                 1.0363
 Frc consts  --      1.4289                 1.4602                 5.7293
 IR Inten    --     14.8987                17.4994                11.5838
 Dip. str.   --     39.6776                46.4036                15.0863
 Rot. str.   --     24.4094               -11.0559                -3.3767
 E-M angle   --     36.1021               111.8455                97.6691
  Atom  AN      X      Y      Z        X      Y      Z        X      Y      Z
     1   5     0.01  -0.00  -0.00    -0.01  -0.01  -0.00     0.00   0.00   0.00
     2   9    -0.00   0.00  -0.00     0.00   0.00   0.00    -0.00   0.00  -0.00
     3   9    -0.00   0.00   0.00     0.00   0.00   0.00    -0.00  -0.00   0.00
     4   9    -0.00   0.00   0.00    -0.00   0.00   0.00    -0.00  -0.00  -0.00
     5   8    -0.01  -0.01  -0.01     0.02  -0.00   0.01    -0.00   0.00   0.00
     6   6    -0.01  -0.01   0.01     0.01  -0.04   0.06     0.00   0.00  -0.00
     7   6    -0.00  -0.01   0.00     0.01  -0.01   0.00    -0.04  -0.01   0.03
     8   6    -0.03  -0.03  -0.06    -0.01   0.03  -0.00     0.00   0.00   0.00
     9   6     0.00  -0.01  -0.01     0.00  -0.01   0.01    -0.00   0.00  -0.00
    10   1     0.05   0.07  -0.04    -0.06   0.64  -0.21    -0.00  -0.00  -0.01
    11   1    -0.01  -0.01  -0.07    -0.17  -0.04  -0.61    -0.00  -0.01   0.00
    12   1     0.05   0.11   0.06    -0.05  -0.04   0.08     0.46  -0.27   0.19
    13   1    -0.07   0.10  -0.02     0.01   0.13  -0.06    -0.14  -0.20  -0.48
    14   1     0.11  -0.04  -0.07    -0.06  -0.00  -0.12     0.13   0.60  -0.05
    15   1     0.49   0.30   0.14     0.05  -0.11   0.01     0.01   0.00  -0.02
    16   1    -0.08   0.21   0.59     0.06  -0.17   0.02    -0.03  -0.01   0.00
    17   1    -0.17   0.02  -0.07     0.05  -0.02   0.03    -0.00  -0.00  -0.00
    18   1     0.21   0.06   0.05    -0.11  -0.02  -0.03    -0.00   0.00   0.00
    19   1    -0.02   0.14   0.25    -0.00  -0.01  -0.12     0.00   0.00  -0.00
                     43                     44                     45
                      A                      A                      A
 Frequencies --   3072.0641              3095.8548              3102.6947
 Red. masses --      1.0376                 1.0604                 1.0696
 Frc consts  --      5.7696                 5.9880                 6.0665
 IR Inten    --     12.9963                10.0483                34.0099
 Dip. str.   --     16.8771                12.9486                43.7294
 Rot. str.   --     -0.3999                 6.6132                -0.2804
 E-M angle   --     92.1282                74.9380                90.3750
  Atom  AN      X      Y      Z        X      Y      Z        X      Y      Z
     1   5     0.00   0.00   0.00     0.00   0.00  -0.00     0.00   0.00  -0.00
     2   9     0.00   0.00   0.00    -0.00  -0.00  -0.00    -0.00  -0.00  -0.00
     3   9    -0.00  -0.00  -0.00    -0.00   0.00   0.00    -0.00   0.00   0.00
     4   9    -0.00  -0.00  -0.00    -0.00  -0.00  -0.00     0.00  -0.00   0.00
     5   8     0.00   0.00   0.00     0.00  -0.00  -0.00    -0.00  -0.00  -0.00
     6   6    -0.00  -0.00  -0.00     0.00   0.00   0.02    -0.01  -0.00  -0.07
     7   6    -0.00  -0.00   0.00    -0.00   0.00  -0.00     0.01   0.00   0.01
     8   6     0.00   0.00   0.00    -0.03  -0.01  -0.06    -0.00  -0.00  -0.02
     9   6     0.02  -0.04   0.02     0.00   0.00   0.01     0.00   0.00   0.00
    10   1     0.00   0.00   0.00    -0.06  -0.11  -0.27     0.18   0.33   0.81
    11   1     0.00  -0.00  -0.00     0.02   0.09  -0.00    -0.07  -0.28   0.01
    12   1     0.00  -0.00   0.00     0.03  -0.02   0.01    -0.04   0.03  -0.02
    13   1    -0.00  -0.00   0.00     0.00   0.00   0.00    -0.03  -0.04  -0.09
    14   1     0.00   0.00  -0.00     0.00   0.01  -0.00    -0.00  -0.01   0.00
    15   1     0.01   0.00  -0.02    -0.24  -0.04   0.72    -0.09  -0.01   0.26
    16   1    -0.03  -0.01   0.00     0.53   0.19  -0.03     0.13   0.05  -0.01
    17   1     0.06   0.64   0.23    -0.01  -0.03  -0.01    -0.00  -0.02  -0.01
    18   1     0.16  -0.02  -0.55     0.03  -0.00  -0.08     0.01  -0.00  -0.03
    19   1    -0.43  -0.14   0.04    -0.04  -0.01   0.01    -0.01  -0.00   0.00
                     46                     47                     48
                      A                      A                      A
 Frequencies --   3146.1604              3155.1575              3159.0881
 Red. masses --      1.1023                 1.1012                 1.1032
 Frc consts  --      6.4288                 6.4591                 6.4869
 IR Inten    --     20.7915                15.3224                24.0798
 Dip. str.   --     26.3640                19.3737                30.4087
 Rot. str.   --    -14.0608                21.7040                11.0821
 E-M angle   --     98.5696                67.3063                83.2130
  Atom  AN      X      Y      Z        X      Y      Z        X      Y      Z
     1   5    -0.00  -0.00  -0.00    -0.00   0.00  -0.00     0.00  -0.00  -0.00
     2   9    -0.00   0.00  -0.00    -0.00  -0.00   0.00    -0.00  -0.00   0.00
     3   9     0.00   0.00   0.00    -0.00  -0.00   0.00    -0.00   0.00   0.00
     4   9     0.00   0.00   0.00     0.00  -0.00   0.00     0.00   0.00   0.00
     5   8    -0.00   0.00  -0.00    -0.00   0.00   0.00     0.00   0.00   0.00
     6   6     0.00   0.01   0.00     0.00   0.00  -0.00    -0.00   0.01  -0.01
     7   6     0.02  -0.09   0.01     0.01  -0.00   0.01    -0.05  -0.02  -0.07
     8   6     0.01   0.00  -0.00    -0.03  -0.01   0.01     0.02   0.01  -0.02
     9   6    -0.00   0.00   0.00     0.00  -0.05  -0.07    -0.01  -0.01  -0.01
    10   1    -0.01  -0.02  -0.04     0.00   0.00   0.01     0.01   0.03   0.07
    11   1    -0.02  -0.10   0.01    -0.00  -0.01   0.00    -0.02  -0.09   0.01
    12   1    -0.51   0.29  -0.21    -0.06   0.03  -0.02     0.40  -0.25   0.16
    13   1     0.05   0.06   0.18    -0.01  -0.02  -0.05     0.18   0.28   0.67
    14   1     0.17   0.71  -0.07     0.01   0.02  -0.00     0.03   0.18  -0.03
    15   1    -0.02  -0.00   0.05     0.03   0.00  -0.09    -0.06  -0.01   0.18
    16   1    -0.06  -0.02   0.00     0.28   0.10  -0.01    -0.20  -0.07   0.01
    17   1    -0.00  -0.02  -0.01     0.05   0.61   0.20     0.01   0.13   0.05
    18   1     0.01  -0.00  -0.03    -0.19   0.01   0.65    -0.02  -0.00   0.07
    19   1     0.01   0.00  -0.00     0.11   0.02  -0.02     0.14   0.04  -0.01
                     49                     50                     51
                      A                      A                      A
 Frequencies --   3160.3677              3187.0689              3216.6278
 Red. masses --      1.1060                 1.1048                 1.0994
 Frc consts  --      6.5083                 6.6116                 6.7020
 IR Inten    --      6.0856                17.8545                 4.3469
 Dip. str.   --      7.6820                22.3492                 5.3912
 Rot. str.   --    -15.0326                -0.0449                 1.0053
 E-M angle   --    142.5747                90.0487                79.9763
  Atom  AN      X      Y      Z        X      Y      Z        X      Y      Z
     1   5     0.00   0.00   0.00    -0.00   0.00   0.00     0.00  -0.00   0.00
     2   9    -0.00   0.00  -0.00     0.00  -0.00  -0.00     0.00   0.00   0.00
     3   9    -0.00  -0.00  -0.00     0.00  -0.00  -0.00     0.00   0.00  -0.00
     4   9     0.00   0.00   0.00     0.00  -0.00  -0.00    -0.00  -0.00  -0.00
     5   8     0.00  -0.00   0.00     0.00   0.00  -0.00     0.00   0.00  -0.00
     6   6     0.00   0.00  -0.01     0.00   0.00  -0.00    -0.02  -0.09  -0.02
     7   6    -0.02  -0.01  -0.02    -0.00  -0.00   0.00    -0.00  -0.01  -0.01
     8   6    -0.06  -0.02   0.04    -0.03  -0.01   0.02    -0.00  -0.00   0.00
     9   6     0.03   0.03   0.01    -0.07  -0.03   0.04    -0.00  -0.00   0.00
    10   1     0.01   0.02   0.06     0.00   0.00   0.01     0.05   0.10   0.27
    11   1    -0.02  -0.08   0.00    -0.01  -0.02   0.00     0.24   0.91  -0.06
    12   1     0.12  -0.07   0.04    -0.00   0.00  -0.00    -0.02   0.01  -0.01
    13   1     0.07   0.11   0.26     0.00   0.00   0.00     0.02   0.03   0.08
    14   1     0.03   0.13  -0.02     0.00   0.01  -0.00     0.03   0.10  -0.01
    15   1     0.14   0.03  -0.47     0.06   0.01  -0.21     0.00   0.00  -0.01
    16   1     0.61   0.22  -0.02     0.29   0.10  -0.01     0.02   0.01  -0.00
    17   1    -0.01  -0.23  -0.08     0.00   0.14   0.06    -0.00   0.00   0.00
    18   1     0.01   0.01  -0.03     0.11  -0.02  -0.43     0.00  -0.00  -0.00
    19   1    -0.35  -0.11   0.03     0.76   0.23  -0.06     0.01   0.00  -0.00

 -------------------
 - Thermochemistry -
 -------------------
 Temperature   298.150 Kelvin.  Pressure   1.00000 Atm.
 Atom     1 has atomic number  5 and mass  11.00931
 Atom     2 has atomic number  9 and mass  18.99840
 Atom     3 has atomic number  9 and mass  18.99840
 Atom     4 has atomic number  9 and mass  18.99840
 Atom     5 has atomic number  8 and mass  15.99491
 Atom     6 has atomic number  6 and mass  12.00000
 Atom     7 has atomic number  6 and mass  12.00000
 Atom     8 has atomic number  6 and mass  12.00000
 Atom     9 has atomic number  6 and mass  12.00000
 Atom    10 has atomic number  1 and mass   1.00783
 Atom    11 has atomic number  1 and mass   1.00783
 Atom    12 has atomic number  1 and mass   1.00783
 Atom    13 has atomic number  1 and mass   1.00783
 Atom    14 has atomic number  1 and mass   1.00783
 Atom    15 has atomic number  1 and mass   1.00783
 Atom    16 has atomic number  1 and mass   1.00783
 Atom    17 has atomic number  1 and mass   1.00783
 Atom    18 has atomic number  1 and mass   1.00783
 Atom    19 has atomic number  1 and mass   1.00783
 Molecular mass:   142.07768 amu.
 Principal axes and moments of inertia in atomic units:
                           1         2         3
     Eigenvalues --  1028.498691277.953031798.01607
           X            0.98986  -0.14199  -0.00380
           Y            0.14196   0.98985  -0.00588
           Z            0.00460   0.00528   0.99998
 This molecule is an asymmetric top.
 Rotational symmetry number  1.
 Warning -- assumption of classical behavior for rotation
           may cause significant error
 Rotational temperatures (Kelvin)      0.08421     0.06778     0.04817
 Rotational constants (GHZ):           1.75473     1.41221     1.00374
 Zero-point vibrational energy     399064.0 (Joules/Mol)
                                   95.37859 (Kcal/Mol)
 Warning -- explicit consideration of  16 degrees of freedom as
           vibrations may cause significant error
 Vibrational temperatures:     33.01    72.47   106.66   243.96   306.42
          (Kelvin)            322.76   390.97   423.31   445.28   458.41
                              539.55   604.15   680.38   709.78   772.45
                              886.33  1119.39  1167.07  1182.51  1262.79
                             1338.03  1498.86  1517.52  1606.99  1623.49
                             1673.75  1690.43  1729.94  1739.50  1906.62
                             1915.33  1994.24  2010.86  2040.99  2072.65
                             2102.89  2112.43  2123.72  2129.42  2155.28
                             2164.58  4407.26  4420.02  4454.24  4464.09
                             4526.62  4539.57  4545.22  4547.06  4585.48
                             4628.01
 
 Zero-point correction=                           0.151995 (Hartree/Particle)
 Thermal correction to Energy=                    0.162750
 Thermal correction to Enthalpy=                  0.163695
 Thermal correction to Gibbs Free Energy=         0.114663
 Sum of electronic and zero-point Energies=           -557.993973
 Sum of electronic and thermal Energies=              -557.983218
 Sum of electronic and thermal Enthalpies=            -557.982274
 Sum of electronic and thermal Free Energies=         -558.031306
 
                     E (Thermal)             CV                S
                      KCal/Mol        Cal/Mol-Kelvin    Cal/Mol-Kelvin
 Total                  102.127             37.909            103.196
 Electronic               0.000              0.000              0.000
 Translational            0.889              2.981             40.765
 Rotational               0.889              2.981             29.248
 Vibrational            100.350             31.948             33.183
 Vibration     1          0.593              1.985              6.362
 Vibration     2          0.595              1.977              4.803
 Vibration     3          0.599              1.966              4.041
 Vibration     4          0.625              1.880              2.440
 Vibration     5          0.644              1.821              2.018
 Vibration     6          0.649              1.804              1.924
 Vibration     7          0.675              1.725              1.585
 Vibration     8          0.689              1.685              1.450
 Vibration     9          0.699              1.656              1.365
 Vibration    10          0.705              1.638              1.317
 Vibration    11          0.746              1.523              1.059
 Vibration    12          0.783              1.427              0.892
 Vibration    13          0.830              1.310              0.729
 Vibration    14          0.849              1.265              0.675
 Vibration    15          0.892              1.168              0.572
 Vibration    16          0.976              0.998              0.423
                       Q            Log10(Q)             Ln(Q)
 Total Bot       0.181461D-52        -52.741218       -121.441142
 Total V=0       0.148517D+18         17.171775         39.539473
 Vib (Bot)       0.495379D-66        -66.305062       -152.673048
 Vib (Bot)    1  0.902803D+01          0.955593          2.200334
 Vib (Bot)    2  0.410392D+01          0.613199          1.411944
 Vib (Bot)    3  0.278056D+01          0.444132          1.022651
 Vib (Bot)    4  0.118869D+01          0.075067          0.172849
 Vib (Bot)    5  0.931479D+00         -0.030827         -0.070981
 Vib (Bot)    6  0.880141D+00         -0.055448         -0.127673
 Vib (Bot)    7  0.710581D+00         -0.148386         -0.341672
 Vib (Bot)    8  0.648482D+00         -0.188102         -0.433120
 Vib (Bot)    9  0.611167D+00         -0.213840         -0.492384
 Vib (Bot)   10  0.590500D+00         -0.228780         -0.526785
 Vib (Bot)   11  0.483816D+00         -0.315319         -0.726050
 Vib (Bot)   12  0.418195D+00         -0.378621         -0.871807
 Vib (Bot)   13  0.355817D+00         -0.448773         -1.033338
 Vib (Bot)   14  0.335127D+00         -0.474791         -1.093246
 Vib (Bot)   15  0.295972D+00         -0.528749         -1.217489
 Vib (Bot)   16  0.238387D+00         -0.622718         -1.433861
 Vib (V=0)       0.405444D+04          3.607930          8.307567
 Vib (V=0)    1  0.954187D+01          0.979633          2.255689
 Vib (V=0)    2  0.463427D+01          0.665981          1.533479
 Vib (V=0)    3  0.332515D+01          0.521812          1.201516
 Vib (V=0)    4  0.178956D+01          0.252747          0.581972
 Vib (V=0)    5  0.155719D+01          0.192342          0.442884
 Vib (V=0)    6  0.151225D+01          0.179623          0.413598
 Vib (V=0)    7  0.136886D+01          0.136361          0.313982
 Vib (V=0)    8  0.131886D+01          0.120198          0.276767
 Vib (V=0)    9  0.128964D+01          0.110467          0.254360
 Vib (V=0)   10  0.127375D+01          0.105085          0.241966
 Vib (V=0)   11  0.119576D+01          0.077643          0.178780
 Vib (V=0)   12  0.115183D+01          0.061390          0.141355
 Vib (V=0)   13  0.111368D+01          0.046761          0.107672
 Vib (V=0)   14  0.110192D+01          0.042151          0.097056
 Vib (V=0)   15  0.108103D+01          0.033839          0.077917
 Vib (V=0)   16  0.105392D+01          0.022808          0.052517
 Electronic      0.100000D+01          0.000000          0.000000
 Translational   0.665645D+08          7.823243         18.013682
 Rotational      0.550303D+06          5.740602         13.218224
 ***** Axes restored to original set *****
 -------------------------------------------------------------------
 Center     Atomic                   Forces (Hartrees/Bohr)
 Number     Number              X              Y              Z
 -------------------------------------------------------------------
      1        5          -0.000001606    0.000007546   -0.000002747
      2        9          -0.000002338   -0.000002399    0.000003135
      3        9           0.000000946   -0.000001191    0.000002407
      4        9           0.000003884   -0.000004444    0.000003310
      5        8          -0.000013293   -0.000024868   -0.000002100
      6        6           0.000008210    0.000016742   -0.000000211
      7        6          -0.000000931   -0.000001539   -0.000001939
      8        6           0.000007022    0.000009110    0.000000494
      9        6           0.000000717    0.000000653    0.000000769
     10        1           0.000001277   -0.000002317    0.000001090
     11        1          -0.000001021   -0.000001222    0.000000374
     12        1           0.000001949    0.000000099    0.000001083
     13        1           0.000000800   -0.000000046    0.000000281
     14        1           0.000000516    0.000001612   -0.000001466
     15        1          -0.000000237   -0.000000219   -0.000000070
     16        1          -0.000000548    0.000000246   -0.000000942
     17        1          -0.000000324    0.000000525   -0.000000610
     18        1          -0.000001716    0.000001878   -0.000000831
     19        1          -0.000003308   -0.000000168   -0.000002025
 -------------------------------------------------------------------
 Cartesian Forces:  Max     0.000024868 RMS     0.000005089
 FormGI is forming the generalized inverse of G from B-inverse, IUseBI=4.

 GradGradGradGradGradGradGradGradGradGradGradGradGradGradGradGradGradGrad
 Berny optimization.
 Internal  Forces:  Max     0.000012609 RMS     0.000002464
 Search for a local minimum.
 Step number   1 out of a maximum of    2
 All quantities printed in internal units (Hartrees-Bohrs-Radians)
 Second derivative matrix not updated -- analytic derivatives used.
 ITU=  0
     Eigenvalues ---    0.00062   0.00150   0.00244   0.00315   0.00405
     Eigenvalues ---    0.01038   0.04156   0.04157   0.04204   0.04330
     Eigenvalues ---    0.04374   0.04402   0.05070   0.05400   0.06343
     Eigenvalues ---    0.07887   0.08726   0.10077   0.10244   0.11861
     Eigenvalues ---    0.12242   0.12404   0.12542   0.12976   0.13630
     Eigenvalues ---    0.15546   0.16187   0.16477   0.18575   0.20076
     Eigenvalues ---    0.22989   0.25132   0.27660   0.30262   0.31060
     Eigenvalues ---    0.31931   0.32452   0.33757   0.34352   0.34426
     Eigenvalues ---    0.34501   0.34659   0.34887   0.34927   0.35044
     Eigenvalues ---    0.35235   0.35474   0.35780   0.40052   0.41144
     Eigenvalues ---    0.42676
 Angle between quadratic step and forces=  79.37 degrees.
 Linear search not attempted -- first point.
 Iteration  1 RMS(Cart)=  0.00016877 RMS(Int)=  0.00000002
 Iteration  2 RMS(Cart)=  0.00000002 RMS(Int)=  0.00000000
 Variable       Old X    -DE/DX   Delta X   Delta X   Delta X     New X
                                 (Linear)    (Quad)   (Total)
    R1        2.60456  -0.00000   0.00000  -0.00001  -0.00001   2.60455
    R2        2.61686   0.00000   0.00000  -0.00000  -0.00000   2.61686
    R3        2.60950  -0.00000   0.00000  -0.00000  -0.00000   2.60950
    R4        3.07209  -0.00000   0.00000   0.00002   0.00002   3.07211
    R5        2.76646  -0.00001   0.00000  -0.00008  -0.00008   2.76639
    R6        2.76732   0.00001   0.00000   0.00004   0.00004   2.76736
    R7        2.85685   0.00000   0.00000   0.00001   0.00001   2.85686
    R8        2.07238   0.00000   0.00000   0.00000   0.00000   2.07239
    R9        2.05962   0.00000   0.00000   0.00001   0.00001   2.05963
   R10        2.07414   0.00000   0.00000   0.00000   0.00000   2.07414
   R11        2.07154  -0.00000   0.00000  -0.00000  -0.00000   2.07154
   R12        2.07379  -0.00000   0.00000   0.00000   0.00000   2.07379
   R13        2.85394  -0.00000   0.00000  -0.00001  -0.00001   2.85393
   R14        2.07265   0.00000   0.00000  -0.00000  -0.00000   2.07265
   R15        2.06827  -0.00000   0.00000  -0.00000  -0.00000   2.06827
   R16        2.07444   0.00000   0.00000   0.00000   0.00000   2.07444
   R17        2.07092  -0.00000   0.00000  -0.00000  -0.00000   2.07092
   R18        2.06660   0.00000   0.00000   0.00000   0.00000   2.06660
    A1        1.98419   0.00000   0.00000  -0.00000  -0.00000   1.98419
    A2        1.97101   0.00000   0.00000   0.00002   0.00002   1.97103
    A3        1.83305   0.00000   0.00000   0.00000   0.00000   1.83305
    A4        1.98395   0.00000   0.00000   0.00001   0.00001   1.98396
    A5        1.83739  -0.00000   0.00000  -0.00001  -0.00001   1.83739
    A6        1.83488  -0.00001   0.00000  -0.00004  -0.00004   1.83484
    A7        2.07032   0.00000   0.00000   0.00011   0.00011   2.07043
    A8        2.04334  -0.00000   0.00000  -0.00003  -0.00003   2.04331
    A9        1.95901  -0.00000   0.00000   0.00002   0.00002   1.95903
   A10        1.91897   0.00000   0.00000   0.00002   0.00002   1.91900
   A11        1.87130   0.00000   0.00000   0.00003   0.00003   1.87134
   A12        1.84973  -0.00000   0.00000   0.00000   0.00000   1.84973
   A13        1.96890  -0.00000   0.00000  -0.00001  -0.00001   1.96889
   A14        1.94854  -0.00000   0.00000  -0.00002  -0.00002   1.94852
   A15        1.90103   0.00000   0.00000  -0.00002  -0.00002   1.90101
   A16        1.89747  -0.00000   0.00000  -0.00000  -0.00000   1.89747
   A17        1.92676   0.00000   0.00000   0.00001   0.00001   1.92677
   A18        1.95613  -0.00000   0.00000  -0.00001  -0.00001   1.95612
   A19        1.89532   0.00000   0.00000   0.00001   0.00001   1.89533
   A20        1.88481   0.00000   0.00000   0.00000   0.00000   1.88481
   A21        1.90197  -0.00000   0.00000  -0.00001  -0.00001   1.90196
   A22        1.95635   0.00001   0.00000   0.00002   0.00002   1.95637
   A23        1.86812  -0.00000   0.00000  -0.00003  -0.00003   1.86809
   A24        1.83796  -0.00000   0.00000  -0.00001  -0.00001   1.83795
   A25        1.95849  -0.00000   0.00000  -0.00000  -0.00000   1.95849
   A26        1.92804  -0.00000   0.00000   0.00002   0.00002   1.92805
   A27        1.90999   0.00000   0.00000   0.00000   0.00000   1.90999
   A28        1.87411  -0.00000   0.00000  -0.00002  -0.00002   1.87409
   A29        1.93587   0.00000   0.00000   0.00002   0.00002   1.93589
   A30        1.95631  -0.00000   0.00000  -0.00001  -0.00001   1.95631
   A31        1.89678  -0.00000   0.00000   0.00000   0.00000   1.89678
   A32        1.89394   0.00000   0.00000   0.00001   0.00001   1.89395
   A33        1.90531  -0.00000   0.00000  -0.00001  -0.00001   1.90530
    D1       -2.51610   0.00000   0.00000   0.00034   0.00034  -2.51576
    D2        1.32798   0.00000   0.00000   0.00020   0.00020   1.32818
    D3        1.66750  -0.00000   0.00000   0.00034   0.00034   1.66784
    D4       -0.77160  -0.00000   0.00000   0.00021   0.00021  -0.77140
    D5       -0.43267   0.00000   0.00000   0.00035   0.00035  -0.43232
    D6       -2.87177   0.00000   0.00000   0.00021   0.00021  -2.87156
    D7        2.24976   0.00000   0.00000  -0.00013  -0.00013   2.24963
    D8       -1.88714   0.00000   0.00000  -0.00012  -0.00012  -1.88726
    D9        0.14135   0.00000   0.00000  -0.00013  -0.00013   0.14122
   D10       -1.56258  -0.00000   0.00000  -0.00002  -0.00002  -1.56260
   D11        0.58371  -0.00000   0.00000  -0.00000  -0.00000   0.58370
   D12        2.61219  -0.00000   0.00000  -0.00001  -0.00001   2.61218
   D13       -1.03016   0.00000   0.00000   0.00012   0.00012  -1.03005
   D14        1.12431   0.00000   0.00000   0.00011   0.00011   1.12441
   D15       -3.12729  -0.00000   0.00000   0.00009   0.00009  -3.12720
   D16        2.77099  -0.00000   0.00000  -0.00005  -0.00005   2.77094
   D17       -1.35772  -0.00000   0.00000  -0.00006  -0.00006  -1.35778
   D18        0.67387  -0.00000   0.00000  -0.00008  -0.00008   0.67379
   D19       -3.13760   0.00000   0.00000  -0.00012  -0.00012  -3.13771
   D20       -1.06026   0.00000   0.00000  -0.00010  -0.00010  -1.06036
   D21        1.06343   0.00000   0.00000  -0.00011  -0.00011   1.06332
   D22        1.05780  -0.00000   0.00000  -0.00016  -0.00016   1.05764
   D23        3.13514  -0.00000   0.00000  -0.00014  -0.00014   3.13500
   D24       -1.02435  -0.00000   0.00000  -0.00016  -0.00016  -1.02451
   D25       -1.08977  -0.00000   0.00000  -0.00011  -0.00011  -1.08988
   D26        0.98756   0.00000   0.00000  -0.00009  -0.00009   0.98747
   D27        3.11126  -0.00000   0.00000  -0.00010  -0.00010   3.11115
   D28       -3.02304  -0.00000   0.00000  -0.00020  -0.00020  -3.02324
   D29       -0.95289  -0.00000   0.00000  -0.00020  -0.00020  -0.95309
   D30        1.18172  -0.00000   0.00000  -0.00020  -0.00020   1.18152
   D31        1.15734  -0.00000   0.00000  -0.00018  -0.00018   1.15717
   D32       -3.05570  -0.00000   0.00000  -0.00017  -0.00017  -3.05587
   D33       -0.92108  -0.00000   0.00000  -0.00017  -0.00017  -0.92125
   D34       -0.97920   0.00000   0.00000  -0.00019  -0.00019  -0.97939
   D35        1.09095   0.00000   0.00000  -0.00019  -0.00019   1.09076
   D36       -3.05762  -0.00000   0.00000  -0.00019  -0.00019  -3.05781
         Item               Value     Threshold  Converged?
 Maximum Force            0.000013     0.000450     YES
 RMS     Force            0.000002     0.000300     YES
 Maximum Displacement     0.000743     0.001800     YES
 RMS     Displacement     0.000169     0.001200     YES
 Predicted change in Energy=-2.184081D-09
 Optimization completed.
    -- Stationary point found.
                           ----------------------------
                           !   Optimized Parameters   !
                           ! (Angstroms and Degrees)  !
 --------------------------                            --------------------------
 ! Name  Definition              Value          Derivative Info.                !
 --------------------------------------------------------------------------------
 ! R1    R(1,2)                  1.3783         -DE/DX =    0.0                 !
 ! R2    R(1,3)                  1.3848         -DE/DX =    0.0                 !
 ! R3    R(1,4)                  1.3809         -DE/DX =    0.0                 !
 ! R4    R(1,5)                  1.6257         -DE/DX =    0.0                 !
 ! R5    R(5,6)                  1.464          -DE/DX =    0.0                 !
 ! R6    R(5,8)                  1.4644         -DE/DX =    0.0                 !
 ! R7    R(6,7)                  1.5118         -DE/DX =    0.0                 !
 ! R8    R(6,10)                 1.0967         -DE/DX =    0.0                 !
 ! R9    R(6,11)                 1.0899         -DE/DX =    0.0                 !
 ! R10   R(7,12)                 1.0976         -DE/DX =    0.0                 !
 ! R11   R(7,13)                 1.0962         -DE/DX =    0.0                 !
 ! R12   R(7,14)                 1.0974         -DE/DX =    0.0                 !
 ! R13   R(8,9)                  1.5102         -DE/DX =    0.0                 !
 ! R14   R(8,15)                 1.0968         -DE/DX =    0.0                 !
 ! R15   R(8,16)                 1.0945         -DE/DX =    0.0                 !
 ! R16   R(9,17)                 1.0977         -DE/DX =    0.0                 !
 ! R17   R(9,18)                 1.0959         -DE/DX =    0.0                 !
 ! R18   R(9,19)                 1.0936         -DE/DX =    0.0                 !
 ! A1    A(2,1,3)              113.6859         -DE/DX =    0.0                 !
 ! A2    A(2,1,4)              112.9303         -DE/DX =    0.0                 !
 ! A3    A(2,1,5)              105.026          -DE/DX =    0.0                 !
 ! A4    A(3,1,4)              113.6719         -DE/DX =    0.0                 !
 ! A5    A(3,1,5)              105.2749         -DE/DX =    0.0                 !
 ! A6    A(4,1,5)              105.1308         -DE/DX =    0.0                 !
 ! A7    A(1,5,6)              118.6206         -DE/DX =    0.0                 !
 ! A8    A(1,5,8)              117.0745         -DE/DX =    0.0                 !
 ! A9    A(6,5,8)              112.243          -DE/DX =    0.0                 !
 ! A10   A(5,6,7)              109.949          -DE/DX =    0.0                 !
 ! A11   A(5,6,10)             107.2178         -DE/DX =    0.0                 !
 ! A12   A(5,6,11)             105.9815         -DE/DX =    0.0                 !
 ! A13   A(7,6,10)             112.8098         -DE/DX =    0.0                 !
 ! A14   A(7,6,11)             111.6429         -DE/DX =    0.0                 !
 ! A15   A(10,6,11)            108.9209         -DE/DX =    0.0                 !
 ! A16   A(6,7,12)             108.7173         -DE/DX =    0.0                 !
 ! A17   A(6,7,13)             110.3951         -DE/DX =    0.0                 !
 ! A18   A(6,7,14)             112.0779         -DE/DX =    0.0                 !
 ! A19   A(12,7,13)            108.594          -DE/DX =    0.0                 !
 ! A20   A(12,7,14)            107.9918         -DE/DX =    0.0                 !
 ! A21   A(13,7,14)            108.9751         -DE/DX =    0.0                 !
 ! A22   A(5,8,9)              112.0906         -DE/DX =    0.0                 !
 ! A23   A(5,8,15)             107.0354         -DE/DX =    0.0                 !
 ! A24   A(5,8,16)             105.3072         -DE/DX =    0.0                 !
 ! A25   A(9,8,15)             112.2134         -DE/DX =    0.0                 !
 ! A26   A(9,8,16)             110.4683         -DE/DX =    0.0                 !
 ! A27   A(15,8,16)            109.4343         -DE/DX =    0.0                 !
 ! A28   A(8,9,17)             107.3786         -DE/DX =    0.0                 !
 ! A29   A(8,9,18)             110.9173         -DE/DX =    0.0                 !
 ! A30   A(8,9,19)             112.0886         -DE/DX =    0.0                 !
 ! A31   A(17,9,18)            108.6776         -DE/DX =    0.0                 !
 ! A32   A(17,9,19)            108.5147         -DE/DX =    0.0                 !
 ! A33   A(18,9,19)            109.166          -DE/DX =    0.0                 !
 ! D1    D(2,1,5,6)           -144.1622         -DE/DX =    0.0                 !
 ! D2    D(2,1,5,8)             76.0877         -DE/DX =    0.0                 !
 ! D3    D(3,1,5,6)             95.5407         -DE/DX =    0.0                 !
 ! D4    D(3,1,5,8)            -44.2095         -DE/DX =    0.0                 !
 ! D5    D(4,1,5,6)            -24.7903         -DE/DX =    0.0                 !
 ! D6    D(4,1,5,8)           -164.5404         -DE/DX =    0.0                 !
 ! D7    D(1,5,6,7)            128.9017         -DE/DX =    0.0                 !
 ! D8    D(1,5,6,10)          -108.125          -DE/DX =    0.0                 !
 ! D9    D(1,5,6,11)             8.0986         -DE/DX =    0.0                 !
 ! D10   D(8,5,6,7)            -89.5292         -DE/DX =    0.0                 !
 ! D11   D(8,5,6,10)            33.4441         -DE/DX =    0.0                 !
 ! D12   D(8,5,6,11)           149.6677         -DE/DX =    0.0                 !
 ! D13   D(1,5,8,9)            -59.024          -DE/DX =    0.0                 !
 ! D14   D(1,5,8,15)            64.418          -DE/DX =    0.0                 !
 ! D15   D(1,5,8,16)          -179.1804         -DE/DX =    0.0                 !
 ! D16   D(6,5,8,9)            158.7661         -DE/DX =    0.0                 !
 ! D17   D(6,5,8,15)           -77.7918         -DE/DX =    0.0                 !
 ! D18   D(6,5,8,16)            38.6097         -DE/DX =    0.0                 !
 ! D19   D(5,6,7,12)          -179.7711         -DE/DX =    0.0                 !
 ! D20   D(5,6,7,13)           -60.7486         -DE/DX =    0.0                 !
 ! D21   D(5,6,7,14)            60.9303         -DE/DX =    0.0                 !
 ! D22   D(10,6,7,12)           60.6077         -DE/DX =    0.0                 !
 ! D23   D(10,6,7,13)          179.6302         -DE/DX =    0.0                 !
 ! D24   D(10,6,7,14)          -58.6909         -DE/DX =    0.0                 !
 ! D25   D(11,6,7,12)          -62.4395         -DE/DX =    0.0                 !
 ! D26   D(11,6,7,13)           56.583          -DE/DX =    0.0                 !
 ! D27   D(11,6,7,14)          178.2619         -DE/DX =    0.0                 !
 ! D28   D(5,8,9,17)          -173.2075         -DE/DX =    0.0                 !
 ! D29   D(5,8,9,18)           -54.5968         -DE/DX =    0.0                 !
 ! D30   D(5,8,9,19)            67.7077         -DE/DX =    0.0                 !
 ! D31   D(15,8,9,17)           66.3109         -DE/DX =    0.0                 !
 ! D32   D(15,8,9,18)         -175.0785         -DE/DX =    0.0                 !
 ! D33   D(15,8,9,19)          -52.7739         -DE/DX =    0.0                 !
 ! D34   D(16,8,9,17)          -56.1038         -DE/DX =    0.0                 !
 ! D35   D(16,8,9,18)           62.5068         -DE/DX =    0.0                 !
 ! D36   D(16,8,9,19)         -175.1887         -DE/DX =    0.0                 !
 --------------------------------------------------------------------------------
 GradGradGradGradGradGradGradGradGradGradGradGradGradGradGradGradGradGrad


 ----------------------------------------------------------------------

 Electric dipole moment (input orientation):
 (Debye = 10**-18 statcoulomb cm , SI units = C m)
                  (au)            (Debye)         (10**-30 SI)
   Tot        0.272898D+01      0.693637D+01      0.231372D+02
   x          0.232607D+01      0.591227D+01      0.197212D+02
   y         -0.123633D+01     -0.314245D+01     -0.104821D+02
   z          0.712884D+00      0.181197D+01      0.604408D+01

 Dipole polarizability, Alpha (input orientation).
 (esu units = cm**3 , SI units = C**2 m**2 J**-1)
 Alpha(0;0):
               (au)            (10**-24 esu)      (10**-40 SI)
   iso        0.799163D+02      0.118424D+02      0.131764D+02
   aniso      0.112806D+02      0.167161D+01      0.185991D+01
   xx         0.789675D+02      0.117018D+02      0.130200D+02
   yx         0.901021D+00      0.133517D+00      0.148558D+00
   yy         0.865070D+02      0.128190D+02      0.142631D+02
   zx         0.906606D+00      0.134345D+00      0.149479D+00
   zy         0.164299D+01      0.243466D+00      0.270893D+00
   zz         0.742745D+02      0.110063D+02      0.122462D+02

 ----------------------------------------------------------------------

 Dipole orientation:
     5         -0.69927674         -0.14380060         -3.56937053
     9          1.57783633          0.69679893         -4.51375989
     9         -2.66831557          1.54484227         -3.91479291
     9         -1.26807819         -2.58149180         -4.30668405
     8         -0.29134594         -0.30032980         -0.52851498
     6         -1.52456040         -2.34367231          0.87050641
     6          0.38550690         -3.69215149          2.51209924
     6         -0.31205089          2.08770840          0.86966817
     6          1.71229393          3.88182737         -0.04035175
     1         -3.06671005         -1.49473990          1.96405805
     1         -2.32658158         -3.60036834         -0.55058956
     1         -0.57624275         -5.21829862          3.53580955
     1          1.88306436         -4.52093010          1.34516811
     1          1.24418838         -2.42450149          3.91079216
     1         -2.21383105          2.88857215          0.67546821
     1          0.01715714          1.56725933          2.84413147
     1          1.71976959          5.51060807          1.24428998
     1          3.57713475          2.98308014          0.01737916
     1          1.34500038          4.55992720         -1.95766604

 Electric dipole moment (dipole orientation):
 (Debye = 10**-18 statcoulomb cm , SI units = C m)
                  (au)            (Debye)         (10**-30 SI)
   Tot        0.272898D+01      0.693637D+01      0.231372D+02
   x          0.000000D+00      0.000000D+00      0.000000D+00
   y          0.000000D+00      0.000000D+00      0.000000D+00
   z          0.272898D+01      0.693637D+01      0.231372D+02

 Dipole polarizability, Alpha (dipole orientation).
 (esu units = cm**3 , SI units = C**2 m**2 J**-1)
 Alpha(0;0):
               (au)            (10**-24 esu)      (10**-40 SI)
   iso        0.799163D+02      0.118424D+02      0.131764D+02
   aniso      0.112806D+02      0.167161D+01      0.185991D+01
   xx         0.749858D+02      0.111118D+02      0.123635D+02
   yx         0.314216D+01      0.465620D+00      0.518072D+00
   yy         0.852494D+02      0.126327D+02      0.140557D+02
   zx         0.268846D+00      0.398389D-01      0.443267D-01
   zy        -0.245246D+01     -0.363418D+00     -0.404357D+00
   zz         0.795137D+02      0.117827D+02      0.131100D+02

 ----------------------------------------------------------------------
 Unable to Open any file for archive entry.
 1\1\GINC-B-DFT-1--422A83DFA337-RYEOPXY2LR\Freq\RwB97XD\Aug-CC-pVDZ\C4H
 10B1F3O1\ROOT\24-May-2026\0\\#N Geom=AllCheck Guess=TCheck SCRF=Check 
 GenChk RwB97XD/Aug-CC-pVDZ Freq\\BF3OEt2_C6D6 | solvent model: C6D6 as
  benzene\\0,1\B,-1.7901420067,0.6787059117,-0.2124808321\F,-1.56904207
 2,1.6464857132,-1.1685942775\F,-2.1141075519,1.1906683147,1.0327343331
 \F,-2.6452700862,-0.3167367477,-0.6422545025\O,-0.3524089304,-0.053563
 0579,-0.0136489243\C,-0.3291154135,-1.4940936558,0.2461181792\C,0.6213
 689319,-2.1756386398,-0.7117707395\C,0.6605025509,0.6659331947,0.76147
 28949\C,0.9948843779,2.0069882177,0.1527164318\H,-0.0443096804,-1.6299
 8792,1.2963922746\H,-1.3536419764,-1.8401395343,0.1101446029\H,0.62007
 77734,-3.2530607291,-0.5023373498\H,0.2967264713,-2.0204479124,-1.7472
 436105\H,1.65027717,-1.8101885543,-0.6018245331\H,0.2759980333,0.75919
 78465,1.7844208255\H,1.5406172062,0.015325613,0.7611536726\H,1.8398912
 47,2.4218723843,0.7174088796\H,1.2936883268,1.8970870919,-0.8959013564
 \H,0.1575446288,2.7075734635,0.2159090316\\Version=ES64L-G16RevC.01\St
 ate=1-A\HF=-558.1459689\RMSD=1.518e-09\RMSF=5.089e-06\ZeroPoint=0.1519
 955\Thermal=0.1627505\ETot=-557.9832185\HTot=-557.9822743\GTot=-558.03
 13061\Dipole=2.3260672,-1.2363349,0.7128839\DipoleDeriv=2.242656,-0.17
 12769,0.1286809,-0.1732176,1.9803175,-0.0702558,0.0693027,-0.0412037,1
 .9055743,-0.5680619,-0.0253956,0.0088243,0.0090047,-0.8158409,0.308242
 8,-0.0349641,0.343089,-0.772367,-0.6490749,0.1194791,0.127141,0.120267
 9,-0.593759,-0.1772644,0.1993632,-0.2425333,-0.916284,-0.8687272,-0.22
 26655,-0.1722299,-0.2221765,-0.7855234,-0.1276019,-0.1838668,-0.116271
 ,-0.5248055,-1.1534826,0.0188555,-0.2586993,0.1275853,-1.4569962,-0.09
 53826,-0.2662132,-0.0858026,-0.5535615,0.1815181,-0.1391741,-0.0540808
 ,-0.1378216,1.1328977,0.0705207,-0.0555328,-0.0383253,0.3430463,0.0379
 595,0.0966846,0.0567991,0.0416724,-0.0436798,-0.0363069,0.0728006,-0.0
 607247,0.0114282,0.6128571,0.419067,0.1628242,0.3379768,0.6036383,0.15
 8658,0.2060744,0.257423,0.4839379,0.030959,-0.0713922,-0.0028228,-0.06
 27128,-0.0784327,0.0180281,0.0082141,0.0237964,0.056246,0.0669001,0.05
 04197,-0.0433451,0.0211694,-0.0085339,-0.0576208,-0.0145848,0.0300189,
 -0.1269905,0.0244347,-0.0663544,0.033862,-0.026154,0.0135587,-0.024145
 3,0.0106914,-0.0308419,0.088794,0.0851956,-0.0032074,0.0215367,0.01241
 95,-0.1243368,0.0244405,0.0169698,0.0362619,0.0686244,0.0413361,0.0255
 82,-0.0570779,0.0222928,0.0809753,0.0399407,-0.0213273,-0.0048679,-0.0
 987427,-0.1155847,-0.0555451,0.0001197,-0.0935455,0.060176,-0.0163755,
 -0.0266447,-0.0371985,0.0522414,0.0325275,-0.0551258,0.0914101,-0.0554
 493,0.0147254,0.0170261,0.0013791,-0.0157611,-0.0932173,-0.0535551,0.0
 524871,-0.0247533,0.080307,-0.0469937,0.013922,0.0011611,-0.0270521,0.
 0629723,-0.0389131,-0.0830549,-0.0888707,-0.0599199,0.0308143,-0.01937
 86,-0.0974725,-0.0255859,0.0276131,0.0828972,0.0089969,0.0458388,0.006
 5002,0.0388141,-0.0384011,0.0717449,0.0146529,-0.0942376,0.0081587,0.1
 016197,0.0248426,0.0518012,-0.001821,0.0119539,0.0429049,0.0209261,0.0
 797282\Polar=78.967516,0.9010207,86.5069734,0.906606,1.6429933,74.2744
 558\AAT=0.0322017,-0.1791189,-0.5294406,0.261059,-0.0104094,-1.493147,
 0.473884,1.2831786,-0.0255355,-0.0228592,0.4343836,0.5470012,-0.331206
 7,0.1847291,0.5050992,-0.4425145,-0.4301484,-0.1847871,0.018991,-0.326
 7069,0.292422,0.291292,-0.1107805,0.4778779,-0.4091765,-0.7372372,0.11
 11133,-0.0248011,0.1210352,-0.0571846,-0.2761242,-0.0436481,0.9612323,
 0.1432796,-0.5766805,0.076656,0.0891245,0.0949634,-0.1881142,0.1787698
 ,-0.0118333,-0.0628212,0.0630839,-0.0623308,-0.0804854,0.0563336,-0.09
 48644,-0.0002137,-0.1220312,-0.0128745,0.1052737,-0.1205439,-0.1178388
 ,-0.027484,-0.0811718,0.0052843,-0.0012735,-0.1043101,-0.008612,-0.099
 5474,0.1367016,0.0842964,0.0775185,-0.1167333,-0.000664,0.0389735,-0.0
 811368,0.0038509,0.2554813,-0.0292869,-0.0921695,0.0998275,-0.0280371,
 0.0665805,0.1392337,-0.0023942,-0.0292068,-0.0885868,-0.1692797,0.0750
 859,0.071037,0.0471714,0.1264484,0.0693877,0.0039677,0.0065239,0.03046
 37,0.1063107,-0.0611678,-0.0215567,-0.0178766,-0.0651675,0.0845526,0.0
 260513,0.0200657,-0.0769403,-0.0965184,0.0900698,-0.0178301,-0.0264503
 ,0.0082198,0.2367896,-0.126392,-0.0238651,-0.0861934,-0.2078726,-0.035
 4146,0.0468887,0.0608329,-0.0843705,0.0190055,0.1321761,-0.018502,0.01
 4273,0.1680838,0.1660249,-0.0309604,-0.0183864,0.1117992,-0.2789971,0.
 0151669,0.0362654,0.0817634,-0.0138719,-0.1341691,-0.0232049,0.052201,
 -0.0289312,-0.0427727,-0.1318293,-0.0613145,-0.0248793,0.0386443,0.128
 2389,0.0093197,-0.0383317,-0.0154903,0.0752308,0.0838227,0.0721092,0.0
 391304,0.0097626,-0.1034317,-0.0552044,-0.0817957,0.1666266,-0.0488469
 ,-0.1129933,0.0129961,0.2122769,0.0632522,-0.1406079,0.0724243,0.06641
 24,-0.1743264,-0.023199,0.1244481,0.0091931,0.0525311,-0.1478005,0.041
 0834,-0.0638862,0.0360309,0.0119586,-0.0201343,-0.0057327,-0.0153004,-
 0.229784,0.1265197,0.0498089,-0.031626\GPTens=-0.5276954,-5.3026006,-1
 7.9888395,11.2885296,0.0503468,-43.8922858,16.4635589,41.196882,1.0228
 208\OptRot=0.3658268,-0.7346898,0.0424562,-0.7346898,0.3093698,-1.2019
 038,0.0424562,-1.2019038,-0.1297244\DQPolar=104.4687978,-44.4784336,-5
 9.9903642,-23.8065514,7.9092657,5.262877,33.3949712,-59.6686767,26.273
 7055,110.1077354,4.8270777,1.9045698,-2.4736001,-14.5726356,17.0462357
 ,5.5101055,79.5897668,-28.2169059\Quadrupole=-1.4950616,2.8266759,-1.3
 316143,1.1166795,0.8787896,0.3955574\PG=C01 [X(C4H10B1F3O1)]\NImag=0\\
 0.24121410,0.11572764,0.40902284,-0.02414416,0.01300558,0.44140840,-0.
 04766718,-0.02289594,0.02114127,0.05774104,-0.02982925,-0.14170350,0.0
 9774959,0.03626775,0.19429231,0.02698963,0.09464305,-0.14388782,-0.029
 06362,-0.13887425,0.18975091,-0.05304287,0.01384247,0.04339853,0.00676
 708,-0.00067610,0.01237873,0.06683344,0.01205662,-0.07131310,-0.064573
 69,-0.00411176,0.00824802,0.01738689,-0.02479891,0.08819399,0.03519572
 ,-0.05860680,-0.19915837,0.01596828,0.00685159,-0.04690258,-0.06116178
 ,0.09313328,0.27225495,-0.11550658,-0.09099498,-0.03673132,-0.00417462
 ,-0.02200937,0.00375452,0.00645080,-0.00525712,-0.00622458,0.16163692,
 -0.08316167,-0.14741964,-0.04276081,-0.02945491,-0.03730018,0.00964055
 ,-0.01247520,-0.01599928,-0.02830562,0.12322785,0.20003452,-0.03582715
 ,-0.04503534,-0.06561479,0.00960770,0.01673183,0.00809999,-0.01517634,
 -0.03131482,-0.02201754,0.05759619,0.05938373,0.07914185,-0.01845870,-
 0.02124201,0.01023519,-0.00496668,0.01803600,-0.01005116,-0.02495897,0
 .02476101,0.01683831,-0.03915505,-0.00605415,-0.01220721,0.32673556,-0
 .01802155,-0.04546220,-0.01166567,0.02326534,-0.02299121,0.01961078,0.
 02394212,-0.00958108,-0.01343898,-0.00945594,0.00527325,-0.00069749,0.
 01331571,0.43627004,0.00380976,-0.00718393,-0.02671973,-0.01234598,0.0
 1747198,-0.00500560,0.01550903,-0.01237540,-0.00149228,-0.01732807,-0.
 00178727,-0.00036125,0.10592932,0.01169425,0.21261095,0.01042294,0.013
 32963,-0.00138661,-0.00236316,0.00227250,-0.00215786,-0.00261058,0.000
 04195,0.00167245,-0.00157300,0.00023067,-0.00096105,-0.09272744,0.0076
 2419,-0.02067407,0.63349794,0.03405718,-0.01519930,0.00969492,-0.00417
 361,0.00525567,-0.00444463,-0.00649524,0.00430412,0.00358917,-0.005416
 35,-0.00873443,-0.00138541,-0.00476384,-0.14624674,0.01356769,0.041350
 46,0.39976519,-0.00137095,0.00155693,-0.00341042,-0.00185657,0.0018589
 4,-0.00061995,0.00253490,-0.00090074,-0.00156675,-0.00101849,0.0022711
 6,0.00031667,-0.01695452,0.03396011,-0.06878820,0.05073179,0.01476127,
 0.59132140,-0.00121623,-0.00062426,0.00009761,0.00022588,-0.00009341,0
 .00005117,0.00024086,-0.00005000,-0.00010985,-0.00003648,0.00084830,-0
 .00055833,0.00295706,0.00302405,-0.00154054,-0.14570748,0.03689791,0.0
 6108813,0.55398342,-0.00663942,-0.00083431,-0.00211350,0.00075662,-0.0
 0063965,0.00085901,0.00202415,-0.00075549,-0.00109291,0.00068541,0.001
 53160,-0.00000822,0.02708983,-0.04281921,-0.01886145,0.02852399,-0.087
 17060,-0.03500162,0.02595104,0.55852486,0.00195061,-0.00054313,0.00059
 273,-0.00018980,0.00050998,-0.00061925,-0.00065035,0.00039217,0.000556
 55,-0.00046837,0.00040728,-0.00035635,-0.00605982,0.00639999,0.0079455
 5,0.06384979,-0.04393286,-0.14854839,0.03089255,-0.03014827,0.55334739
 ,-0.02492500,0.00143934,-0.01120861,0.00174976,-0.00358050,0.00278683,
 0.00304815,-0.00343083,-0.00408284,0.00101929,0.00036051,0.00044853,-0
 .11267977,-0.01128097,-0.03971462,0.00032193,-0.02321841,0.00486785,0.
 00118842,0.00421328,-0.00135259,0.52663050,-0.01580525,0.02297917,0.00
 157612,0.00019228,-0.00604984,0.00219712,0.00327039,-0.00436500,-0.002
 85438,0.00842748,0.00083188,0.00189755,0.00530435,-0.10129608,-0.00557
 431,-0.02448128,-0.02941693,-0.01490163,-0.00027972,0.00012492,-0.0004
 4169,-0.09963240,0.53749763,-0.01426777,0.00819774,-0.00055952,0.00169
 607,-0.00161189,0.00103798,0.00224121,-0.00334460,-0.00484075,0.004215
 47,0.00038733,0.00163659,-0.05564848,-0.02832839,-0.10217900,0.0101516
 9,-0.00541661,0.00277966,0.00082180,0.00045445,-0.00149242,-0.07216162
 ,-0.03111175,0.55248492,0.00031563,-0.00191291,-0.00022215,-0.00264598
 ,-0.00037909,-0.00069724,-0.00060190,0.00041691,0.00053483,-0.00022470
 ,0.00003810,-0.00010221,-0.01000222,-0.03231770,0.00491257,-0.00398661
 ,0.00189021,-0.00161469,0.00004728,-0.00038610,0.00002054,-0.08137655,
 -0.01090759,0.01270608,0.57851286,-0.00040216,0.00173122,-0.00093862,-
 0.00248178,-0.00118863,-0.00154069,-0.00026471,-0.00051732,0.00064941,
 -0.00012665,-0.00024499,0.00005462,-0.00835180,-0.01786464,0.00156448,
 -0.00213258,0.00061229,-0.00037672,-0.00011137,-0.00002453,0.00008542,
 -0.01815156,-0.19246680,0.05788425,-0.03420467,0.52015916,0.00213541,-
 0.00059638,0.00036707,-0.00223414,-0.00097105,-0.00139093,-0.00042967,
 0.00036124,0.00060193,-0.00049980,-0.00015293,-0.00018396,-0.00651347,
 -0.02496495,0.00878822,-0.00413221,0.00069176,-0.00189939,0.00000631,-
 0.00029877,0.00037718,0.01715480,0.06755187,-0.11279700,0.00962939,0.0
 2524432,0.57931994,0.00007993,-0.00118639,-0.00104963,-0.00002963,0.00
 036403,-0.00014152,-0.00008393,0.00006722,0.00051617,-0.00063476,0.001
 42811,0.00012738,0.00019574,-0.00089935,-0.00011561,-0.07294769,0.0092
 2528,-0.07191370,0.00697973,-0.00205497,0.02193064,-0.00030927,-0.0019
 0102,0.00089318,-0.00004730,0.00011734,0.00005869,0.07173162,-0.005917
 07,0.00059260,0.00091531,0.00137823,-0.00149221,0.00087784,0.00050563,
 -0.00028168,-0.00069447,0.00039844,0.00109162,0.00004957,0.01188477,-0
 .02716735,0.03427318,0.00170935,-0.04776115,0.01759231,-0.00501769,0.0
 0377709,-0.01483427,0.00296869,0.00201735,0.00421516,-0.00026586,-0.00
 010925,-0.00042310,-0.00917356,0.06745596,0.00184721,-0.00084820,-0.00
 067228,-0.00026230,0.00041966,-0.00013229,-0.00025911,0.00017411,0.000
 39727,-0.00026806,0.00007804,0.00000139,-0.00204239,0.00580976,-0.0027
 0790,-0.06970588,0.02746184,-0.29797865,-0.00658863,0.00129889,-0.0172
 8965,-0.00246565,-0.00173893,0.00175359,0.00046357,-0.00018467,0.00020
 722,0.07478107,-0.03072062,0.31810281,0.00103345,0.00135349,0.00027000
 ,-0.00016569,-0.00037010,0.00006652,-0.00003750,-0.00031003,-0.0003385
 8,-0.00544788,0.00493141,-0.00249986,0.00337102,0.00118566,-0.00003991
 ,-0.30862474,-0.09135215,-0.03604693,-0.01648356,-0.00442830,-0.002606
 76,-0.00000699,0.00074028,0.00040433,0.00028076,0.00022145,0.00001670,
 -0.00391912,-0.00100935,0.00024743,0.32917243,-0.00480793,-0.00371216,
 -0.00126415,0.00062664,0.00066290,-0.00016040,0.00065827,0.00038005,0.
 00036390,0.00240920,0.00058172,0.00069712,-0.03210994,-0.02535819,-0.0
 0693942,-0.07465406,-0.07050956,-0.00877924,0.01544730,0.00658185,0.00
 189173,0.00226944,-0.00358201,0.00520172,-0.00144438,-0.00050933,-0.00
 155548,0.00371200,0.00314623,-0.00020867,0.08710224,0.09308327,0.00089
 142,0.00082743,0.00186366,-0.00009674,-0.00028036,-0.00005249,-0.00011
 522,0.00004375,-0.00038669,-0.00190008,0.00095847,-0.00120209,0.005976
 53,0.00544632,0.00088536,-0.04045476,-0.01526293,-0.05787022,0.0228461
 6,0.00662144,0.00324532,-0.00110800,-0.00054253,-0.00066799,0.00044387
 ,0.00010080,0.00019720,-0.02761927,-0.00967647,-0.00176919,0.03845906,
 0.01310816,0.05660927,0.00156646,-0.00018863,0.00032970,-0.00019309,0.
 00026149,-0.00023290,-0.00038011,0.00018853,0.00026437,-0.00025104,-0.
 00021072,-0.00001628,-0.00292529,0.00572640,0.00275228,0.00084270,0.01
 742357,-0.00688493,-0.04462934,-0.00186703,0.00212423,-0.00125923,-0.0
 0009542,-0.00041567,0.00019241,0.00002505,0.00016126,0.00057363,-0.000
 26265,0.00011586,0.00020589,-0.00051863,-0.00067195,0.04556572,-0.0017
 3655,0.00047996,-0.00051247,0.00016677,-0.00021600,0.00019691,0.000475
 60,-0.00023733,-0.00028026,0.00030911,0.00016651,0.00009245,0.00271847
 ,-0.00239451,-0.00219711,-0.00300540,-0.01346928,0.00553784,0.00037007
 ,-0.30994523,0.05093279,0.00091277,0.00067964,0.00054522,-0.00004846,-
 0.00003272,-0.00005309,-0.00018120,0.00037459,-0.00031788,0.00022803,0
 .00040226,0.00010661,-0.00095662,0.33510019,-0.00155353,0.00010342,-0.
 00055638,0.00019000,-0.00026292,0.00031791,0.00041598,-0.00018244,-0.0
 0025157,0.00020550,0.00015957,0.00012150,0.00401268,-0.00595926,-0.001
 74739,-0.00302735,-0.01802831,0.00432720,0.00153802,0.05320213,-0.0559
 2867,0.00087474,0.00023976,0.00050994,-0.00009661,-0.00002432,-0.00016
 037,-0.00077765,0.00057842,0.00016646,-0.00002586,0.00032626,0.0005832
 9,-0.00255066,-0.05523644,0.05647940,0.00017987,0.00025726,0.00018334,
 -0.00006161,-0.00005547,0.00001927,0.00000063,-0.00005236,-0.00011285,
 0.00000927,-0.00020058,-0.00013456,0.00074307,-0.00110981,-0.00109971,
 0.00629485,-0.00409693,0.02373038,-0.07371058,0.01266134,-0.08204468,-
 0.00032388,0.00001056,-0.00031546,0.00010961,0.00000446,-0.00010451,-0
 .00232122,0.00291826,0.00278701,0.00105117,-0.00068466,-0.00018913,-0.
 00112712,-0.00037463,0.00091286,0.07634397,0.00060017,-0.00005482,-0.0
 0019515,-0.00013162,0.00009787,0.00000915,-0.00012995,0.00006013,0.000
 16047,-0.00018052,-0.00010514,0.00005583,-0.00105903,0.00228458,0.0002
 4929,-0.00382907,-0.00011140,-0.01677020,0.01150504,-0.05106820,0.0398
 2781,-0.00045528,-0.00024788,-0.00046327,0.00006103,0.00001065,0.00004
 477,0.00223911,-0.00081021,-0.00214612,-0.00041440,0.00020133,0.000810
 10,0.00941520,-0.00239301,0.02905886,-0.01484954,0.05121540,-0.0003027
 0,0.00001778,-0.00044948,0.00004871,-0.00005922,0.00014916,0.00002005,
 0.00001256,0.00011486,0.00010344,-0.00004933,0.00018904,-0.00037717,-0
 .00006118,0.00188052,-0.00635972,0.00447334,-0.02126475,-0.07879727,0.
 03708336,-0.29083661,0.00000043,0.00013891,0.00010111,0.00003209,-0.00
 000601,-0.00003446,0.00305722,-0.00206032,-0.00110670,-0.00014663,0.00
 011558,0.00080655,-0.00095373,-0.00056109,-0.00342062,0.08314405,-0.03
 965055,0.31510721,-0.00037706,-0.00076683,-0.00017142,0.00008615,0.000
 20243,-0.00008723,0.00013863,0.00010862,0.00009145,-0.00003426,0.00059
 748,-0.00009008,0.00145240,0.00006767,-0.00040527,-0.01954937,-0.00836
 531,-0.00267616,-0.28367275,-0.08576472,-0.02767072,-0.00074041,0.0001
 1401,-0.00068058,0.00021640,0.00004061,0.00007824,0.00085077,0.0002376
 0,-0.00001145,-0.00060260,0.00214397,0.00322410,0.00136269,0.00114337,
 -0.00004842,-0.00731846,-0.00296529,0.00041019,0.30737848,0.00073649,0
 .00002439,0.00018850,-0.00010657,0.00004762,-0.00005860,-0.00020870,0.
 00008404,0.00010619,-0.00011544,-0.00025411,0.00003736,-0.00102994,0.0
 0194526,0.00087684,0.01696650,0.00410531,0.00193481,-0.08755445,-0.076
 53289,-0.00995722,0.00054685,-0.00060167,-0.00066824,-0.00015005,0.000
 13322,0.00002511,-0.00087173,0.00014259,0.00050967,0.00200361,-0.00081
 067,-0.00245799,-0.02906148,-0.00855308,-0.00402696,0.00561837,0.00088
 788,0.00042625,0.09326511,0.08031668,0.00021741,0.00035302,0.00001648,
 -0.00002791,-0.00006494,0.00003129,-0.00007253,-0.00003672,-0.00000581
 ,0.00012984,-0.00043155,0.00018896,-0.00190783,0.00021814,0.00040736,0
 .02236448,0.01055818,0.00242439,-0.02906251,-0.01167446,-0.05095124,0.
 00077866,-0.00027302,0.00024874,-0.00032373,0.00006103,0.00000793,-0.0
 0043808,0.00064712,0.00090154,0.00219385,-0.00283704,-0.00233891,0.005
 62715,0.00163870,-0.00058472,-0.02687945,-0.01124535,-0.00136968,0.027
 51668,0.01406838,0.05180544,0.00232996,-0.00191398,-0.00215994,-0.0003
 1035,0.00045520,0.00018949,-0.00082451,0.00030209,0.00082782,-0.000275
 61,0.00031268,0.00038907,-0.00150900,-0.01284871,-0.03314891,-0.000469
 31,0.00336422,-0.00168798,-0.00038346,-0.00044998,0.00024140,-0.087912
 78,0.01371300,0.10314099,-0.00073278,0.00155309,0.00568898,0.00031937,
 0.00028667,0.00076144,0.00004015,-0.00003632,-0.00004226,0.00027254,-0
 .00004794,-0.00001250,0.00005851,0.00006640,0.00005101,0.00028551,-0.0
 0001493,-0.00000307,0.09423333,0.00180655,-0.00073717,0.00100755,0.000
 02265,0.00045562,-0.00036785,-0.00015295,-0.00005843,0.00014727,-0.000
 35206,-0.00018046,-0.00011770,-0.00357106,-0.00747725,-0.02025936,0.00
 004151,0.00339967,-0.00258231,0.00042074,-0.00043567,0.00012912,0.0106
 2619,-0.05255127,-0.01803599,-0.01085442,0.00355114,0.02925771,0.00015
 195,-0.00054579,0.00071035,0.00002715,0.00001653,0.00020081,0.00007496
 ,-0.00006508,-0.00005360,-0.00015099,-0.00004796,0.00013792,-0.0001847
 3,0.00002209,0.00007246,-0.00397135,0.05851948,0.00301121,-0.00254201,
 -0.00229195,-0.00049539,0.00046723,0.00010872,0.00070088,0.00076604,0.
 00192047,-0.00058058,0.00017328,0.00019308,-0.00709501,-0.00964272,-0.
 02048685,-0.00018652,0.00261154,-0.00073109,-0.00000713,-0.00031384,0.
 00034954,0.09412509,-0.01862690,-0.27821227,0.00538952,-0.00084064,-0.
 00920327,0.00011412,-0.00079356,0.00018697,0.00003549,-0.00023628,0.00
 019265,0.00013060,-0.00009196,-0.00004437,-0.00004424,0.00014949,0.000
 10428,0.00007253,0.00003935,-0.00002944,-0.09601903,0.02557391,0.30485
 339,0.00406341,-0.00408626,0.00062581,-0.00008562,0.00095174,-0.000561
 25,-0.00041457,0.00047181,0.00027577,-0.00183191,-0.00048490,-0.000576
 80,-0.03093416,0.00678596,-0.00821530,-0.00079715,0.00362659,-0.000878
 96,0.00025581,-0.00026644,0.00001449,-0.22093640,0.13039123,0.00543010
 ,0.00824992,-0.00617567,0.00038169,-0.00044490,-0.00074919,0.00072759,
 0.00014183,-0.00007631,0.00041075,0.00020092,0.00002083,-0.00001604,0.
 00010662,0.00014476,0.00010888,0.00057648,-0.00003681,-0.00016134,-0.0
 0634679,0.00707945,0.00022315,0.24688066,0.00105074,-0.00299488,-0.000
 45756,0.00005212,0.00077752,-0.00020031,0.00000272,0.00050926,0.000402
 95,-0.00127809,-0.00002797,-0.00037769,-0.02273997,0.00665624,-0.00532
 972,-0.00257256,0.00044453,0.00009278,-0.00064671,-0.00034874,-0.00075
 935,0.14181863,-0.14870129,-0.00124121,0.02285455,-0.01905651,-0.00116
 126,-0.00108793,-0.00062064,-0.00012754,0.00008756,0.00001552,0.000011
 04,0.00000550,0.00012767,0.00018319,0.00012713,0.00012865,0.00011401,0
 .00011513,-0.00101086,-0.00110656,0.00110190,-0.00029823,0.00137779,-0
 .13620380,0.16701101,0.00269445,-0.00352427,-0.00134581,-0.00007793,0.
 00052837,-0.00010621,0.00033890,0.00067855,0.00131112,-0.00142823,-0.0
 0007350,-0.00021541,-0.02705665,0.00845087,-0.00520525,-0.00013767,0.0
 0163208,0.00098430,-0.00070007,-0.00017243,-0.00028999,0.01209085,-0.0
 0667161,-0.05134046,-0.01141173,0.00980530,0.00066735,0.00064546,0.000
 13285,-0.00007785,-0.00000502,0.00004495,-0.00013282,0.00027097,0.0001
 5121,0.00009787,0.00010339,0.00009089,-0.00002817,0.00042468,-0.001091
 25,-0.00068628,0.02277513,-0.01699563,0.00223148,0.00121739,0.00568260
 ,0.05327744,0.00102216,0.00132227,-0.00026038,-0.00091915,-0.00069493,
 -0.00045088,-0.00034322,-0.00021334,0.00026337,-0.00018183,-0.00029243
 ,-0.00000887,0.00151700,-0.00127207,0.00130487,-0.00031675,0.00055739,
 -0.00018489,-0.00001777,-0.00010061,0.00003940,-0.00756945,-0.00058754
 ,-0.00491361,-0.20752377,-0.08037405,-0.10841400,0.00003867,0.00000178
 ,-0.00000206,0.00002330,-0.00013343,-0.00000044,0.00002581,-0.00002037
 ,-0.00003356,-0.00000581,0.00001703,-0.00000663,0.00000081,0.00001621,
 0.00000456,0.00013252,0.00012553,0.00029663,0.00065737,-0.00009664,0.0
 0011585,0.22197960,0.00134150,-0.00182288,0.00060939,0.00065167,0.0008
 9755,0.00006841,-0.00015152,0.00040568,0.00012754,-0.00030114,0.000194
 25,-0.00014925,-0.00248544,-0.00775166,0.00229554,-0.00164161,0.001017
 66,-0.00055306,-0.00001651,-0.00014083,0.00007541,-0.02130889,-0.00840
 584,-0.01780146,-0.07821524,-0.08376645,-0.05062245,0.00001414,-0.0000
 8995,0.00008579,0.00005146,-0.00064553,0.00009314,0.00006371,-0.000037
 90,-0.00005098,0.00000770,0.00002797,-0.00000511,0.00004504,0.00001117
 ,-0.00004781,0.00005028,0.00065807,0.00048914,0.00038708,0.00049876,-0
 .00079783,0.08809141,0.09193300,-0.00027219,0.00078171,-0.00077325,-0.
 00060377,-0.00039795,0.00040064,0.00015098,-0.00004020,0.00006052,0.00
 008298,-0.00014810,0.00009364,0.00166922,0.00374420,0.00019077,0.00049
 661,-0.00003559,0.00054440,0.00001694,0.00009676,-0.00007001,0.0099986
 7,0.00347564,0.00530966,-0.10928977,-0.05286986,-0.11784723,-0.0000236
 0,0.00000421,-0.00004983,-0.00001539,0.00022246,-0.00005034,-0.0000360
 7,0.00001754,0.00004631,0.00001219,0.00000779,0.00000874,-0.00001826,0
 .00000570,0.00000247,-0.00012954,-0.00081851,-0.00005075,0.00004515,-0
 .00014346,0.00061558,0.11876992,0.05577834,0.12355892,-0.00051368,-0.0
 0032926,0.00141652,0.00027394,0.00032453,-0.00052167,-0.00008851,-0.00
 026032,-0.00049160,0.00013398,0.00020115,-0.00010848,0.00064713,0.0012
 5979,0.00031644,0.00019271,-0.00031564,0.00003524,0.00000201,0.0000314
 4,-0.00001144,-0.00426635,-0.00053310,0.00750686,-0.06596543,0.0098274
 6,0.07193050,-0.00000306,0.00010376,-0.00007676,-0.00001217,0.00006056
 ,-0.00001475,-0.00002386,0.00001891,-0.00000942,-0.00002289,-0.0000237
 0,-0.00002242,-0.00003032,0.00000169,0.00001364,0.00070366,-0.00158339
 ,0.00077057,0.00015249,-0.00023540,-0.00070664,0.00763207,-0.00135266,
 -0.02374032,0.06662942,-0.00021917,-0.00011394,-0.00010032,-0.00026569
 ,-0.00011689,0.00012583,0.00005031,0.00012916,-0.00012826,-0.00003067,
 -0.00000848,0.00003896,0.00084641,0.00236013,-0.00105844,0.00034305,-0
 .00006808,0.00018866,-0.00008939,0.00006798,-0.00005894,-0.00896994,0.
 00275792,0.03279160,0.01001008,-0.05070598,-0.03159112,0.00000152,0.00
 013737,-0.00011012,-0.00001037,0.00010296,-0.00002629,0.00002499,0.000
 02353,-0.00002941,0.00000124,-0.00004675,-0.00003923,0.00005736,-0.000
 02888,0.00002324,-0.00147962,-0.00540884,0.00191888,0.00018758,0.00114
 062,-0.00048404,0.00450132,-0.00201921,-0.01100055,-0.00826042,0.05360
 965,-0.00025697,0.00031313,-0.00074836,-0.00058789,-0.00018250,0.00039
 304,0.00013262,0.00001499,0.00018753,0.00009764,-0.00000874,0.00012244
 ,0.00051792,0.00002982,0.00165796,-0.00005970,-0.00034605,0.00008546,0
 .00002939,0.00003160,-0.00001690,0.00233091,-0.00287632,-0.01323787,0.
 07352045,-0.02755765,-0.29896512,-0.00001870,-0.00011734,0.00001015,0.
 00001437,0.00001627,0.00004622,-0.00002337,0.00001449,0.00002006,0.000
 00633,0.00000694,0.00003481,-0.00000499,0.00003481,-0.00002628,-0.0001
 3626,0.00244570,0.00047678,-0.00021908,0.00007274,0.00034072,0.0051239
 5,-0.00069163,-0.01242531,-0.07939151,0.02843649,0.32240307,-0.0005206
 1,-0.00113066,-0.00036375,-0.00326111,-0.00144742,-0.00227085,-0.00009
 292,0.00006994,0.00007356,0.00007746,0.00015831,0.00009835,0.00069829,
 0.00100922,0.00009374,0.00010020,-0.00019534,0.00010048,-0.00002281,0.
 00002048,-0.00000911,0.00834801,-0.00794025,-0.00080460,-0.21481763,0.
 14098754,0.01508584,-0.00002857,0.00000219,-0.00004888,-0.00001974,0.0
 0003603,-0.00003929,-0.00001969,0.00000724,0.00000182,-0.00000601,-0.0
 0001034,-0.00000980,-0.00002311,-0.00000473,0.00003019,0.00038903,0.00
 044429,-0.00044190,0.00050598,-0.00235486,0.00084688,-0.01615156,0.014
 76903,0.00288625,-0.00544113,0.00330142,-0.00107509,0.23028592,-0.0008
 3686,-0.00346229,-0.00016501,0.00024181,0.00096303,0.00003120,0.000581
 64,0.00079425,-0.00013009,0.00006086,0.00056932,0.00004689,-0.00054937
 ,0.00162063,-0.00042684,-0.00011723,-0.00021697,0.00011074,0.00001908,
 0.00010705,0.00002403,0.02487307,-0.01920392,-0.00165407,0.13581558,-0
 .15971053,-0.01078620,0.00003546,0.00014285,-0.00014536,-0.00003764,-0
 .00004719,-0.00008149,-0.00004823,-0.00001019,0.00000302,-0.00003133,-
 0.00002909,-0.00002766,-0.00009151,0.00007190,0.00007717,-0.00044268,0
 .00118355,-0.00047873,-0.00196765,-0.00425067,0.00261290,-0.01084752,0
 .00903614,0.00131989,0.00106460,-0.00181227,0.00036325,-0.14772208,0.1
 7425441,-0.00074740,-0.00091974,0.00193982,-0.00081001,0.00011591,-0.0
 0157254,0.00004319,-0.00019496,-0.00078288,0.00026201,0.00025845,-0.00
 015376,0.00073454,-0.00060559,0.00032676,-0.00002342,-0.00018941,-0.00
 010567,-0.00002374,0.00003785,-0.00001478,-0.01336343,0.00853608,-0.00
 053491,0.01610522,-0.01111043,-0.04805233,-0.00002617,0.00003418,0.000
 05696,0.00001721,-0.00000748,0.00004122,0.00000915,0.00001655,0.000024
 15,0.00002576,-0.00000072,0.00001422,0.00004672,0.00000730,-0.00004226
 ,-0.00072581,-0.00045187,0.00043263,0.00116802,0.00296757,-0.00009761,
 -0.01164323,0.01109690,0.00043506,0.02310524,-0.01889696,-0.00035838,-
 0.01415382,0.00930638,0.04844430\\0.00000161,-0.00000755,0.00000275,0.
 00000234,0.00000240,-0.00000314,-0.00000095,0.00000119,-0.00000241,-0.
 00000388,0.00000444,-0.00000331,0.00001329,0.00002487,0.00000210,-0.00
 000821,-0.00001674,0.00000021,0.00000093,0.00000154,0.00000194,-0.0000
 0702,-0.00000911,-0.00000049,-0.00000072,-0.00000065,-0.00000077,-0.00
 000128,0.00000232,-0.00000109,0.00000102,0.00000122,-0.00000037,-0.000
 00195,-0.00000010,-0.00000108,-0.00000080,0.00000005,-0.00000028,-0.00
 000052,-0.00000161,0.00000147,0.00000024,0.00000022,0.00000007,0.00000
 055,-0.00000025,0.00000094,0.00000032,-0.00000053,0.00000061,0.0000017
 2,-0.00000188,0.00000083,0.00000331,0.00000017,0.00000203\\\@
 The archive entry for this job was punched.


 THE PROBLEM WITH THE LADDER OF SUCCESS IS YOU CAN'T
 CLIMB IT WHILE YOU'RE TWIDDLING YOUR THUMBS.
 Job cpu time:       0 days  1 hours  4 minutes 25.0 seconds.
 Elapsed time:       0 days  0 hours  3 minutes 19.0 seconds.
 File lengths (MBytes):  RWF=   1440 Int=      0 D2E=      0 Chk=     32 Scr=     32
 Normal termination of Gaussian 16 at Sun May 24 17:30:16 2026.
