 Entering Gaussian System, Link 0=g16
 Initial command:
 /inspire/hdd/project/materialscienceresearch/lipenghui-253107030018/software/g16/l1.exe "/inspire/hdd/project/materialscienceresearch/lipenghui-253107030018/g16/tmp/Gau-377415.inp" -scrdir="/inspire/hdd/project/materialscienceresearch/lipenghui-253107030018/g16/tmp/"
 Entering Link 1 = /inspire/hdd/project/materialscienceresearch/lipenghui-253107030018/software/g16/l1.exe PID=    377417.
  
 Copyright (c) 1988-2019, Gaussian, Inc.  All Rights Reserved.
  
 This is part of the Gaussian(R) 16 program.  It is based on
 the Gaussian(R) 09 system (copyright 2009, Gaussian, Inc.),
 the Gaussian(R) 03 system (copyright 2003, Gaussian, Inc.),
 the Gaussian(R) 98 system (copyright 1998, Gaussian, Inc.),
 the Gaussian(R) 94 system (copyright 1995, Gaussian, Inc.),
 the Gaussian 92(TM) system (copyright 1992, Gaussian, Inc.),
 the Gaussian 90(TM) system (copyright 1990, Gaussian, Inc.),
 the Gaussian 88(TM) system (copyright 1988, Gaussian, Inc.),
 the Gaussian 86(TM) system (copyright 1986, Carnegie Mellon
 University), and the Gaussian 82(TM) system (copyright 1983,
 Carnegie Mellon University). Gaussian is a federally registered
 trademark of Gaussian, Inc.
  
 This software contains proprietary and confidential information,
 including trade secrets, belonging to Gaussian, Inc.
  
 This software is provided under written license and may be
 used, copied, transmitted, or stored only in accord with that
 written license.
  
 The following legend is applicable only to US Government
 contracts under FAR:
  
                    RESTRICTED RIGHTS LEGEND
  
 Use, reproduction and disclosure by the US Government is
 subject to restrictions as set forth in subparagraphs (a)
 and (c) of the Commercial Computer Software - Restricted
 Rights clause in FAR 52.227-19.
  
 Gaussian, Inc.
 340 Quinnipiac St., Bldg. 40, Wallingford CT 06492
  
  
 ---------------------------------------------------------------
 Warning -- This program may not be used in any manner that
 competes with the business of Gaussian, Inc. or will provide
 assistance to any competitor of Gaussian, Inc.  The licensee
 of this program is prohibited from giving any competitor of
 Gaussian, Inc. access to this program.  By using this program,
 the user acknowledges that Gaussian, Inc. is engaged in the
 business of creating and licensing software in the field of
 computational chemistry and represents and warrants to the
 licensee that it is not a competitor of Gaussian, Inc. and that
 it will not use this program in any manner prohibited above.
 ---------------------------------------------------------------
  

 Cite this work as:
 Gaussian 16, Revision C.01,
 M. J. Frisch, G. W. Trucks, H. B. Schlegel, G. E. Scuseria, 
 M. A. Robb, J. R. Cheeseman, G. Scalmani, V. Barone, 
 G. A. Petersson, H. Nakatsuji, X. Li, M. Caricato, A. V. Marenich, 
 J. Bloino, B. G. Janesko, R. Gomperts, B. Mennucci, H. P. Hratchian, 
 J. V. Ortiz, A. F. Izmaylov, J. L. Sonnenberg, D. Williams-Young, 
 F. Ding, F. Lipparini, F. Egidi, J. Goings, B. Peng, A. Petrone, 
 T. Henderson, D. Ranasinghe, V. G. Zakrzewski, J. Gao, N. Rega, 
 G. Zheng, W. Liang, M. Hada, M. Ehara, K. Toyota, R. Fukuda, 
 J. Hasegawa, M. Ishida, T. Nakajima, Y. Honda, O. Kitao, H. Nakai, 
 T. Vreven, K. Throssell, J. A. Montgomery, Jr., J. E. Peralta, 
 F. Ogliaro, M. J. Bearpark, J. J. Heyd, E. N. Brothers, K. N. Kudin, 
 V. N. Staroverov, T. A. Keith, R. Kobayashi, J. Normand, 
 K. Raghavachari, A. P. Rendell, J. C. Burant, S. S. Iyengar, 
 J. Tomasi, M. Cossi, J. M. Millam, M. Klene, C. Adamo, R. Cammi, 
 J. W. Ochterski, R. L. Martin, K. Morokuma, O. Farkas, 
 J. B. Foresman, and D. J. Fox, Gaussian, Inc., Wallingford CT, 2019.
 
 ******************************************
 Gaussian 16:  ES64L-G16RevC.01  3-Jul-2019
                24-May-2026 
 ******************************************
 %nprocshared=20
 Will use up to   20 processors via shared memory.
 %mem=72GB
 %chk=/inspire/hdd/project/materialscienceresearch/lipenghui-253107030018/g16/00-
 B-DFT-Shift/04-output/BF3OEt2_CDCl3/BF3OEt2_CDCl3.chk
 ----------------------------------------------------------------------
 # nmr=giao wb97xd/aug-cc-pvdz opt freq integral=(acc2e=12,grid=ultrafi
 ne) scrf=(cpcm,solvent=chloroform)
 ----------------------------------------------------------------------
 1/18=20,19=15,26=6,38=1/1,3;
 2/9=110,12=2,17=6,18=5,40=1/2;
 3/5=16,7=10,11=2,25=1,27=12,30=1,70=2101,71=1,72=7,74=-58,75=-5/1,2,3;
 4//1;
 5/5=2,38=5,53=7,87=12/2;
 6/7=2,8=2,9=2,10=2,28=1,87=12/1;
 7/87=12/1,2,3,16;
 1/18=20,19=15,26=6/3(2);
 2/9=110/2;
 99//99;
 2/9=110/2;
 3/5=16,7=10,11=2,25=1,27=12,30=1,70=2105,71=1,72=7,74=-58,75=-5/1,2,3;
 4/5=5,16=3,69=1/1;
 5/5=2,38=5,53=7,87=12/2;
 7/87=12/1,2,3,16;
 1/18=20,19=15,26=6/3(-5);
 2/9=110/2;
 6/7=2,8=2,9=2,10=2,19=2,28=1,87=12/1;
 99/9=1/99;
 --------------------------------------------------
 BF3OEt2_CDCl3 | solvent model: CDCl3 as chloroform
 --------------------------------------------------
 Symbolic Z-matrix:
 Charge =  0 Multiplicity = 1
 B                    -1.66858   0.65829  -0.06802 
 F                    -1.7366    1.9078   -0.96747 
 F                    -1.88813   1.08044   1.39747 
 F                    -2.88846  -0.18822  -0.48146 
 O                    -0.3892   -0.03478  -0.25232 
 C                    -0.46788  -1.42858   0.04401 
 C                     0.74837  -2.25754  -0.4052 
 C                     0.70127   0.58399   0.42796 
 C                     0.91694   2.0707    0.10017 
 H                    -0.65787  -1.59574   1.13135 
 H                    -1.33239  -1.88114  -0.50048 
 H                     0.51279  -3.34717  -0.40293 
 H                     1.05982  -1.98375  -1.43937 
 H                     1.62093  -2.12975   0.27396 
 H                     0.60793   0.46168   1.53361 
 H                     1.65837   0.08909   0.13394 
 H                     1.88627   2.43335   0.5146 
 H                     0.94291   2.23982  -1.00078 
 H                     0.12706   2.71749   0.54337 
 

 GradGradGradGradGradGradGradGradGradGradGradGradGradGradGradGradGradGrad
 Berny optimization.
 Initialization pass.
                           ----------------------------
                           !    Initial Parameters    !
                           ! (Angstroms and Degrees)  !
 --------------------------                            --------------------------
 ! Name  Definition              Value          Derivative Info.                !
 --------------------------------------------------------------------------------
 ! R1    R(1,2)                  1.5411         estimate D2E/DX2                !
 ! R2    R(1,3)                  1.5408         estimate D2E/DX2                !
 ! R3    R(1,4)                  1.5413         estimate D2E/DX2                !
 ! R4    R(1,5)                  1.4667         estimate D2E/DX2                !
 ! R5    R(5,6)                  1.4271         estimate D2E/DX2                !
 ! R6    R(5,8)                  1.4265         estimate D2E/DX2                !
 ! R7    R(6,7)                  1.5389         estimate D2E/DX2                !
 ! R8    R(6,10)                 1.1164         estimate D2E/DX2                !
 ! R9    R(6,11)                 1.1174         estimate D2E/DX2                !
 ! R10   R(7,12)                 1.1148         estimate D2E/DX2                !
 ! R11   R(7,13)                 1.1142         estimate D2E/DX2                !
 ! R12   R(7,14)                 1.1131         estimate D2E/DX2                !
 ! R13   R(8,9)                  1.5376         estimate D2E/DX2                !
 ! R14   R(8,15)                 1.1163         estimate D2E/DX2                !
 ! R15   R(8,16)                 1.1169         estimate D2E/DX2                !
 ! R16   R(9,17)                 1.1148         estimate D2E/DX2                !
 ! R17   R(9,18)                 1.1142         estimate D2E/DX2                !
 ! R18   R(9,19)                 1.113          estimate D2E/DX2                !
 ! A1    A(2,1,3)              109.0681         estimate D2E/DX2                !
 ! A2    A(2,1,4)              104.7032         estimate D2E/DX2                !
 ! A3    A(2,1,5)              110.3836         estimate D2E/DX2                !
 ! A4    A(3,1,4)              107.0273         estimate D2E/DX2                !
 ! A5    A(3,1,5)              111.9184         estimate D2E/DX2                !
 ! A6    A(4,1,5)              113.4001         estimate D2E/DX2                !
 ! A7    A(1,5,6)              112.7884         estimate D2E/DX2                !
 ! A8    A(1,5,8)              113.6987         estimate D2E/DX2                !
 ! A9    A(6,5,8)              111.5166         estimate D2E/DX2                !
 ! A10   A(5,6,7)              114.9554         estimate D2E/DX2                !
 ! A11   A(5,6,10)             110.9687         estimate D2E/DX2                !
 ! A12   A(5,6,11)             109.6955         estimate D2E/DX2                !
 ! A13   A(7,6,10)             109.7641         estimate D2E/DX2                !
 ! A14   A(7,6,11)             104.5398         estimate D2E/DX2                !
 ! A15   A(10,6,11)            106.3956         estimate D2E/DX2                !
 ! A16   A(6,7,12)             111.033          estimate D2E/DX2                !
 ! A17   A(6,7,13)             111.0681         estimate D2E/DX2                !
 ! A18   A(6,7,14)             112.3092         estimate D2E/DX2                !
 ! A19   A(12,7,13)            107.5262         estimate D2E/DX2                !
 ! A20   A(12,7,14)            106.059          estimate D2E/DX2                !
 ! A21   A(13,7,14)            108.6016         estimate D2E/DX2                !
 ! A22   A(5,8,9)              115.1494         estimate D2E/DX2                !
 ! A23   A(5,8,15)             111.1554         estimate D2E/DX2                !
 ! A24   A(5,8,16)             109.7153         estimate D2E/DX2                !
 ! A25   A(9,8,15)             109.1965         estimate D2E/DX2                !
 ! A26   A(9,8,16)             104.6032         estimate D2E/DX2                !
 ! A27   A(15,8,16)            106.4897         estimate D2E/DX2                !
 ! A28   A(8,9,17)             110.9302         estimate D2E/DX2                !
 ! A29   A(8,9,18)             111.1421         estimate D2E/DX2                !
 ! A30   A(8,9,19)             112.1772         estimate D2E/DX2                !
 ! A31   A(17,9,18)            107.3192         estimate D2E/DX2                !
 ! A32   A(17,9,19)            106.2605         estimate D2E/DX2                !
 ! A33   A(18,9,19)            108.7726         estimate D2E/DX2                !
 ! D1    D(2,1,5,6)           -153.845          estimate D2E/DX2                !
 ! D2    D(2,1,5,8)             77.9211         estimate D2E/DX2                !
 ! D3    D(3,1,5,6)             84.4748         estimate D2E/DX2                !
 ! D4    D(3,1,5,8)            -43.7591         estimate D2E/DX2                !
 ! D5    D(4,1,5,6)            -36.727          estimate D2E/DX2                !
 ! D6    D(4,1,5,8)           -164.9609         estimate D2E/DX2                !
 ! D7    D(1,5,6,7)            167.8746         estimate D2E/DX2                !
 ! D8    D(1,5,6,10)           -66.8319         estimate D2E/DX2                !
 ! D9    D(1,5,6,11)            50.4426         estimate D2E/DX2                !
 ! D10   D(8,5,6,7)            -62.7613         estimate D2E/DX2                !
 ! D11   D(8,5,6,10)            62.5323         estimate D2E/DX2                !
 ! D12   D(8,5,6,11)           179.8068         estimate D2E/DX2                !
 ! D13   D(1,5,8,9)            -54.7332         estimate D2E/DX2                !
 ! D14   D(1,5,8,15)            70.0989         estimate D2E/DX2                !
 ! D15   D(1,5,8,16)          -172.386          estimate D2E/DX2                !
 ! D16   D(6,5,8,9)            176.3833         estimate D2E/DX2                !
 ! D17   D(6,5,8,15)           -58.7846         estimate D2E/DX2                !
 ! D18   D(6,5,8,16)            58.7305         estimate D2E/DX2                !
 ! D19   D(5,6,7,12)          -164.4459         estimate D2E/DX2                !
 ! D20   D(5,6,7,13)           -44.8499         estimate D2E/DX2                !
 ! D21   D(5,6,7,14)            76.9909         estimate D2E/DX2                !
 ! D22   D(10,6,7,12)           69.6361         estimate D2E/DX2                !
 ! D23   D(10,6,7,13)         -170.7679         estimate D2E/DX2                !
 ! D24   D(10,6,7,14)          -48.9272         estimate D2E/DX2                !
 ! D25   D(11,6,7,12)          -44.133          estimate D2E/DX2                !
 ! D26   D(11,6,7,13)           75.463          estimate D2E/DX2                !
 ! D27   D(11,6,7,14)         -162.6963         estimate D2E/DX2                !
 ! D28   D(5,8,9,17)          -169.4774         estimate D2E/DX2                !
 ! D29   D(5,8,9,18)           -50.1609         estimate D2E/DX2                !
 ! D30   D(5,8,9,19)            71.8607         estimate D2E/DX2                !
 ! D31   D(15,8,9,17)           64.6753         estimate D2E/DX2                !
 ! D32   D(15,8,9,18)         -176.0082         estimate D2E/DX2                !
 ! D33   D(15,8,9,19)          -53.9867         estimate D2E/DX2                !
 ! D34   D(16,8,9,17)          -48.9842         estimate D2E/DX2                !
 ! D35   D(16,8,9,18)           70.3323         estimate D2E/DX2                !
 ! D36   D(16,8,9,19)         -167.6462         estimate D2E/DX2                !
 --------------------------------------------------------------------------------
 Trust Radius=3.00D-01 FncErr=5.00D-06 GrdErr=5.00D-06 EigMax=2.50D+02 EigMin=1.00D-04
 Number of steps in this run=     97 maximum allowed number of steps=    114.
 GradGradGradGradGradGradGradGradGradGradGradGradGradGradGradGradGradGrad

                          Input orientation:                          
 ---------------------------------------------------------------------
 Center     Atomic      Atomic             Coordinates (Angstroms)
 Number     Number       Type             X           Y           Z
 ---------------------------------------------------------------------
      1          5           0       -1.668578    0.658294   -0.068017
      2          9           0       -1.736601    1.907804   -0.967472
      3          9           0       -1.888130    1.080442    1.397468
      4          9           0       -2.888462   -0.188219   -0.481460
      5          8           0       -0.389196   -0.034782   -0.252324
      6          6           0       -0.467876   -1.428577    0.044008
      7          6           0        0.748365   -2.257544   -0.405198
      8          6           0        0.701272    0.583985    0.427955
      9          6           0        0.916943    2.070699    0.100171
     10          1           0       -0.657873   -1.595740    1.131351
     11          1           0       -1.332394   -1.881140   -0.500475
     12          1           0        0.512791   -3.347170   -0.402925
     13          1           0        1.059816   -1.983745   -1.439370
     14          1           0        1.620931   -2.129751    0.273956
     15          1           0        0.607926    0.461676    1.533613
     16          1           0        1.658368    0.089091    0.133942
     17          1           0        1.886270    2.433346    0.514603
     18          1           0        0.942905    2.239820   -1.000776
     19          1           0        0.127062    2.717492    0.543365
 ---------------------------------------------------------------------
                    Distance matrix (angstroms):
                    1          2          3          4          5
     1  B    0.000000
     2  F    1.541078   0.000000
     3  F    1.540798   2.510066   0.000000
     4  F    1.541310   2.440554   2.478010   0.000000
     5  O    1.466677   2.469935   2.492457   2.514434   0.000000
     6  C    2.410242   3.710013   3.184988   2.770170   1.427119
     7  C    3.802291   4.882759   4.619833   4.185025   2.501617
     8  C    2.422333   3.105308   2.809169   3.782793   1.426455
     9  C    2.950948   2.864907   3.245308   4.463419   2.502659
    10  H    2.746029   4.224161   2.957415   3.091570   2.103172
    11  H    2.597838   3.838954   3.561179   2.299498   2.088119
    12  H    4.573213   5.743973   5.348793   4.642592   3.436303
    13  H    4.037959   4.815266   5.111485   4.441892   2.703178
    14  H    4.325622   5.395926   4.886832   4.967376   2.950674
    15  H    2.790403   3.720688   2.575209   4.087495   2.104826
    16  H    3.381324   4.005826   3.893189   4.596660   2.087358
    17  H    4.015869   3.949422   4.105593   5.537401   3.443483
    18  H    3.192351   2.700203   3.887221   4.565571   2.740162
    19  H    2.799716   2.532087   2.733208   4.311242   2.911126
                    6          7          8          9         10
     6  C    0.000000
     7  C    1.538900   0.000000
     8  C    2.358968   2.961528   0.000000
     9  C    3.763750   4.360906   1.537620   0.000000
    10  H    1.116404   2.185514   2.663314   4.121426   0.000000
    11  H    1.117437   2.116676   3.327855   4.586646   1.788655
    12  H    2.200558   1.114803   4.022420   5.456166   2.606140
    13  H    2.200560   1.114217   3.195105   4.339253   3.116025
    14  H    2.215318   1.113082   2.869469   4.262579   2.492637
    15  H    2.636158   3.342584   1.116312   2.176971   2.448882
    16  H    2.613870   2.573999   1.116869   2.116039   3.032895
    17  H    4.547297   4.913788   2.198150   1.114837   4.804849
    18  H    4.066819   4.540797   2.200329   1.114163   4.671186
    19  H    4.218198   5.102624   2.212440   1.112957   4.423327
                   11         12         13         14         15
    11  H    0.000000
    12  H    2.358700   0.000000
    13  H    2.571910   1.797883   0.000000
    14  H    3.063279   1.779958   1.808771   0.000000
    15  H    3.659391   4.273937   3.875941   3.054244   0.000000
    16  H    3.637163   3.661757   2.670248   2.223570   1.789225
    17  H    5.477679   6.011877   4.900176   4.577136   2.561255
    18  H    4.733878   5.635324   4.247886   4.601936   3.114022
    19  H    4.936297   6.150153   5.186800   5.079369   2.510085
                   16         17         18         19
    16  H    0.000000
    17  H    2.385870   0.000000
    18  H    2.534780   1.795484   0.000000
    19  H    3.069368   1.782240   1.810564   0.000000
 Stoichiometry    C4H10BF3O
 Framework group  C1[X(C4H10BF3O)]
 Deg. of freedom    51
 Full point group                 C1      NOp   1
 Largest Abelian subgroup         C1      NOp   1
 Largest concise Abelian subgroup C1      NOp   1
                         Standard orientation:                         
 ---------------------------------------------------------------------
 Center     Atomic      Atomic             Coordinates (Angstroms)
 Number     Number       Type             X           Y           Z
 ---------------------------------------------------------------------
      1          5           0       -0.876547   -0.566638   -0.025366
      2          9           0       -1.904806   -0.016820   -1.032990
      3          9           0       -1.405118   -0.344947    1.404853
      4          9           0       -0.863288   -2.088216   -0.270846
      5          8           0        0.429692    0.067932   -0.230796
      6          6           0        1.515920   -0.750378    0.201807
      7          6           0        2.907813   -0.273618   -0.249354
      8          6           0        0.518835    1.384751    0.310329
      9          6           0       -0.564093    2.364063   -0.171842
     10          1           0        1.502103   -0.879264    1.310660
     11          1           0        1.414300   -1.773469   -0.235941
     12          1           0        3.666489   -1.081209   -0.126912
     13          1           0        2.901514    0.020716   -1.323974
     14          1           0        3.275052    0.587669    0.352537
     15          1           0        0.522743    1.362271    1.426408
     16          1           0        1.482760    1.855429   -0.000649
     17          1           0       -0.323820    3.407651    0.138085
     18          1           0       -0.645056    2.358385   -1.283045
     19          1           0       -1.562840    2.132486    0.261230
 ---------------------------------------------------------------------
 Rotational constants (GHZ):           1.7576319           1.3302101           0.9590643
 Standard basis: Aug-CC-pVDZ (5D, 7F)
 There are   315 symmetry adapted cartesian basis functions of A   symmetry.
 There are   297 symmetry adapted basis functions of A   symmetry.
   297 basis functions,   497 primitive gaussians,   315 cartesian basis functions
    37 alpha electrons       37 beta electrons
       nuclear repulsion energy       514.0244593470 Hartrees.
 NAtoms=   19 NActive=   19 NUniq=   19 SFac= 1.00D+00 NAtFMM=   60 NAOKFM=F Big=F
 Integral buffers will be    131072 words long.
 Raffenetti 2 integral format.
 Two-electron integral symmetry is turned on.
 Nuclear repulsion after empirical dispersion term =      514.0122201598 Hartrees.
 Force PCM accuracy= 1.00D-12.
 ------------------------------------------------------------------------------
 Polarizable Continuum Model (PCM)
 =================================
 Model                : C-PCM.
 Atomic radii         : UFF (Universal Force Field).
 Polarization charges : Total charges.
 Charge compensation  : None.
 Solution method      : On-the-fly selection.
 Cavity type          : Scaled VdW (van der Waals Surface) (Alpha=1.100).
 Cavity algorithm     : GePol (No added spheres)
                        Default sphere list used, NSphG=   19.
                        Lebedev-Laikov grids with approx.  5.0 points / Ang**2.
                        Smoothing algorithm: York/Karplus (Gamma=1.0000).
                        Polarization charges: spherical gaussians, with
                                              point-specific exponents (IZeta= 3).
                        Self-potential: point-specific (ISelfS= 7).
                        Self-field    : sphere-specific E.n sum rule (ISelfD= 2).
 1st derivatives      : Analytical E(r).r(x)/FMM algorithm (CHGder, D1EAlg=3).
                        Cavity 1st derivative terms included.
 Solvent              : Chloroform, Eps=   4.711300 Eps(inf)=   2.090627
 ------------------------------------------------------------------------------
 Spheres list:
 ISph  on   Nord     Re0    Alpha      Xe            Ye            Ze
    1   B      1    2.0415  1.100     -0.876547     -0.566638     -0.025366
    2   F      2    1.6820  1.100     -1.904806     -0.016820     -1.032990
    3   F      3    1.6820  1.100     -1.405118     -0.344947      1.404853
    4   F      4    1.6820  1.100     -0.863288     -2.088216     -0.270846
    5   O      5    1.7500  1.100      0.429692      0.067932     -0.230796
    6   C      6    1.9255  1.100      1.515920     -0.750378      0.201807
    7   C      7    1.9255  1.100      2.907813     -0.273618     -0.249354
    8   C      8    1.9255  1.100      0.518835      1.384751      0.310329
    9   C      9    1.9255  1.100     -0.564093      2.364063     -0.171842
   10   H     10    1.4430  1.100      1.502103     -0.879264      1.310660
   11   H     11    1.4430  1.100      1.414300     -1.773469     -0.235941
   12   H     12    1.4430  1.100      3.666489     -1.081209     -0.126912
   13   H     13    1.4430  1.100      2.901514      0.020716     -1.323974
   14   H     14    1.4430  1.100      3.275052      0.587669      0.352537
   15   H     15    1.4430  1.100      0.522743      1.362271      1.426408
   16   H     16    1.4430  1.100      1.482760      1.855429     -0.000649
   17   H     17    1.4430  1.100     -0.323820      3.407651      0.138085
   18   H     18    1.4430  1.100     -0.645056      2.358385     -1.283045
   19   H     19    1.4430  1.100     -1.562840      2.132486      0.261230
 ------------------------------------------------------------------------------
 One-electron integrals computed using PRISM.
 NBasis=   297 RedAO= T EigKep=  3.04D-05  NBF=   297
 NBsUse=   297 1.00D-06 EigRej= -1.00D+00 NBFU=   297
 ExpMin= 2.38D-02 ExpMax= 1.47D+04 ExpMxC= 5.03D+02 IAcc=3 IRadAn=         5 AccDes= 0.00D+00
 Harris functional with IExCor= 4639 and IRadAn=       5 diagonalized for initial guess.
 HarFok:  IExCor= 4639 AccDes= 0.00D+00 IRadAn=         5 IDoV= 1 UseB2=F ITyADJ=14
 ICtDFT=  3500011 ScaDFX=  1.000000  1.000000  1.000000  1.000000
 FoFCou: FMM=F IPFlag=           0 FMFlag=      100000 FMFlg1=           0
         NFxFlg=           0 DoJE=T BraDBF=F KetDBF=T FulRan=T
         wScrn=  0.000000 ICntrl=       500 IOpCl=  0 I1Cent=   200000004 NGrid=           0
         NMat0=    1 NMatS0=      1 NMatT0=    0 NMatD0=    1 NMtDS0=    0 NMtDT0=    0
 Petite list used in FoFCou.
 Requested convergence on RMS density matrix=1.00D-08 within 128 cycles.
 Requested convergence on MAX density matrix=1.00D-06.
 Requested convergence on             energy=1.00D-06.
 No special actions if energy rises.
 Inv3:  Mode=1 IEnd=     6976875.
 Iteration    1 A*A^-1 deviation from unit magnitude is 3.11D-15 for   1508.
 Iteration    1 A*A^-1 deviation from orthogonality  is 3.27D-15 for   1508    972.
 Iteration    1 A^-1*A deviation from unit magnitude is 3.11D-15 for   1508.
 Iteration    1 A^-1*A deviation from orthogonality  is 1.51D-15 for   1515   1182.
 Error on total polarization charges =  0.00905
 SCF Done:  E(RwB97XD) =  -558.095432901     A.U. after   12 cycles
            NFock= 12  Conv=0.66D-08     -V/T= 2.0075

 **********************************************************************

            Population analysis using the SCF Density.

 **********************************************************************

 Orbital symmetries:
       Occupied  (A) (A) (A) (A) (A) (A) (A) (A) (A) (A) (A) (A)
                 (A) (A) (A) (A) (A) (A) (A) (A) (A) (A) (A) (A)
                 (A) (A) (A) (A) (A) (A) (A) (A) (A) (A) (A) (A)
                 (A)
       Virtual   (A) (A) (A) (A) (A) (A) (A) (A) (A) (A) (A) (A)
                 (A) (A) (A) (A) (A) (A) (A) (A) (A) (A) (A) (A)
                 (A) (A) (A) (A) (A) (A) (A) (A) (A) (A) (A) (A)
                 (A) (A) (A) (A) (A) (A) (A) (A) (A) (A) (A) (A)
                 (A) (A) (A) (A) (A) (A) (A) (A) (A) (A) (A) (A)
                 (A) (A) (A) (A) (A) (A) (A) (A) (A) (A) (A) (A)
                 (A) (A) (A) (A) (A) (A) (A) (A) (A) (A) (A) (A)
                 (A) (A) (A) (A) (A) (A) (A) (A) (A) (A) (A) (A)
                 (A) (A) (A) (A) (A) (A) (A) (A) (A) (A) (A) (A)
                 (A) (A) (A) (A) (A) (A) (A) (A) (A) (A) (A) (A)
                 (A) (A) (A) (A) (A) (A) (A) (A) (A) (A) (A) (A)
                 (A) (A) (A) (A) (A) (A) (A) (A) (A) (A) (A) (A)
                 (A) (A) (A) (A) (A) (A) (A) (A) (A) (A) (A) (A)
                 (A) (A) (A) (A) (A) (A) (A) (A) (A) (A) (A) (A)
                 (A) (A) (A) (A) (A) (A) (A) (A) (A) (A) (A) (A)
                 (A) (A) (A) (A) (A) (A) (A) (A) (A) (A) (A) (A)
                 (A) (A) (A) (A) (A) (A) (A) (A) (A) (A) (A) (A)
                 (A) (A) (A) (A) (A) (A) (A) (A) (A) (A) (A) (A)
                 (A) (A) (A) (A) (A) (A) (A) (A) (A) (A) (A) (A)
                 (A) (A) (A) (A) (A) (A) (A) (A) (A) (A) (A) (A)
                 (A) (A) (A) (A) (A) (A) (A) (A) (A) (A) (A) (A)
                 (A) (A) (A) (A) (A) (A) (A) (A)
 The electronic state is 1-A.
 Alpha  occ. eigenvalues --  -24.80510 -24.80230 -24.79716 -19.42391 -10.39661
 Alpha  occ. eigenvalues --  -10.39658 -10.32291 -10.31445  -7.04248  -1.29989
 Alpha  occ. eigenvalues --   -1.25868  -1.24049  -1.23520  -0.92114  -0.88121
 Alpha  occ. eigenvalues --   -0.78664  -0.76889  -0.69848  -0.64899  -0.63476
 Alpha  occ. eigenvalues --   -0.61134  -0.56568  -0.56073  -0.54880  -0.51562
 Alpha  occ. eigenvalues --   -0.50884  -0.50362  -0.49182  -0.48863  -0.48519
 Alpha  occ. eigenvalues --   -0.47464  -0.46526  -0.46167  -0.45920  -0.45312
 Alpha  occ. eigenvalues --   -0.44149  -0.43777
 Alpha virt. eigenvalues --    0.03449   0.04490   0.04907   0.04983   0.06540
 Alpha virt. eigenvalues --    0.06801   0.07045   0.07270   0.07713   0.09137
 Alpha virt. eigenvalues --    0.09189   0.09675   0.11000   0.11110   0.13531
 Alpha virt. eigenvalues --    0.13695   0.13926   0.14386   0.14491   0.15210
 Alpha virt. eigenvalues --    0.15537   0.16566   0.17281   0.17482   0.18037
 Alpha virt. eigenvalues --    0.18126   0.18635   0.19035   0.19967   0.20795
 Alpha virt. eigenvalues --    0.21570   0.22185   0.22476   0.22761   0.24254
 Alpha virt. eigenvalues --    0.24693   0.25272   0.25720   0.26629   0.27078
 Alpha virt. eigenvalues --    0.28006   0.28217   0.28781   0.29266   0.29957
 Alpha virt. eigenvalues --    0.31786   0.32001   0.32652   0.33037   0.33203
 Alpha virt. eigenvalues --    0.34526   0.35047   0.36092   0.36613   0.37427
 Alpha virt. eigenvalues --    0.38150   0.38412   0.39389   0.39865   0.40514
 Alpha virt. eigenvalues --    0.40972   0.41655   0.42194   0.42360   0.43073
 Alpha virt. eigenvalues --    0.43555   0.44385   0.44975   0.46172   0.46338
 Alpha virt. eigenvalues --    0.46825   0.47969   0.48780   0.50648   0.51317
 Alpha virt. eigenvalues --    0.51876   0.52850   0.53055   0.53775   0.54510
 Alpha virt. eigenvalues --    0.55673   0.56218   0.57069   0.57892   0.58099
 Alpha virt. eigenvalues --    0.59015   0.59874   0.60318   0.60703   0.61961
 Alpha virt. eigenvalues --    0.63630   0.63711   0.64576   0.65799   0.66330
 Alpha virt. eigenvalues --    0.67108   0.67780   0.69669   0.69797   0.70384
 Alpha virt. eigenvalues --    0.71735   0.71953   0.73166   0.73843   0.75083
 Alpha virt. eigenvalues --    0.75778   0.76385   0.77322   0.77945   0.78281
 Alpha virt. eigenvalues --    0.79006   0.80537   0.80868   0.82183   0.83132
 Alpha virt. eigenvalues --    0.84001   0.85882   0.86318   0.88568   0.88934
 Alpha virt. eigenvalues --    0.91720   0.93727   0.95456   0.96471   0.97829
 Alpha virt. eigenvalues --    0.98770   1.01087   1.03573   1.05094   1.05970
 Alpha virt. eigenvalues --    1.07309   1.09596   1.11072   1.13296   1.14282
 Alpha virt. eigenvalues --    1.19616   1.19915   1.21100   1.22885   1.23981
 Alpha virt. eigenvalues --    1.29765   1.31068   1.32816   1.33610   1.34670
 Alpha virt. eigenvalues --    1.36753   1.38272   1.39041   1.40493   1.41892
 Alpha virt. eigenvalues --    1.43384   1.44713   1.45711   1.47768   1.48520
 Alpha virt. eigenvalues --    1.48847   1.49746   1.52552   1.54680   1.55311
 Alpha virt. eigenvalues --    1.56679   1.57715   1.59789   1.61315   1.62598
 Alpha virt. eigenvalues --    1.63840   1.65789   1.67027   1.67296   1.68146
 Alpha virt. eigenvalues --    1.69726   1.70305   1.72236   1.73572   1.75001
 Alpha virt. eigenvalues --    1.76149   1.78241   1.78611   1.80623   1.82896
 Alpha virt. eigenvalues --    1.84056   1.85218   1.86795   1.87311   1.89609
 Alpha virt. eigenvalues --    1.91660   1.92086   1.95307   1.95687   1.96343
 Alpha virt. eigenvalues --    1.96890   1.99092   2.01160   2.03017   2.04478
 Alpha virt. eigenvalues --    2.06774   2.07100   2.08406   2.10125   2.11954
 Alpha virt. eigenvalues --    2.14074   2.15792   2.17396   2.19546   2.20948
 Alpha virt. eigenvalues --    2.21814   2.23353   2.26629   2.27393   2.28151
 Alpha virt. eigenvalues --    2.31798   2.33080   2.35490   2.39083   2.41962
 Alpha virt. eigenvalues --    2.44435   2.46507   2.48293   2.51823   2.52483
 Alpha virt. eigenvalues --    2.56633   2.57992   2.59276   2.60994   2.66081
 Alpha virt. eigenvalues --    2.68042   2.71631   2.75987   2.79012   2.80080
 Alpha virt. eigenvalues --    2.84670   2.86572   2.88119   2.95009   2.97938
 Alpha virt. eigenvalues --    3.03500   3.08312   3.23151   3.28906   3.38831
 Alpha virt. eigenvalues --    3.57899   3.67247   3.68003   3.83255   3.92115
 Alpha virt. eigenvalues --    4.64581   4.64767   4.66154   4.67100   4.70944
 Alpha virt. eigenvalues --    4.73201   4.74827   4.76395   4.78435   4.79302
 Alpha virt. eigenvalues --    4.80406   4.83087   4.86596   4.92153   4.92704
          Condensed to atoms (all electrons):
               1          2          3          4          5          6
     1  B    3.458932   0.049326   0.091641   0.161027  -0.231508  -0.097416
     2  F    0.049326   9.643758  -0.107904  -0.097934   0.133834   0.059727
     3  F    0.091641  -0.107904   9.781257  -0.147321  -0.023485  -0.043002
     4  F    0.161027  -0.097934  -0.147321   9.859292  -0.159348  -0.061297
     5  O   -0.231508   0.133834  -0.023485  -0.159348   9.853638   0.051458
     6  C   -0.097416   0.059727  -0.043002  -0.061297   0.051458   5.129456
     7  C    0.034110   0.006724  -0.018218   0.011075  -0.170613   0.293197
     8  C   -0.000450  -0.116504   0.026999   0.024283  -0.025720  -0.135050
     9  C    0.004373   0.018517  -0.019619   0.010001  -0.108008  -0.099982
    10  H   -0.068269   0.003466   0.028274  -0.007603   0.104698  -0.167655
    11  H    0.037777  -0.001287   0.015537  -0.003937  -0.311364   0.187512
    12  H    0.002557   0.001879  -0.001545  -0.001725   0.091060   0.068174
    13  H   -0.005035  -0.000105   0.000039  -0.001828  -0.099005  -0.123363
    14  H    0.015622  -0.001676   0.001222   0.003496  -0.094534   0.008532
    15  H   -0.081670   0.003060   0.013512   0.005768   0.102094   0.071509
    16  H    0.086481   0.002606  -0.002901  -0.002991  -0.302623  -0.148846
    17  H    0.007808   0.004861   0.001150  -0.000001   0.071242   0.006402
    18  H   -0.013689   0.001234   0.001794   0.004705  -0.049560   0.001656
    19  H    0.044062  -0.017699   0.029491   0.005358  -0.087164  -0.035226
               7          8          9         10         11         12
     1  B    0.034110  -0.000450   0.004373  -0.068269   0.037777   0.002557
     2  F    0.006724  -0.116504   0.018517   0.003466  -0.001287   0.001879
     3  F   -0.018218   0.026999  -0.019619   0.028274   0.015537  -0.001545
     4  F    0.011075   0.024283   0.010001  -0.007603  -0.003937  -0.001725
     5  O   -0.170613  -0.025720  -0.108008   0.104698  -0.311364   0.091060
     6  C    0.293197  -0.135050  -0.099982  -0.167655   0.187512   0.068174
     7  C    4.713391  -0.032458   0.012396  -0.115428  -0.149108   0.315763
     8  C   -0.032458   4.973411   0.170312   0.041954   0.009674  -0.029945
     9  C    0.012396   0.170312   4.801104   0.049939  -0.027639   0.011780
    10  H   -0.115428   0.041954   0.049939   1.661928  -0.226558  -0.062654
    11  H   -0.149108   0.009674  -0.027639  -0.226558   1.945987  -0.159633
    12  H    0.315763  -0.029945   0.011780  -0.062654  -0.159633   1.502388
    13  H    0.360287   0.024077   0.000929   0.105378  -0.090203  -0.237240
    14  H    0.271483   0.033835  -0.018852  -0.130670   0.123516  -0.310680
    15  H   -0.023769   0.001131  -0.090325  -0.015604  -0.001586  -0.000862
    16  H    0.062029   0.099394  -0.157011   0.016939   0.022346  -0.010213
    17  H    0.004297   0.049896   0.259249   0.001215  -0.002259   0.001635
    18  H   -0.015222  -0.125520   0.392218  -0.000647  -0.000445  -0.000694
    19  H    0.009574   0.040159   0.289395   0.001217  -0.002274   0.000322
              13         14         15         16         17         18
     1  B   -0.005035   0.015622  -0.081670   0.086481   0.007808  -0.013689
     2  F   -0.000105  -0.001676   0.003060   0.002606   0.004861   0.001234
     3  F    0.000039   0.001222   0.013512  -0.002901   0.001150   0.001794
     4  F   -0.001828   0.003496   0.005768  -0.002991  -0.000001   0.004705
     5  O   -0.099005  -0.094534   0.102094  -0.302623   0.071242  -0.049560
     6  C   -0.123363   0.008532   0.071509  -0.148846   0.006402   0.001656
     7  C    0.360287   0.271483  -0.023769   0.062029   0.004297  -0.015222
     8  C    0.024077   0.033835   0.001131   0.099394   0.049896  -0.125520
     9  C    0.000929  -0.018852  -0.090325  -0.157011   0.259249   0.392218
    10  H    0.105378  -0.130670  -0.015604   0.016939   0.001215  -0.000647
    11  H   -0.090203   0.123516  -0.001586   0.022346  -0.002259  -0.000445
    12  H   -0.237240  -0.310680  -0.000862  -0.010213   0.001635  -0.000694
    13  H    1.398130  -0.231357  -0.002203  -0.001613  -0.002091   0.001856
    14  H   -0.231357   1.397198  -0.014597   0.013013  -0.002489  -0.000267
    15  H   -0.002203  -0.014597   1.554344  -0.307541  -0.069591   0.107677
    16  H   -0.001613   0.013013  -0.307541   2.210019  -0.094941  -0.121918
    17  H   -0.002091  -0.002489  -0.069591  -0.094941   1.449828  -0.228904
    18  H    0.001856  -0.000267   0.107677  -0.121918  -0.228904   1.384169
    19  H    0.000873   0.001902  -0.133623   0.101730  -0.278790  -0.240949
              19
     1  B    0.044062
     2  F   -0.017699
     3  F    0.029491
     4  F    0.005358
     5  O   -0.087164
     6  C   -0.035226
     7  C    0.009574
     8  C    0.040159
     9  C    0.289395
    10  H    0.001217
    11  H   -0.002274
    12  H    0.000322
    13  H    0.000873
    14  H    0.001902
    15  H   -0.133623
    16  H    0.101730
    17  H   -0.278790
    18  H   -0.240949
    19  H    1.367239
 Mulliken charges:
               1
     1  B    1.504322
     2  F   -0.585883
     3  F   -0.626921
     4  F   -0.601019
     5  O   -0.745091
     6  C    1.034214
     7  C    0.430489
     8  C    0.970522
     9  C    0.501221
    10  H   -0.219919
    11  H   -0.366054
    12  H   -0.180367
    13  H   -0.097526
    14  H   -0.064697
    15  H   -0.117724
    16  H   -0.463960
    17  H   -0.178519
    18  H   -0.097494
    19  H   -0.095595
 Sum of Mulliken charges =  -0.00000
 Mulliken charges with hydrogens summed into heavy atoms:
               1
     1  B    1.504322
     2  F   -0.585883
     3  F   -0.626921
     4  F   -0.601019
     5  O   -0.745091
     6  C    0.448241
     7  C    0.087900
     8  C    0.388838
     9  C    0.129613
 Electronic spatial extent (au):  <R**2>=           1311.2468
 Charge=             -0.0000 electrons
 Dipole moment (field-independent basis, Debye):
    X=              8.7293    Y=              4.2935    Z=              0.5954  Tot=              9.7463
 Quadrupole moment (field-independent basis, Debye-Ang):
   XX=            -53.8095   YY=            -51.9323   ZZ=            -56.9376
   XY=             -5.1462   XZ=              0.0026   YZ=              0.3355
 Traceless Quadrupole moment (field-independent basis, Debye-Ang):
   XX=              0.4170   YY=              2.2942   ZZ=             -2.7112
   XY=             -5.1462   XZ=              0.0026   YZ=              0.3355
 Octapole moment (field-independent basis, Debye-Ang**2):
  XXX=             18.5548  YYY=             15.1042  ZZZ=             -1.7660  XYY=              5.2749
  XXY=             -5.1752  XXZ=              2.3153  XZZ=              4.7341  YZZ=             -1.1664
  YYZ=              2.8149  XYZ=              0.0351
 Hexadecapole moment (field-independent basis, Debye-Ang**3):
 XXXX=           -772.9000 YYYY=           -570.9861 ZZZZ=           -190.3510 XXXY=             -8.8119
 XXXZ=             -7.4534 YYYX=             -7.9253 YYYZ=              1.7821 ZZZX=              4.8049
 ZZZY=              0.6891 XXYY=           -222.9014 XXZZ=           -177.0764 YYZZ=           -128.4325
 XXYZ=              1.5843 YYXZ=              0.6760 ZZXY=              1.1612
 N-N= 5.140122201598D+02 E-N=-2.343320791240D+03  KE= 5.539458297878D+02
 D1PCM: C-PCM CHGder 1st derivatives, ID1Alg=3 FixD1E=F DoIter=F DoCFld=F I1PDM=0.
 Calling FoFJK, ICntrl=      2127 FMM=F ISym2X=0 I1Cent= 0 IOpClX= 0 NMat=1 NMatS=1 NMatT=0.
 ***** Axes restored to original set *****
 -------------------------------------------------------------------
 Center     Atomic                   Forces (Hartrees/Bohr)
 Number     Number              X              Y              Z
 -------------------------------------------------------------------
      1        5          -0.101080720    0.057448543    0.000922782
      2        9           0.009378796   -0.055295944    0.039146778
      3        9           0.016242718   -0.021171926   -0.062300873
      4        9           0.059933775    0.029256334    0.017824429
      5        8          -0.005749590    0.002333794   -0.006164492
      6        6          -0.010633088   -0.074333056    0.003105396
      7        6           0.014380071    0.007965989   -0.000157856
      8        6           0.063084674    0.030125753    0.026029761
      9        6          -0.010757136    0.009928620   -0.005389189
     10        1           0.002688289    0.010187911   -0.010330661
     11        1           0.007570523    0.019827044    0.006086469
     12        1          -0.004329857    0.013845442    0.001328824
     13        1          -0.003812131   -0.002323567    0.009310102
     14        1          -0.007283872   -0.000369474   -0.007075474
     15        1          -0.007232020   -0.003062467   -0.013828340
     16        1          -0.019827502   -0.002614924   -0.001668118
     17        1          -0.008448977   -0.011887388   -0.002005464
     18        1          -0.000781941   -0.002383725    0.011275271
     19        1           0.006657988   -0.007476959   -0.006109344
 -------------------------------------------------------------------
 Cartesian Forces:  Max     0.101080720 RMS     0.027024808

 GradGradGradGradGradGradGradGradGradGradGradGradGradGradGradGradGradGrad
 Berny optimization.
 FormGI is forming the generalized inverse of G from B-inverse, IUseBI=4.
 Internal  Forces:  Max     0.068283268 RMS     0.015017141
 Search for a local minimum.
 Step number   1 out of a maximum of   97
 All quantities printed in internal units (Hartrees-Bohrs-Radians)
 Mixed Optimization -- RFO/linear search
 Second derivative matrix not updated -- first step.
 ITU=  0
     Eigenvalues ---    0.00251   0.00268   0.01333   0.01339   0.01342
     Eigenvalues ---    0.02840   0.03984   0.03993   0.05267   0.05280
     Eigenvalues ---    0.05449   0.05478   0.05624   0.05636   0.09809
     Eigenvalues ---    0.09828   0.10871   0.11337   0.13172   0.13184
     Eigenvalues ---    0.16000   0.16000   0.16000   0.16000   0.16000
     Eigenvalues ---    0.16000   0.18004   0.18380   0.21989   0.21998
     Eigenvalues ---    0.25000   0.25000   0.25000   0.28403   0.28424
     Eigenvalues ---    0.28448   0.28617   0.28731   0.31825   0.31883
     Eigenvalues ---    0.31931   0.31941   0.32093   0.32097   0.32158
     Eigenvalues ---    0.32163   0.32276   0.32289   0.36141   0.41406
     Eigenvalues ---    0.41503
 RFO step:  Lambda=-5.98815864D-02 EMin= 2.51369611D-03
 Linear search not attempted -- first point.
 Maximum step size (   0.300) exceeded in Quadratic search.
    -- Step size scaled by   0.714
 Iteration  1 RMS(Cart)=  0.03360283 RMS(Int)=  0.00078809
 Iteration  2 RMS(Cart)=  0.00081780 RMS(Int)=  0.00035308
 Iteration  3 RMS(Cart)=  0.00000139 RMS(Int)=  0.00035308
 Iteration  4 RMS(Cart)=  0.00000000 RMS(Int)=  0.00035308
 Variable       Old X    -DE/DX   Delta X   Delta X   Delta X     New X
                                 (Linear)    (Quad)   (Total)
    R1        2.91222  -0.06809   0.00000  -0.14128  -0.14128   2.77093
    R2        2.91169  -0.06737   0.00000  -0.13969  -0.13969   2.77200
    R3        2.91265  -0.06828   0.00000  -0.14176  -0.14176   2.77089
    R4        2.77162   0.01782   0.00000   0.03021   0.03021   2.80182
    R5        2.69686   0.02517   0.00000   0.03791   0.03791   2.73477
    R6        2.69561   0.02679   0.00000   0.04027   0.04027   2.73588
    R7        2.90810  -0.01212   0.00000  -0.02501  -0.02501   2.88309
    R8        2.10970  -0.01204   0.00000  -0.02268  -0.02268   2.08702
    R9        2.11165  -0.01685   0.00000  -0.03182  -0.03182   2.07983
   R10        2.10667  -0.01261   0.00000  -0.02365  -0.02365   2.08302
   R11        2.10556  -0.01028   0.00000  -0.01924  -0.01924   2.08632
   R12        2.10342  -0.01007   0.00000  -0.01878  -0.01878   2.08464
   R13        2.90568  -0.01282   0.00000  -0.02637  -0.02637   2.87931
   R14        2.10952  -0.01276   0.00000  -0.02401  -0.02401   2.08551
   R15        2.11058  -0.01539   0.00000  -0.02902  -0.02902   2.08155
   R16        2.10674  -0.01196   0.00000  -0.02242  -0.02242   2.08431
   R17        2.10546  -0.01152   0.00000  -0.02156  -0.02156   2.08390
   R18        2.10318  -0.01150   0.00000  -0.02146  -0.02146   2.08173
    A1        1.90360   0.00855   0.00000   0.01974   0.01959   1.92318
    A2        1.82742   0.01335   0.00000   0.03431   0.03419   1.86161
    A3        1.92656  -0.00579   0.00000  -0.01141  -0.01155   1.91500
    A4        1.86798   0.01202   0.00000   0.02433   0.02377   1.89175
    A5        1.95334  -0.01005   0.00000  -0.02505  -0.02544   1.92791
    A6        1.97921  -0.01542   0.00000  -0.03560  -0.03595   1.94325
    A7        1.96853  -0.00110   0.00000   0.00179   0.00159   1.97012
    A8        1.98442   0.00400   0.00000   0.01692   0.01684   2.00126
    A9        1.94633   0.00010   0.00000   0.00540   0.00523   1.95156
   A10        2.00635  -0.01002   0.00000  -0.02828  -0.02806   1.97829
   A11        1.93677  -0.00174   0.00000  -0.01876  -0.01861   1.91816
   A12        1.91455  -0.00722   0.00000  -0.03702  -0.03654   1.87801
   A13        1.91575   0.00686   0.00000   0.02514   0.02437   1.94011
   A14        1.82456   0.01304   0.00000   0.05170   0.05098   1.87554
   A15        1.85695   0.00044   0.00000   0.01357   0.01195   1.86890
   A16        1.93789  -0.01078   0.00000  -0.03685  -0.03690   1.90100
   A17        1.93850   0.00018   0.00000   0.00049   0.00037   1.93888
   A18        1.96017   0.00288   0.00000   0.01133   0.01135   1.97151
   A19        1.87669   0.00399   0.00000   0.00919   0.00900   1.88569
   A20        1.85108   0.00438   0.00000   0.01447   0.01456   1.86564
   A21        1.89546  -0.00027   0.00000   0.00249   0.00244   1.89790
   A22        2.00974  -0.00495   0.00000  -0.01506  -0.01487   1.99487
   A23        1.94003  -0.00432   0.00000  -0.02558  -0.02551   1.91452
   A24        1.91489  -0.00735   0.00000  -0.03582  -0.03564   1.87925
   A25        1.90584   0.00632   0.00000   0.02532   0.02480   1.93064
   A26        1.82567   0.00995   0.00000   0.04134   0.04086   1.86653
   A27        1.85860   0.00156   0.00000   0.01571   0.01425   1.87284
   A28        1.93610  -0.01231   0.00000  -0.04128  -0.04134   1.89476
   A29        1.93980   0.00089   0.00000   0.00284   0.00276   1.94256
   A30        1.95786   0.00143   0.00000   0.00603   0.00602   1.96388
   A31        1.87307   0.00488   0.00000   0.01320   0.01307   1.88614
   A32        1.85460   0.00588   0.00000   0.01924   0.01925   1.87384
   A33        1.89844  -0.00028   0.00000   0.00146   0.00143   1.89987
    D1       -2.68510   0.00044   0.00000   0.00911   0.00915  -2.67595
    D2        1.35998  -0.00224   0.00000  -0.01496  -0.01497   1.34501
    D3        1.47436   0.00047   0.00000   0.00907   0.00926   1.48362
    D4       -0.76374  -0.00221   0.00000  -0.01500  -0.01486  -0.77860
    D5       -0.64101   0.00353   0.00000   0.02198   0.02182  -0.61918
    D6       -2.87911   0.00085   0.00000  -0.00209  -0.00229  -2.88140
    D7        2.92996  -0.00093   0.00000  -0.00946  -0.00940   2.92056
    D8       -1.16644  -0.00106   0.00000  -0.01359  -0.01349  -1.17993
    D9        0.88039  -0.00601   0.00000  -0.03098  -0.03106   0.84933
   D10       -1.09539   0.00374   0.00000   0.02012   0.02012  -1.07527
   D11        1.09139   0.00361   0.00000   0.01599   0.01603   1.10743
   D12        3.13822  -0.00134   0.00000  -0.00141  -0.00154   3.13668
   D13       -0.95528   0.00191   0.00000   0.01483   0.01486  -0.94041
   D14        1.22346   0.00294   0.00000   0.01580   0.01580   1.23925
   D15       -3.00870  -0.00234   0.00000  -0.00266  -0.00253  -3.01124
   D16        3.07847  -0.00008   0.00000  -0.00698  -0.00704   3.07142
   D17       -1.02598   0.00094   0.00000  -0.00601  -0.00611  -1.03209
   D18        1.02504  -0.00434   0.00000  -0.02446  -0.02444   1.00060
   D19       -2.87012   0.00094   0.00000   0.00232   0.00234  -2.86778
   D20       -0.78278  -0.00105   0.00000  -0.01016  -0.01003  -0.79280
   D21        1.34374   0.00078   0.00000   0.00143   0.00156   1.34531
   D22        1.21538   0.00540   0.00000   0.02875   0.02920   1.24457
   D23       -2.98046   0.00341   0.00000   0.01627   0.01682  -2.96364
   D24       -0.85394   0.00524   0.00000   0.02786   0.02841  -0.82553
   D25       -0.77027  -0.00476   0.00000  -0.02417  -0.02486  -0.79512
   D26        1.31708  -0.00675   0.00000  -0.03665  -0.03723   1.27985
   D27       -2.83959  -0.00491   0.00000  -0.02506  -0.02564  -2.86523
   D28       -2.95794   0.00054   0.00000   0.00070   0.00069  -2.95725
   D29       -0.87547  -0.00085   0.00000  -0.00802  -0.00797  -0.88344
   D30        1.25421   0.00045   0.00000   0.00020   0.00024   1.25444
   D31        1.12880   0.00491   0.00000   0.02567   0.02603   1.15483
   D32       -3.07192   0.00352   0.00000   0.01695   0.01738  -3.05454
   D33       -0.94225   0.00482   0.00000   0.02517   0.02558  -0.91666
   D34       -0.85494  -0.00455   0.00000  -0.02383  -0.02430  -0.87923
   D35        1.22753  -0.00594   0.00000  -0.03255  -0.03295   1.19458
   D36       -2.92598  -0.00464   0.00000  -0.02433  -0.02475  -2.95073
         Item               Value     Threshold  Converged?
 Maximum Force            0.068283     0.000450     NO 
 RMS     Force            0.015017     0.000300     NO 
 Maximum Displacement     0.139017     0.001800     NO 
 RMS     Displacement     0.033531     0.001200     NO 
 Predicted change in Energy=-3.057992D-02
 GradGradGradGradGradGradGradGradGradGradGradGradGradGradGradGradGradGrad

                          Input orientation:                          
 ---------------------------------------------------------------------
 Center     Atomic      Atomic             Coordinates (Angstroms)
 Number     Number       Type             X           Y           Z
 ---------------------------------------------------------------------
      1          5           0       -1.692764    0.666619   -0.070175
      2          9           0       -1.733744    1.849082   -0.936302
      3          9           0       -1.886800    1.057825    1.330195
      4          9           0       -2.814897   -0.187623   -0.471553
      5          8           0       -0.395829   -0.031955   -0.238225
      6          6           0       -0.476986   -1.447051    0.053751
      7          6           0        0.750376   -2.229956   -0.402654
      8          6           0        0.719865    0.594125    0.439469
      9          6           0        0.916502    2.065454    0.095833
     10          1           0       -0.668503   -1.598317    1.130852
     11          1           0       -1.345927   -1.849514   -0.488725
     12          1           0        0.506336   -3.304867   -0.409755
     13          1           0        1.048652   -1.940276   -1.425398
     14          1           0        1.616363   -2.102271    0.268679
     15          1           0        0.615159    0.460371    1.529924
     16          1           0        1.636726    0.067160    0.131248
     17          1           0        1.886591    2.394836    0.504469
     18          1           0        0.933807    2.223097   -0.995458
     19          1           0        0.138613    2.709239    0.536240
 ---------------------------------------------------------------------
                    Distance matrix (angstroms):
                    1          2          3          4          5
     1  B    0.000000
     2  F    1.466314   0.000000
     3  F    1.466877   2.405519   0.000000
     4  F    1.466294   2.352243   2.378824   0.000000
     5  O    1.482662   2.411562   2.422923   2.435275   0.000000
     6  C    2.441530   3.663896   3.145042   2.707016   1.447180
     7  C    3.803895   4.805641   4.557079   4.109385   2.484357
     8  C    2.466936   3.080238   2.793405   3.733047   1.447764
     9  C    2.965227   2.852355   3.224511   4.395637   2.496585
    10  H    2.760708   4.158416   2.929006   3.027337   2.098145
    11  H    2.574180   3.745709   3.471834   2.218119   2.066145
    12  H    4.552368   5.644325   5.271395   4.555395   3.399305
    13  H    4.018444   4.726540   5.019839   4.348405   2.671627
    14  H    4.328035   5.318683   4.835821   4.883635   2.931224
    15  H    2.815912   3.678062   2.580046   4.023816   2.095432
    16  H    3.389015   3.959164   3.851509   4.499470   2.068239
    17  H    4.016059   3.934526   4.087529   5.452128   3.413261
    18  H    3.190242   2.694293   3.836970   4.487630   2.725177
    19  H    2.809623   2.532582   2.731269   4.258014   2.898202
                    6          7          8          9         10
     6  C    0.000000
     7  C    1.525668   0.000000
     8  C    2.397422   2.947124   0.000000
     9  C    3.779057   4.327429   1.523667   0.000000
    10  H    1.104403   2.182619   2.685588   4.123921   0.000000
    11  H    1.100598   2.132283   3.331729   4.559306   1.773423
    12  H    2.152496   1.102288   3.996113   5.409640   2.581865
    13  H    2.181450   1.104034   3.163704   4.286896   3.098382
    14  H    2.204000   1.103143   2.846652   4.229612   2.493576
    15  H    2.647664   3.315269   1.103606   2.173412   2.458708
    16  H    2.601272   2.519407   1.101511   2.124419   3.014482
    17  H    4.533181   4.847944   2.146633   1.102972   4.781854
    18  H    4.069540   4.496081   2.181361   1.102754   4.657445
    19  H    4.229244   5.064724   2.195661   1.101603   4.422673
                   11         12         13         14         15
    11  H    0.000000
    12  H    2.356940   0.000000
    13  H    2.572860   1.785426   0.000000
    14  H    3.068014   1.771629   1.794000   0.000000
    15  H    3.640930   4.236888   3.832095   3.026596   0.000000
    16  H    3.599198   3.597365   2.607446   2.173875   1.776094
    17  H    5.426796   5.935278   4.818684   4.511384   2.531847
    18  H    4.694691   5.575317   4.187088   4.557711   3.096174
    19  H    4.902718   6.099147   5.127785   5.040433   2.504378
                   16         17         18         19
    16  H    0.000000
    17  H    2.370612   0.000000
    18  H    2.532118   1.785237   0.000000
    19  H    3.064138   1.776312   1.792977   0.000000
 Stoichiometry    C4H10BF3O
 Framework group  C1[X(C4H10BF3O)]
 Deg. of freedom    51
 Full point group                 C1      NOp   1
 Largest Abelian subgroup         C1      NOp   1
 Largest concise Abelian subgroup C1      NOp   1
                         Standard orientation:                         
 ---------------------------------------------------------------------
 Center     Atomic      Atomic             Coordinates (Angstroms)
 Number     Number       Type             X           Y           Z
 ---------------------------------------------------------------------
      1          5           0       -0.909323   -0.580298   -0.025740
      2          9           0       -1.867805   -0.037838   -0.993792
      3          9           0       -1.392548   -0.361927    1.341935
      4          9           0       -0.840305   -2.024993   -0.266805
      5          8           0        0.413033    0.062406   -0.217031
      6          6           0        1.512881   -0.775128    0.210991
      7          6           0        2.874926   -0.268877   -0.253989
      8          6           0        0.516675    1.402775    0.320267
      9          6           0       -0.560927    2.360740   -0.172317
     10          1           0        1.486710   -0.898407    1.308180
     11          1           0        1.363068   -1.772320   -0.230008
     12          1           0        3.614101   -1.079104   -0.143573
     13          1           0        2.847201    0.026082   -1.317531
     14          1           0        3.242984    0.584093    0.340907
     15          1           0        0.525543    1.361726    1.423074
     16          1           0        1.485601    1.817430    0.000002
     17          1           0       -0.288302    3.384173    0.135590
     18          1           0       -0.639496    2.343966   -1.272141
     19          1           0       -1.550472    2.140365    0.258688
 ---------------------------------------------------------------------
 Rotational constants (GHZ):           1.8133461           1.3738963           0.9799142
 Standard basis: Aug-CC-pVDZ (5D, 7F)
 There are   315 symmetry adapted cartesian basis functions of A   symmetry.
 There are   297 symmetry adapted basis functions of A   symmetry.
   297 basis functions,   497 primitive gaussians,   315 cartesian basis functions
    37 alpha electrons       37 beta electrons
       nuclear repulsion energy       521.5289971004 Hartrees.
 NAtoms=   19 NActive=   19 NUniq=   19 SFac= 1.00D+00 NAtFMM=   60 NAOKFM=F Big=F
 Integral buffers will be    131072 words long.
 Raffenetti 2 integral format.
 Two-electron integral symmetry is turned on.
 Nuclear repulsion after empirical dispersion term =      521.5167933306 Hartrees.
 Force PCM accuracy= 1.00D-12.
 ------------------------------------------------------------------------------
 Polarizable Continuum Model (PCM)
 =================================
 Model                : C-PCM.
 Atomic radii         : UFF (Universal Force Field).
 Polarization charges : Total charges.
 Charge compensation  : None.
 Solution method      : On-the-fly selection.
 Cavity type          : Scaled VdW (van der Waals Surface) (Alpha=1.100).
 Cavity algorithm     : GePol (No added spheres)
                        Default sphere list used, NSphG=   19.
                        Lebedev-Laikov grids with approx.  5.0 points / Ang**2.
                        Smoothing algorithm: York/Karplus (Gamma=1.0000).
                        Polarization charges: spherical gaussians, with
                                              point-specific exponents (IZeta= 3).
                        Self-potential: point-specific (ISelfS= 7).
                        Self-field    : sphere-specific E.n sum rule (ISelfD= 2).
 1st derivatives      : Analytical E(r).r(x)/FMM algorithm (CHGder, D1EAlg=3).
                        Cavity 1st derivative terms included.
 Solvent              : Chloroform, Eps=   4.711300 Eps(inf)=   2.090627
 ------------------------------------------------------------------------------
 Spheres list:
 ISph  on   Nord     Re0    Alpha      Xe            Ye            Ze
    1   B      1    2.0415  1.100     -0.909323     -0.580298     -0.025740
    2   F      2    1.6820  1.100     -1.867805     -0.037838     -0.993792
    3   F      3    1.6820  1.100     -1.392548     -0.361927      1.341935
    4   F      4    1.6820  1.100     -0.840305     -2.024993     -0.266805
    5   O      5    1.7500  1.100      0.413033      0.062406     -0.217031
    6   C      6    1.9255  1.100      1.512881     -0.775128      0.210991
    7   C      7    1.9255  1.100      2.874926     -0.268877     -0.253989
    8   C      8    1.9255  1.100      0.516675      1.402775      0.320267
    9   C      9    1.9255  1.100     -0.560927      2.360740     -0.172317
   10   H     10    1.4430  1.100      1.486710     -0.898407      1.308180
   11   H     11    1.4430  1.100      1.363068     -1.772320     -0.230008
   12   H     12    1.4430  1.100      3.614101     -1.079104     -0.143573
   13   H     13    1.4430  1.100      2.847201      0.026082     -1.317531
   14   H     14    1.4430  1.100      3.242984      0.584093      0.340907
   15   H     15    1.4430  1.100      0.525543      1.361726      1.423074
   16   H     16    1.4430  1.100      1.485601      1.817430      0.000002
   17   H     17    1.4430  1.100     -0.288302      3.384173      0.135590
   18   H     18    1.4430  1.100     -0.639496      2.343966     -1.272141
   19   H     19    1.4430  1.100     -1.550472      2.140365      0.258688
 ------------------------------------------------------------------------------
 One-electron integrals computed using PRISM.
 NBasis=   297 RedAO= T EigKep=  3.00D-05  NBF=   297
 NBsUse=   297 1.00D-06 EigRej= -1.00D+00 NBFU=   297
 Initial guess from the checkpoint file:  "/inspire/hdd/project/materialscienceresearch/lipenghui-253107030018/g16/00-B-DFT-Shift/04-output/BF3OEt2_CDCl3/BF3OEt2_CDCl3.chk"
 B after Tr=     0.000000   -0.000000    0.000000
         Rot=    0.999999   -0.001120    0.000487    0.000052 Ang=  -0.14 deg.
 ExpMin= 2.38D-02 ExpMax= 1.47D+04 ExpMxC= 5.03D+02 IAcc=3 IRadAn=         5 AccDes= 0.00D+00
 Harris functional with IExCor= 4639 and IRadAn=       5 diagonalized for initial guess.
 HarFok:  IExCor= 4639 AccDes= 0.00D+00 IRadAn=         5 IDoV= 1 UseB2=F ITyADJ=14
 ICtDFT=  3500011 ScaDFX=  1.000000  1.000000  1.000000  1.000000
 FoFCou: FMM=F IPFlag=           0 FMFlag=      100000 FMFlg1=           0
         NFxFlg=           0 DoJE=T BraDBF=F KetDBF=T FulRan=T
         wScrn=  0.000000 ICntrl=       500 IOpCl=  0 I1Cent=   200000004 NGrid=           0
         NMat0=    1 NMatS0=      1 NMatT0=    0 NMatD0=    1 NMtDS0=    0 NMtDT0=    0
 Petite list used in FoFCou.
 Requested convergence on RMS density matrix=1.00D-08 within 128 cycles.
 Requested convergence on MAX density matrix=1.00D-06.
 Requested convergence on             energy=1.00D-06.
 No special actions if energy rises.
 Inv3:  Mode=1 IEnd=     6894768.
 Iteration    1 A*A^-1 deviation from unit magnitude is 6.88D-15 for   1508.
 Iteration    1 A*A^-1 deviation from orthogonality  is 3.26D-15 for   1508   1071.
 Iteration    1 A^-1*A deviation from unit magnitude is 6.66D-15 for   1508.
 Iteration    1 A^-1*A deviation from orthogonality  is 1.78D-15 for   1392    891.
 Error on total polarization charges =  0.00891
 SCF Done:  E(RwB97XD) =  -558.129686776     A.U. after   11 cycles
            NFock= 11  Conv=0.39D-08     -V/T= 2.0067
 D1PCM: C-PCM CHGder 1st derivatives, ID1Alg=3 FixD1E=F DoIter=F DoCFld=F I1PDM=0.
 Calling FoFJK, ICntrl=      2127 FMM=F ISym2X=0 I1Cent= 0 IOpClX= 0 NMat=1 NMatS=1 NMatT=0.
 ***** Axes restored to original set *****
 -------------------------------------------------------------------
 Center     Atomic                   Forces (Hartrees/Bohr)
 Number     Number              X              Y              Z
 -------------------------------------------------------------------
      1        5          -0.071585681    0.040263319    0.000022054
      2        9           0.007585219   -0.032648624    0.023410088
      3        9           0.011086631   -0.012245335   -0.035337803
      4        9           0.035273623    0.016415797    0.010131697
      5        8           0.003501000   -0.003174529   -0.001682409
      6        6          -0.002780206   -0.042135514   -0.000085999
      7        6           0.007083592    0.005716650    0.000733998
      8        6           0.035279144    0.016787309    0.012634344
      9        6          -0.007187719    0.004080481   -0.002774748
     10        1           0.002091857    0.006722959   -0.003421641
     11        1           0.003221650    0.010854509    0.001569610
     12        1          -0.002225914    0.004928622    0.000551151
     13        1          -0.002264688   -0.001319957    0.003563550
     14        1          -0.003469403   -0.000176855   -0.002876944
     15        1          -0.005701753   -0.001821601   -0.005652814
     16        1          -0.009715728   -0.002160775   -0.002315348
     17        1          -0.002800905   -0.005268049   -0.000439511
     18        1           0.000151321   -0.001246864    0.004593094
     19        1           0.002457960   -0.003571545   -0.002622369
 -------------------------------------------------------------------
 Cartesian Forces:  Max     0.071585681 RMS     0.016610424

 GradGradGradGradGradGradGradGradGradGradGradGradGradGradGradGradGradGrad
 Berny optimization.
 Using GEDIIS/GDIIS optimizer.
 FormGI is forming the generalized inverse of G from B-inverse, IUseBI=4.
 Internal  Forces:  Max     0.040368254 RMS     0.008864001
 Search for a local minimum.
 Step number   2 out of a maximum of   97
 All quantities printed in internal units (Hartrees-Bohrs-Radians)
 Mixed Optimization -- RFO/linear search
 Update second derivatives using D2CorX and points    1    2
 DE= -3.43D-02 DEPred=-3.06D-02 R= 1.12D+00
 TightC=F SS=  1.41D+00  RLast= 3.20D-01 DXNew= 5.0454D-01 9.5999D-01
 Trust test= 1.12D+00 RLast= 3.20D-01 DXMaxT set to 5.05D-01
 ITU=  1  0
 Use linear search instead of GDIIS.
     Eigenvalues ---    0.00251   0.00268   0.01333   0.01339   0.01342
     Eigenvalues ---    0.02741   0.04076   0.04138   0.05218   0.05261
     Eigenvalues ---    0.05520   0.05532   0.05666   0.05715   0.09724
     Eigenvalues ---    0.09835   0.11429   0.11630   0.13031   0.13110
     Eigenvalues ---    0.15911   0.16000   0.16000   0.16000   0.16000
     Eigenvalues ---    0.16132   0.18041   0.18370   0.19127   0.22017
     Eigenvalues ---    0.22172   0.25000   0.25011   0.26422   0.28415
     Eigenvalues ---    0.28452   0.28632   0.28746   0.31835   0.31895
     Eigenvalues ---    0.31935   0.31992   0.32095   0.32140   0.32160
     Eigenvalues ---    0.32253   0.32281   0.32621   0.37213   0.41133
     Eigenvalues ---    0.41536
 RFO step:  Lambda=-3.90513994D-03 EMin= 2.51377848D-03
 Quartic linear search produced a step of  1.03641.
 Iteration  1 RMS(Cart)=  0.03337934 RMS(Int)=  0.00135440
 Iteration  2 RMS(Cart)=  0.00140830 RMS(Int)=  0.00079417
 Iteration  3 RMS(Cart)=  0.00000498 RMS(Int)=  0.00079417
 Iteration  4 RMS(Cart)=  0.00000001 RMS(Int)=  0.00079417
 Variable       Old X    -DE/DX   Delta X   Delta X   Delta X     New X
                                 (Linear)    (Quad)   (Total)
    R1        2.77093  -0.04037  -0.14643  -0.02566  -0.17209   2.59884
    R2        2.77200  -0.03847  -0.14478  -0.01502  -0.15979   2.61220
    R3        2.77089  -0.03933  -0.14692  -0.01759  -0.16451   2.60638
    R4        2.80182   0.02078   0.03131   0.06345   0.09476   2.89658
    R5        2.73477   0.01499   0.03929   0.00919   0.04848   2.78326
    R6        2.73588   0.01415   0.04174   0.00102   0.04276   2.77863
    R7        2.88309  -0.00599  -0.02592   0.00384  -0.02207   2.86102
    R8        2.08702  -0.00462  -0.02350   0.01134  -0.01216   2.07486
    R9        2.07983  -0.00729  -0.03298   0.01073  -0.02225   2.05758
   R10        2.08302  -0.00432  -0.02451   0.01506  -0.00945   2.07357
   R11        2.08632  -0.00426  -0.01994   0.00759  -0.01235   2.07397
   R12        2.08464  -0.00449  -0.01947   0.00543  -0.01404   2.07060
   R13        2.87931  -0.00647  -0.02733   0.00310  -0.02423   2.85508
   R14        2.08551  -0.00482  -0.02489   0.01243  -0.01245   2.07306
   R15        2.08155  -0.00641  -0.03008   0.01135  -0.01873   2.06283
   R16        2.08431  -0.00420  -0.02324   0.01359  -0.00965   2.07467
   R17        2.08390  -0.00472  -0.02235   0.00887  -0.01348   2.07043
   R18        2.08173  -0.00487  -0.02224   0.00782  -0.01442   2.06731
    A1        1.92318   0.00742   0.02030   0.01684   0.03519   1.95837
    A2        1.86161   0.01138   0.03544   0.03479   0.06883   1.93044
    A3        1.91500  -0.00718  -0.01197  -0.03381  -0.04732   1.86768
    A4        1.89175   0.00997   0.02463   0.03342   0.05563   1.94737
    A5        1.92791  -0.00864  -0.02636  -0.02448  -0.05287   1.87503
    A6        1.94325  -0.01193  -0.03726  -0.02365  -0.06267   1.88058
    A7        1.97012   0.00141   0.00165   0.01731   0.01876   1.98887
    A8        2.00126   0.00128   0.01745  -0.01588   0.00147   2.00272
    A9        1.95156  -0.00073   0.00542  -0.01294  -0.00777   1.94380
   A10        1.97829  -0.00295  -0.02908   0.02374  -0.00487   1.97342
   A11        1.91816  -0.00255  -0.01928  -0.01092  -0.03003   1.88813
   A12        1.87801  -0.00478  -0.03787   0.00086  -0.03642   1.84158
   A13        1.94011   0.00321   0.02525  -0.00523   0.01872   1.95883
   A14        1.87554   0.00626   0.05283  -0.01773   0.03393   1.90947
   A15        1.86890   0.00098   0.01238   0.00869   0.01807   1.88697
   A16        1.90100  -0.00482  -0.03824   0.01939  -0.01895   1.88205
   A17        1.93888  -0.00040   0.00039  -0.00576  -0.00554   1.93334
   A18        1.97151   0.00110   0.01176  -0.00885   0.00294   1.97445
   A19        1.88569   0.00169   0.00933  -0.00366   0.00536   1.89105
   A20        1.86564   0.00207   0.01509  -0.00634   0.00885   1.87449
   A21        1.89790   0.00049   0.00253   0.00533   0.00781   1.90571
   A22        1.99487  -0.00271  -0.01541  -0.00108  -0.01613   1.97874
   A23        1.91452  -0.00318  -0.02644  -0.00803  -0.03432   1.88019
   A24        1.87925  -0.00412  -0.03694   0.01066  -0.02584   1.85341
   A25        1.93064   0.00366   0.02570  -0.00381   0.02051   1.95115
   A26        1.86653   0.00542   0.04235  -0.00552   0.03580   1.90232
   A27        1.87284   0.00117   0.01476   0.00916   0.02109   1.89393
   A28        1.89476  -0.00598  -0.04285   0.01624  -0.02675   1.86801
   A29        1.94256   0.00018   0.00286  -0.00444  -0.00170   1.94085
   A30        1.96388   0.00021   0.00624  -0.00888  -0.00268   1.96119
   A31        1.88614   0.00230   0.01354  -0.00353   0.00978   1.89592
   A32        1.87384   0.00314   0.01995  -0.00233   0.01757   1.89141
   A33        1.89987   0.00034   0.00148   0.00319   0.00465   1.90452
    D1       -2.67595  -0.00044   0.00948  -0.03721  -0.02743  -2.70338
    D2        1.34501  -0.00191  -0.01551  -0.02021  -0.03555   1.30947
    D3        1.48362   0.00065   0.00959  -0.02001  -0.01016   1.47346
    D4       -0.77860  -0.00081  -0.01540  -0.00301  -0.01828  -0.79688
    D5       -0.61918   0.00179   0.02262  -0.03003  -0.00778  -0.62696
    D6       -2.88140   0.00033  -0.00238  -0.01303  -0.01590  -2.89730
    D7        2.92056  -0.00060  -0.00974  -0.00100  -0.01071   2.90985
    D8       -1.17993  -0.00055  -0.01398   0.00127  -0.01275  -1.19268
    D9        0.84933  -0.00342  -0.03219   0.00627  -0.02581   0.82352
   D10       -1.07527   0.00180   0.02085  -0.01958   0.00123  -1.07404
   D11        1.10743   0.00185   0.01662  -0.01732  -0.00081   1.10661
   D12        3.13668  -0.00103  -0.00159  -0.01232  -0.01387   3.12282
   D13       -0.94041   0.00181   0.01540   0.00543   0.02070  -0.91971
   D14        1.23925   0.00210   0.01637  -0.00688   0.00954   1.24879
   D15       -3.01124  -0.00051  -0.00263   0.00567   0.00320  -3.00803
   D16        3.07142  -0.00068  -0.00730   0.00731  -0.00017   3.07126
   D17       -1.03209  -0.00039  -0.00633  -0.00499  -0.01133  -1.04343
   D18        1.00060  -0.00299  -0.02533   0.00756  -0.01767   0.98293
   D19       -2.86778   0.00038   0.00243  -0.00529  -0.00286  -2.87063
   D20       -0.79280  -0.00081  -0.01039  -0.00106  -0.01126  -0.80406
   D21        1.34531   0.00033   0.00162  -0.00484  -0.00307   1.34224
   D22        1.24457   0.00350   0.03026  -0.00479   0.02617   1.27074
   D23       -2.96364   0.00231   0.01744  -0.00056   0.01777  -2.94587
   D24       -0.82553   0.00345   0.02945  -0.00434   0.02596  -0.79957
   D25       -0.79512  -0.00315  -0.02576  -0.00187  -0.02867  -0.82379
   D26        1.27985  -0.00434  -0.03858   0.00236  -0.03707   1.24278
   D27       -2.86523  -0.00320  -0.02657  -0.00142  -0.02888  -2.89411
   D28       -2.95725  -0.00000   0.00071  -0.02250  -0.02181  -2.97906
   D29       -0.88344  -0.00084  -0.00826  -0.01926  -0.02743  -0.91087
   D30        1.25444  -0.00011   0.00024  -0.02485  -0.02458   1.22986
   D31        1.15483   0.00337   0.02698  -0.00787   0.01986   1.17469
   D32       -3.05454   0.00254   0.01801  -0.00463   0.01424  -3.04030
   D33       -0.91666   0.00326   0.02651  -0.01022   0.01709  -0.89957
   D34       -0.87923  -0.00306  -0.02518  -0.01361  -0.03967  -0.91890
   D35        1.19458  -0.00390  -0.03415  -0.01037  -0.04529   1.14929
   D36       -2.95073  -0.00318  -0.02565  -0.01595  -0.04244  -2.99317
         Item               Value     Threshold  Converged?
 Maximum Force            0.040368     0.000450     NO 
 RMS     Force            0.008864     0.000300     NO 
 Maximum Displacement     0.137232     0.001800     NO 
 RMS     Displacement     0.033562     0.001200     NO 
 Predicted change in Energy=-1.852647D-02
 GradGradGradGradGradGradGradGradGradGradGradGradGradGradGradGradGradGrad

                          Input orientation:                          
 ---------------------------------------------------------------------
 Center     Atomic      Atomic             Coordinates (Angstroms)
 Number     Number       Type             X           Y           Z
 ---------------------------------------------------------------------
      1          5           0       -1.740288    0.703642   -0.070446
      2          9           0       -1.693516    1.813244   -0.881558
      3          9           0       -1.867356    1.037609    1.264891
      4          9           0       -2.742277   -0.152684   -0.476673
      5          8           0       -0.404062   -0.029015   -0.235387
      6          6           0       -0.471392   -1.469878    0.062320
      7          6           0        0.751558   -2.230045   -0.405335
      8          6           0        0.734247    0.606090    0.445012
      9          6           0        0.903593    2.065895    0.094377
     10          1           0       -0.648058   -1.589291    1.139382
     11          1           0       -1.349383   -1.836015   -0.467409
     12          1           0        0.504090   -3.299058   -0.402731
     13          1           0        1.022003   -1.940509   -1.428822
     14          1           0        1.619705   -2.093083    0.248996
     15          1           0        0.602730    0.459045    1.524145
     16          1           0        1.623316    0.058699    0.126402
     17          1           0        1.864370    2.388565    0.516401
     18          1           0        0.931403    2.212052   -0.991096
     19          1           0        0.112857    2.690719    0.519945
 ---------------------------------------------------------------------
                    Distance matrix (angstroms):
                    1          2          3          4          5
     1  B    0.000000
     2  F    1.375248   0.000000
     3  F    1.382318   2.288902   0.000000
     4  F    1.379237   2.264664   2.283709   0.000000
     5  O    1.532805   2.339690   2.351542   2.353883   0.000000
     6  C    2.520300   3.628138   3.111653   2.680006   1.472837
     7  C    3.863672   4.749038   4.508428   4.065391   2.491761
     8  C    2.529532   3.018450   2.761656   3.675794   1.470390
     9  C    2.978759   2.785903   3.178936   4.305875   2.491456
    10  H    2.813217   4.093217   2.898800   3.010187   2.093797
    11  H    2.600046   3.688772   3.395124   2.184913   2.052490
    12  H    4.601005   5.585193   5.216454   4.521508   3.397929
    13  H    4.057951   4.665212   4.947087   4.274660   2.666788
    14  H    4.383294   5.245472   4.795088   4.828937   2.930979
    15  H    2.844693   3.590823   2.550152   3.945447   2.085134
    16  H    3.430529   3.885329   3.799896   4.412118   2.061272
    17  H    4.022054   3.865726   4.038700   5.354002   3.399362
    18  H    3.203253   2.657301   3.781778   4.399152   2.716053
    19  H    2.780500   2.448909   2.684950   4.150900   2.869614
                    6          7          8          9         10
     6  C    0.000000
     7  C    1.513989   0.000000
     8  C    2.430980   2.960921   0.000000
     9  C    3.793851   4.327578   1.510846   0.000000
    10  H    1.097968   2.180744   2.685631   4.106098   0.000000
    11  H    1.088823   2.138473   3.337349   4.540529   1.770454
    12  H    2.124555   1.097285   4.002726   5.402725   2.574657
    13  H    2.162227   1.097496   3.174779   4.287824   3.083526
    14  H    2.189959   1.095713   2.847454   4.223012   2.487840
    15  H    2.647908   3.313042   1.097017   2.171802   2.430677
    16  H    2.593927   2.506204   1.091602   2.132572   2.983478
    17  H    4.533162   4.839371   2.111751   1.097867   4.745918
    18  H    4.078496   4.484160   2.163422   1.095622   4.635067
    19  H    4.226267   5.047574   2.176561   1.093972   4.391034
                   11         12         13         14         15
    11  H    0.000000
    12  H    2.362211   0.000000
    13  H    2.560997   1.779537   0.000000
    14  H    3.065094   1.767404   1.787624   0.000000
    15  H    3.611694   4.224443   3.828010   3.028796   0.000000
    16  H    3.574841   3.578712   2.603292   2.155275   1.776389
    17  H    5.398441   5.919816   4.820203   4.496280   2.516015
    18  H    4.675797   5.558876   4.176550   4.532745   3.083423
    19  H    4.858429   6.073040   5.106125   5.022825   2.495749
                   16         17         18         19
    16  H    0.000000
    17  H    2.374549   0.000000
    18  H    2.522791   1.781610   0.000000
    19  H    3.060048   1.777388   1.783925   0.000000
 Stoichiometry    C4H10BF3O
 Framework group  C1[X(C4H10BF3O)]
 Deg. of freedom    51
 Full point group                 C1      NOp   1
 Largest Abelian subgroup         C1      NOp   1
 Largest concise Abelian subgroup C1      NOp   1
                         Standard orientation:                         
 ---------------------------------------------------------------------
 Center     Atomic      Atomic             Coordinates (Angstroms)
 Number     Number       Type             X           Y           Z
 ---------------------------------------------------------------------
      1          5           0       -0.959844   -0.629304   -0.024155
      2          9           0       -1.823472   -0.071174   -0.937362
      3          9           0       -1.360716   -0.403983    1.279430
      4          9           0       -0.788864   -1.974358   -0.276922
      5          8           0        0.397349    0.057761   -0.212463
      6          6           0        1.545066   -0.755837    0.223489
      7          6           0        2.874194   -0.211143   -0.254934
      8          6           0        0.474977    1.424644    0.323869
      9          6           0       -0.629725    2.327334   -0.173563
     10          1           0        1.503493   -0.848905    1.316715
     11          1           0        1.382608   -1.742780   -0.206729
     12          1           0        3.624672   -1.002534   -0.134443
     13          1           0        2.824405    0.058904   -1.317522
     14          1           0        3.216622    0.655637    0.321280
     15          1           0        0.481349    1.354056    1.418594
     16          1           0        1.436037    1.825864   -0.003210
     17          1           0       -0.380920    3.347143    0.147993
     18          1           0       -0.692700    2.310795   -1.267249
     19          1           0       -1.604735    2.061894    0.245572
 ---------------------------------------------------------------------
 Rotational constants (GHZ):           1.8834514           1.4079565           0.9977010
 Standard basis: Aug-CC-pVDZ (5D, 7F)
 There are   315 symmetry adapted cartesian basis functions of A   symmetry.
 There are   297 symmetry adapted basis functions of A   symmetry.
   297 basis functions,   497 primitive gaussians,   315 cartesian basis functions
    37 alpha electrons       37 beta electrons
       nuclear repulsion energy       529.3809894248 Hartrees.
 NAtoms=   19 NActive=   19 NUniq=   19 SFac= 1.00D+00 NAtFMM=   60 NAOKFM=F Big=F
 Integral buffers will be    131072 words long.
 Raffenetti 2 integral format.
 Two-electron integral symmetry is turned on.
 Nuclear repulsion after empirical dispersion term =      529.3688371418 Hartrees.
 Force PCM accuracy= 1.00D-12.
 ------------------------------------------------------------------------------
 Polarizable Continuum Model (PCM)
 =================================
 Model                : C-PCM.
 Atomic radii         : UFF (Universal Force Field).
 Polarization charges : Total charges.
 Charge compensation  : None.
 Solution method      : On-the-fly selection.
 Cavity type          : Scaled VdW (van der Waals Surface) (Alpha=1.100).
 Cavity algorithm     : GePol (No added spheres)
                        Default sphere list used, NSphG=   19.
                        Lebedev-Laikov grids with approx.  5.0 points / Ang**2.
                        Smoothing algorithm: York/Karplus (Gamma=1.0000).
                        Polarization charges: spherical gaussians, with
                                              point-specific exponents (IZeta= 3).
                        Self-potential: point-specific (ISelfS= 7).
                        Self-field    : sphere-specific E.n sum rule (ISelfD= 2).
 1st derivatives      : Analytical E(r).r(x)/FMM algorithm (CHGder, D1EAlg=3).
                        Cavity 1st derivative terms included.
 Solvent              : Chloroform, Eps=   4.711300 Eps(inf)=   2.090627
 ------------------------------------------------------------------------------
 Spheres list:
 ISph  on   Nord     Re0    Alpha      Xe            Ye            Ze
    1   B      1    2.0415  1.100     -0.959844     -0.629304     -0.024155
    2   F      2    1.6820  1.100     -1.823472     -0.071174     -0.937362
    3   F      3    1.6820  1.100     -1.360716     -0.403983      1.279430
    4   F      4    1.6820  1.100     -0.788864     -1.974358     -0.276922
    5   O      5    1.7500  1.100      0.397349      0.057761     -0.212463
    6   C      6    1.9255  1.100      1.545066     -0.755837      0.223489
    7   C      7    1.9255  1.100      2.874194     -0.211143     -0.254934
    8   C      8    1.9255  1.100      0.474977      1.424644      0.323869
    9   C      9    1.9255  1.100     -0.629725      2.327334     -0.173563
   10   H     10    1.4430  1.100      1.503493     -0.848905      1.316715
   11   H     11    1.4430  1.100      1.382608     -1.742780     -0.206729
   12   H     12    1.4430  1.100      3.624672     -1.002534     -0.134443
   13   H     13    1.4430  1.100      2.824405      0.058904     -1.317522
   14   H     14    1.4430  1.100      3.216622      0.655637      0.321280
   15   H     15    1.4430  1.100      0.481349      1.354056      1.418594
   16   H     16    1.4430  1.100      1.436037      1.825864     -0.003210
   17   H     17    1.4430  1.100     -0.380920      3.347143      0.147993
   18   H     18    1.4430  1.100     -0.692700      2.310795     -1.267249
   19   H     19    1.4430  1.100     -1.604735      2.061894      0.245572
 ------------------------------------------------------------------------------
 One-electron integrals computed using PRISM.
 NBasis=   297 RedAO= T EigKep=  2.96D-05  NBF=   297
 NBsUse=   297 1.00D-06 EigRej= -1.00D+00 NBFU=   297
 Initial guess from the checkpoint file:  "/inspire/hdd/project/materialscienceresearch/lipenghui-253107030018/g16/00-B-DFT-Shift/04-output/BF3OEt2_CDCl3/BF3OEt2_CDCl3.chk"
 B after Tr=    -0.000000    0.000000   -0.000000
         Rot=    0.999938   -0.001746    0.000263   -0.010988 Ang=  -1.28 deg.
 ExpMin= 2.38D-02 ExpMax= 1.47D+04 ExpMxC= 5.03D+02 IAcc=3 IRadAn=         5 AccDes= 0.00D+00
 Harris functional with IExCor= 4639 and IRadAn=       5 diagonalized for initial guess.
 HarFok:  IExCor= 4639 AccDes= 0.00D+00 IRadAn=         5 IDoV= 1 UseB2=F ITyADJ=14
 ICtDFT=  3500011 ScaDFX=  1.000000  1.000000  1.000000  1.000000
 FoFCou: FMM=F IPFlag=           0 FMFlag=      100000 FMFlg1=           0
         NFxFlg=           0 DoJE=T BraDBF=F KetDBF=T FulRan=T
         wScrn=  0.000000 ICntrl=       500 IOpCl=  0 I1Cent=   200000004 NGrid=           0
         NMat0=    1 NMatS0=      1 NMatT0=    0 NMatD0=    1 NMtDS0=    0 NMtDT0=    0
 Petite list used in FoFCou.
 Requested convergence on RMS density matrix=1.00D-08 within 128 cycles.
 Requested convergence on MAX density matrix=1.00D-06.
 Requested convergence on             energy=1.00D-06.
 No special actions if energy rises.
 Inv3:  Mode=1 IEnd=     6759003.
 Iteration    1 A*A^-1 deviation from unit magnitude is 4.66D-15 for   1485.
 Iteration    1 A*A^-1 deviation from orthogonality  is 2.14D-15 for    699    505.
 Iteration    1 A^-1*A deviation from unit magnitude is 4.88D-15 for   1485.
 Iteration    1 A^-1*A deviation from orthogonality  is 2.94D-15 for   1488    774.
 Error on total polarization charges =  0.00884
 SCF Done:  E(RwB97XD) =  -558.145186898     A.U. after   11 cycles
            NFock= 11  Conv=0.50D-08     -V/T= 2.0057
 D1PCM: C-PCM CHGder 1st derivatives, ID1Alg=3 FixD1E=F DoIter=F DoCFld=F I1PDM=0.
 Calling FoFJK, ICntrl=      2127 FMM=F ISym2X=0 I1Cent= 0 IOpClX= 0 NMat=1 NMatS=1 NMatT=0.
 ***** Axes restored to original set *****
 -------------------------------------------------------------------
 Center     Atomic                   Forces (Hartrees/Bohr)
 Number     Number              X              Y              Z
 -------------------------------------------------------------------
      1        5          -0.015917284    0.008324887   -0.000634722
      2        9           0.001607437    0.008155046   -0.007108658
      3        9           0.000132321    0.001539785    0.010744229
      4        9          -0.005170934   -0.008165445   -0.002957813
      5        8           0.015636988   -0.011011423    0.002006807
      6        6          -0.001268536   -0.009940591   -0.000185725
      7        6           0.002866689    0.003476001    0.000205774
      8        6           0.008693283    0.002865439    0.002705003
      9        6          -0.002198659    0.001520560   -0.000423311
     10        1           0.001214829    0.002820797    0.000194289
     11        1          -0.001199015    0.003875279   -0.001343898
     12        1          -0.000837797    0.000770221    0.000028917
     13        1          -0.000522168   -0.000728204   -0.000172501
     14        1           0.000131133    0.000070902   -0.000147709
     15        1          -0.002405477   -0.000454831   -0.000669777
     16        1          -0.001957980   -0.002065359   -0.002220463
     17        1          -0.000110858   -0.000913999   -0.000000758
     18        1           0.000689178   -0.000071938    0.000251211
     19        1           0.000616851   -0.000067127   -0.000270896
 -------------------------------------------------------------------
 Cartesian Forces:  Max     0.015917284 RMS     0.004781038

 GradGradGradGradGradGradGradGradGradGradGradGradGradGradGradGradGradGrad
 Berny optimization.
 Using GEDIIS/GDIIS optimizer.
 FormGI is forming the generalized inverse of G from B-inverse, IUseBI=4.
 Internal  Forces:  Max     0.021578180 RMS     0.003333032
 Search for a local minimum.
 Step number   3 out of a maximum of   97
 All quantities printed in internal units (Hartrees-Bohrs-Radians)
 Mixed Optimization -- RFO/linear search
 Update second derivatives using D2CorX and points    2    3
 DE= -1.55D-02 DEPred=-1.85D-02 R= 8.37D-01
 TightC=F SS=  1.41D+00  RLast= 3.81D-01 DXNew= 8.4853D-01 1.1419D+00
 Trust test= 8.37D-01 RLast= 3.81D-01 DXMaxT set to 8.49D-01
 ITU=  1  1  0
 Use linear search instead of GDIIS.
     Eigenvalues ---    0.00251   0.00269   0.01333   0.01340   0.01343
     Eigenvalues ---    0.02684   0.04194   0.04217   0.05224   0.05301
     Eigenvalues ---    0.05332   0.05386   0.05799   0.05882   0.09788
     Eigenvalues ---    0.09813   0.12425   0.12541   0.12970   0.12993
     Eigenvalues ---    0.15960   0.16000   0.16000   0.16000   0.16001
     Eigenvalues ---    0.16095   0.18142   0.18647   0.20309   0.22114
     Eigenvalues ---    0.22243   0.25001   0.25034   0.28300   0.28418
     Eigenvalues ---    0.28566   0.28714   0.28790   0.31832   0.31892
     Eigenvalues ---    0.31935   0.31987   0.32095   0.32140   0.32160
     Eigenvalues ---    0.32252   0.32281   0.32546   0.40416   0.41507
     Eigenvalues ---    0.44288
 RFO step:  Lambda=-3.80086101D-03 EMin= 2.51355332D-03
 Quartic linear search produced a step of -0.02850.
 Iteration  1 RMS(Cart)=  0.03819787 RMS(Int)=  0.00060909
 Iteration  2 RMS(Cart)=  0.00074433 RMS(Int)=  0.00021095
 Iteration  3 RMS(Cart)=  0.00000033 RMS(Int)=  0.00021095
 Variable       Old X    -DE/DX   Delta X   Delta X   Delta X     New X
                                 (Linear)    (Quad)   (Total)
    R1        2.59884   0.01083   0.00490   0.01607   0.02097   2.61981
    R2        2.61220   0.01073   0.00455   0.01687   0.02142   2.63363
    R3        2.60638   0.00970   0.00469   0.01295   0.01764   2.62402
    R4        2.89658   0.02158  -0.00270   0.06659   0.06389   2.96047
    R5        2.78326  -0.00064  -0.00138   0.00403   0.00264   2.78590
    R6        2.77863   0.00263  -0.00122   0.01116   0.00994   2.78857
    R7        2.86102  -0.00045   0.00063  -0.00435  -0.00372   2.85731
    R8        2.07486  -0.00031   0.00035  -0.00280  -0.00245   2.07241
    R9        2.05758   0.00032   0.00063  -0.00213  -0.00149   2.05608
   R10        2.07357  -0.00056   0.00027  -0.00334  -0.00307   2.07050
   R11        2.07397  -0.00016   0.00035  -0.00225  -0.00189   2.07207
   R12        2.07060   0.00003   0.00040  -0.00181  -0.00141   2.06919
   R13        2.85508   0.00045   0.00069  -0.00161  -0.00092   2.85416
   R14        2.07306  -0.00031   0.00035  -0.00286  -0.00251   2.07055
   R15        2.06283   0.00009   0.00053  -0.00241  -0.00188   2.06095
   R16        2.07467  -0.00037   0.00027  -0.00273  -0.00246   2.07221
   R17        2.07043  -0.00024   0.00038  -0.00266  -0.00228   2.06815
   R18        2.06731  -0.00059   0.00041  -0.00376  -0.00335   2.06396
    A1        1.95837   0.00246  -0.00100   0.01593   0.01493   1.97330
    A2        1.93044   0.00277  -0.00196   0.01741   0.01533   1.94576
    A3        1.86768  -0.00151   0.00135  -0.00942  -0.00813   1.85955
    A4        1.94737   0.00232  -0.00159   0.01188   0.01011   1.95748
    A5        1.87503  -0.00172   0.00151  -0.01227  -0.01084   1.86419
    A6        1.88058  -0.00500   0.00179  -0.02754  -0.02589   1.85469
    A7        1.98887  -0.00083  -0.00053   0.00734   0.00635   1.99523
    A8        2.00272   0.00400  -0.00004   0.03142   0.03120   2.03393
    A9        1.94380  -0.00206   0.00022  -0.00065  -0.00098   1.94281
   A10        1.97342  -0.00269   0.00014  -0.02064  -0.02043   1.95299
   A11        1.88813  -0.00063   0.00086  -0.02366  -0.02277   1.86536
   A12        1.84158  -0.00172   0.00104  -0.02861  -0.02727   1.81431
   A13        1.95883   0.00150  -0.00053   0.01455   0.01330   1.97213
   A14        1.90947   0.00303  -0.00097   0.03316   0.03164   1.94111
   A15        1.88697   0.00041  -0.00052   0.02438   0.02293   1.90990
   A16        1.88205  -0.00157   0.00054  -0.01507  -0.01454   1.86751
   A17        1.93334   0.00022   0.00016   0.00104   0.00116   1.93449
   A18        1.97445   0.00055  -0.00008   0.00636   0.00626   1.98072
   A19        1.89105   0.00013  -0.00015  -0.00319  -0.00339   1.88766
   A20        1.87449   0.00060  -0.00025   0.00486   0.00463   1.87912
   A21        1.90571   0.00005  -0.00022   0.00543   0.00518   1.91088
   A22        1.97874   0.00222   0.00046   0.00293   0.00348   1.98222
   A23        1.88019  -0.00199   0.00098  -0.02239  -0.02143   1.85876
   A24        1.85341  -0.00287   0.00074  -0.03172  -0.03100   1.82240
   A25        1.95115   0.00036  -0.00058   0.01244   0.01175   1.96289
   A26        1.90232   0.00106  -0.00102   0.01794   0.01679   1.91911
   A27        1.89393   0.00103  -0.00060   0.01934   0.01814   1.91208
   A28        1.86801  -0.00145   0.00076  -0.01528  -0.01452   1.85349
   A29        1.94085   0.00015   0.00005   0.00139   0.00140   1.94226
   A30        1.96119   0.00079   0.00008   0.00675   0.00682   1.96802
   A31        1.89592   0.00018  -0.00028  -0.00170  -0.00201   1.89390
   A32        1.89141   0.00032  -0.00050   0.00357   0.00310   1.89451
   A33        1.90452  -0.00002  -0.00013   0.00471   0.00454   1.90906
    D1       -2.70338   0.00064   0.00078   0.02768   0.02856  -2.67482
    D2        1.30947   0.00059   0.00101  -0.00896  -0.00814   1.30132
    D3        1.47346  -0.00051   0.00029   0.02068   0.02120   1.49466
    D4       -0.79688  -0.00055   0.00052  -0.01596  -0.01550  -0.81238
    D5       -0.62696   0.00045   0.00022   0.02858   0.02892  -0.59804
    D6       -2.89730   0.00041   0.00045  -0.00806  -0.00779  -2.90508
    D7        2.90985  -0.00127   0.00031  -0.03413  -0.03374   2.87612
    D8       -1.19268  -0.00167   0.00036  -0.04747  -0.04688  -1.23956
    D9        0.82352  -0.00235   0.00074  -0.04461  -0.04385   0.77967
   D10       -1.07404   0.00175  -0.00004   0.01695   0.01677  -1.05727
   D11        1.10661   0.00134   0.00002   0.00360   0.00363   1.11024
   D12        3.12282   0.00066   0.00040   0.00646   0.00666   3.12947
   D13       -0.91971   0.00007  -0.00059   0.00452   0.00400  -0.91571
   D14        1.24879   0.00056  -0.00027   0.00592   0.00559   1.25438
   D15       -3.00803  -0.00063  -0.00009   0.00169   0.00179  -3.00625
   D16        3.07126  -0.00048   0.00000  -0.03453  -0.03459   3.03667
   D17       -1.04343   0.00002   0.00032  -0.03313  -0.03300  -1.07643
   D18        0.98293  -0.00117   0.00050  -0.03736  -0.03680   0.94613
   D19       -2.87063   0.00009   0.00008  -0.02644  -0.02632  -2.89695
   D20       -0.80406  -0.00057   0.00032  -0.03884  -0.03846  -0.84252
   D21        1.34224   0.00006   0.00009  -0.02630  -0.02614   1.31610
   D22        1.27074   0.00182  -0.00075   0.00942   0.00894   1.27969
   D23       -2.94587   0.00115  -0.00051  -0.00298  -0.00319  -2.94906
   D24       -0.79957   0.00179  -0.00074   0.00956   0.00912  -0.79045
   D25       -0.82379  -0.00171   0.00082  -0.05298  -0.05253  -0.87632
   D26        1.24278  -0.00237   0.00106  -0.06538  -0.06467   1.17811
   D27       -2.89411  -0.00174   0.00082  -0.05284  -0.05235  -2.94646
   D28       -2.97906   0.00035   0.00062  -0.01196  -0.01135  -2.99041
   D29       -0.91087  -0.00023   0.00078  -0.02253  -0.02174  -0.93260
   D30        1.22986   0.00042   0.00070  -0.01048  -0.00975   1.22011
   D31        1.17469   0.00105  -0.00057   0.00591   0.00543   1.18012
   D32       -3.04030   0.00047  -0.00041  -0.00465  -0.00495  -3.04525
   D33       -0.89957   0.00113  -0.00049   0.00740   0.00703  -0.89254
   D34       -0.91890  -0.00116   0.00113  -0.03784  -0.03683  -0.95574
   D35        1.14929  -0.00174   0.00129  -0.04840  -0.04722   1.10207
   D36       -2.99317  -0.00108   0.00121  -0.03635  -0.03523  -3.02840
         Item               Value     Threshold  Converged?
 Maximum Force            0.021578     0.000450     NO 
 RMS     Force            0.003333     0.000300     NO 
 Maximum Displacement     0.125730     0.001800     NO 
 RMS     Displacement     0.038352     0.001200     NO 
 Predicted change in Energy=-1.982513D-03
 GradGradGradGradGradGradGradGradGradGradGradGradGradGradGradGradGradGrad

                          Input orientation:                          
 ---------------------------------------------------------------------
 Center     Atomic      Atomic             Coordinates (Angstroms)
 Number     Number       Type             X           Y           Z
 ---------------------------------------------------------------------
      1          5           0       -1.789147    0.706733   -0.071970
      2          9           0       -1.727987    1.809400   -0.910027
      3          9           0       -1.933890    1.049211    1.271172
      4          9           0       -2.757889   -0.196239   -0.489478
      5          8           0       -0.414082   -0.031939   -0.205547
      6          6           0       -0.471772   -1.477844    0.076234
      7          6           0        0.763867   -2.197801   -0.414752
      8          6           0        0.740789    0.598997    0.462088
      9          6           0        0.932702    2.050940    0.093014
     10          1           0       -0.629778   -1.585719    1.156086
     11          1           0       -1.360141   -1.813379   -0.454833
     12          1           0        0.536844   -3.269596   -0.400986
     13          1           0        0.997904   -1.911369   -1.446974
     14          1           0        1.643186   -2.036256    0.217433
     15          1           0        0.593975    0.456483    1.538503
     16          1           0        1.599250    0.013936    0.130159
     17          1           0        1.896095    2.350923    0.522366
     18          1           0        0.980147    2.181971   -0.992495
     19          1           0        0.153466    2.697527    0.502421
 ---------------------------------------------------------------------
                    Distance matrix (angstroms):
                    1          2          3          4          5
     1  B    0.000000
     2  F    1.386345   0.000000
     3  F    1.393655   2.319032   0.000000
     4  F    1.388572   2.293501   2.308682   0.000000
     5  O    1.566615   2.369212   2.378949   2.366652   0.000000
     6  C    2.555351   3.654690   3.154628   2.681208   1.474236
     7  C    3.882229   4.744713   4.545693   4.051494   2.474326
     8  C    2.587934   3.072886   2.830409   3.711957   1.475650
     9  C    3.040160   2.853717   3.257125   4.359997   2.498269
    10  H    2.847384   4.123314   2.942245   3.027771   2.077210
    11  H    2.584879   3.669747   3.391564   2.137766   2.032412
    12  H    4.618407   5.584334   5.249070   4.506509   3.380071
    13  H    4.063589   4.643590   4.974814   4.238450   2.658403
    14  H    4.403255   5.236893   4.840036   4.822328   2.903197
    15  H    2.887130   3.635545   2.610151   3.971618   2.072787
    16  H    3.464399   3.921248   3.854450   4.405994   2.041644
    17  H    4.078922   3.934332   4.113872   5.401058   3.397765
    18  H    3.269967   2.734886   3.859915   4.458904   2.732135
    19  H    2.840235   2.514686   2.768569   4.223001   2.876337
                    6          7          8          9         10
     6  C    0.000000
     7  C    1.512021   0.000000
     8  C    2.435663   2.931119   0.000000
     9  C    3.798045   4.282305   1.510359   0.000000
    10  H    1.096670   2.187333   2.670781   4.098384   0.000000
    11  H    1.088033   2.158888   3.327793   4.526613   1.783345
    12  H    2.110786   1.095661   3.968942   5.358063   2.573115
    13  H    2.160568   1.096494   3.164263   4.251554   3.087283
    14  H    2.191987   1.094968   2.796200   4.150354   2.500084
    15  H    2.648711   3.299893   1.095689   2.178638   2.411307
    16  H    2.552929   2.426226   1.090609   2.143607   2.929162
    17  H    4.523857   4.780274   2.099431   1.096567   4.720040
    18  H    4.079767   4.423005   2.163079   1.094418   4.626419
    19  H    4.243381   5.017772   2.179542   1.092199   4.403061
                   11         12         13         14         15
    11  H    0.000000
    12  H    2.392074   0.000000
    13  H    2.560141   1.775232   0.000000
    14  H    3.085707   1.768491   1.789479   0.000000
    15  H    3.597809   4.201018   3.831835   3.009954   0.000000
    16  H    3.526937   3.491762   2.560422   2.052519   1.786018
    17  H    5.375816   5.855798   4.780395   4.405030   2.513355
    18  H    4.661422   5.501453   4.118532   4.438129   3.087457
    19  H    4.853413   6.047287   5.074953   4.970834   2.507946
                   16         17         18         19
    16  H    0.000000
    17  H    2.388190   0.000000
    18  H    2.518734   1.778289   0.000000
    19  H    3.070918   1.776876   1.784370   0.000000
 Stoichiometry    C4H10BF3O
 Framework group  C1[X(C4H10BF3O)]
 Deg. of freedom    51
 Full point group                 C1      NOp   1
 Largest Abelian subgroup         C1      NOp   1
 Largest concise Abelian subgroup C1      NOp   1
                         Standard orientation:                         
 ---------------------------------------------------------------------
 Center     Atomic      Atomic             Coordinates (Angstroms)
 Number     Number       Type             X           Y           Z
 ---------------------------------------------------------------------
      1          5           0       -1.022957   -0.595141   -0.025541
      2          9           0       -1.835400    0.018452   -0.966495
      3          9           0       -1.428769   -0.354832    1.285886
      4          9           0       -0.875074   -1.950662   -0.287886
      5          8           0        0.400399    0.040118   -0.182977
      6          6           0        1.507140   -0.838197    0.237806
      7          6           0        2.843527   -0.342507   -0.266743
      8          6           0        0.573037    1.408871    0.340717
      9          6           0       -0.454454    2.387570   -0.176578
     10          1           0        1.460829   -0.907069    1.331331
     11          1           0        1.255669   -1.803528   -0.196606
     12          1           0        3.559235   -1.161724   -0.135900
     13          1           0        2.791988   -0.101226   -1.335118
     14          1           0        3.224616    0.522993    0.285196
     15          1           0        0.561182    1.327798    1.433339
     16          1           0        1.568751    1.703561    0.007341
     17          1           0       -0.125892    3.379815    0.155018
     18          1           0       -0.493180    2.381872   -1.270296
     19          1           0       -1.453928    2.201231    0.222455
 ---------------------------------------------------------------------
 Rotational constants (GHZ):           1.8470929           1.3921039           0.9860871
 Standard basis: Aug-CC-pVDZ (5D, 7F)
 There are   315 symmetry adapted cartesian basis functions of A   symmetry.
 There are   297 symmetry adapted basis functions of A   symmetry.
   297 basis functions,   497 primitive gaussians,   315 cartesian basis functions
    37 alpha electrons       37 beta electrons
       nuclear repulsion energy       525.8626336342 Hartrees.
 NAtoms=   19 NActive=   19 NUniq=   19 SFac= 1.00D+00 NAtFMM=   60 NAOKFM=F Big=F
 Integral buffers will be    131072 words long.
 Raffenetti 2 integral format.
 Two-electron integral symmetry is turned on.
 Nuclear repulsion after empirical dispersion term =      525.8504737616 Hartrees.
 Force PCM accuracy= 1.00D-12.
 ------------------------------------------------------------------------------
 Polarizable Continuum Model (PCM)
 =================================
 Model                : C-PCM.
 Atomic radii         : UFF (Universal Force Field).
 Polarization charges : Total charges.
 Charge compensation  : None.
 Solution method      : On-the-fly selection.
 Cavity type          : Scaled VdW (van der Waals Surface) (Alpha=1.100).
 Cavity algorithm     : GePol (No added spheres)
                        Default sphere list used, NSphG=   19.
                        Lebedev-Laikov grids with approx.  5.0 points / Ang**2.
                        Smoothing algorithm: York/Karplus (Gamma=1.0000).
                        Polarization charges: spherical gaussians, with
                                              point-specific exponents (IZeta= 3).
                        Self-potential: point-specific (ISelfS= 7).
                        Self-field    : sphere-specific E.n sum rule (ISelfD= 2).
 1st derivatives      : Analytical E(r).r(x)/FMM algorithm (CHGder, D1EAlg=3).
                        Cavity 1st derivative terms included.
 Solvent              : Chloroform, Eps=   4.711300 Eps(inf)=   2.090627
 ------------------------------------------------------------------------------
 Spheres list:
 ISph  on   Nord     Re0    Alpha      Xe            Ye            Ze
    1   B      1    2.0415  1.100     -1.022957     -0.595141     -0.025541
    2   F      2    1.6820  1.100     -1.835400      0.018452     -0.966495
    3   F      3    1.6820  1.100     -1.428769     -0.354832      1.285886
    4   F      4    1.6820  1.100     -0.875074     -1.950662     -0.287886
    5   O      5    1.7500  1.100      0.400399      0.040118     -0.182977
    6   C      6    1.9255  1.100      1.507140     -0.838197      0.237806
    7   C      7    1.9255  1.100      2.843527     -0.342507     -0.266743
    8   C      8    1.9255  1.100      0.573037      1.408871      0.340717
    9   C      9    1.9255  1.100     -0.454454      2.387570     -0.176578
   10   H     10    1.4430  1.100      1.460829     -0.907069      1.331331
   11   H     11    1.4430  1.100      1.255669     -1.803528     -0.196606
   12   H     12    1.4430  1.100      3.559235     -1.161724     -0.135900
   13   H     13    1.4430  1.100      2.791988     -0.101226     -1.335118
   14   H     14    1.4430  1.100      3.224616      0.522993      0.285196
   15   H     15    1.4430  1.100      0.561182      1.327798      1.433339
   16   H     16    1.4430  1.100      1.568751      1.703561      0.007341
   17   H     17    1.4430  1.100     -0.125892      3.379815      0.155018
   18   H     18    1.4430  1.100     -0.493180      2.381872     -1.270296
   19   H     19    1.4430  1.100     -1.453928      2.201231      0.222455
 ------------------------------------------------------------------------------
 One-electron integrals computed using PRISM.
 NBasis=   297 RedAO= T EigKep=  3.01D-05  NBF=   297
 NBsUse=   297 1.00D-06 EigRej= -1.00D+00 NBFU=   297
 Initial guess from the checkpoint file:  "/inspire/hdd/project/materialscienceresearch/lipenghui-253107030018/g16/00-B-DFT-Shift/04-output/BF3OEt2_CDCl3/BF3OEt2_CDCl3.chk"
 B after Tr=    -0.000000   -0.000000   -0.000000
         Rot=    0.999622   -0.001325    0.002483    0.027344 Ang=  -3.15 deg.
 ExpMin= 2.38D-02 ExpMax= 1.47D+04 ExpMxC= 5.03D+02 IAcc=3 IRadAn=         5 AccDes= 0.00D+00
 Harris functional with IExCor= 4639 and IRadAn=       5 diagonalized for initial guess.
 HarFok:  IExCor= 4639 AccDes= 0.00D+00 IRadAn=         5 IDoV= 1 UseB2=F ITyADJ=14
 ICtDFT=  3500011 ScaDFX=  1.000000  1.000000  1.000000  1.000000
 FoFCou: FMM=F IPFlag=           0 FMFlag=      100000 FMFlg1=           0
         NFxFlg=           0 DoJE=T BraDBF=F KetDBF=T FulRan=T
         wScrn=  0.000000 ICntrl=       500 IOpCl=  0 I1Cent=   200000004 NGrid=           0
         NMat0=    1 NMatS0=      1 NMatT0=    0 NMatD0=    1 NMtDS0=    0 NMtDT0=    0
 Petite list used in FoFCou.
 Requested convergence on RMS density matrix=1.00D-08 within 128 cycles.
 Requested convergence on MAX density matrix=1.00D-06.
 Requested convergence on             energy=1.00D-06.
 No special actions if energy rises.
 Inv3:  Mode=1 IEnd=     6723027.
 Iteration    1 A*A^-1 deviation from unit magnitude is 3.77D-15 for   1486.
 Iteration    1 A*A^-1 deviation from orthogonality  is 1.90D-15 for   1474   1099.
 Iteration    1 A^-1*A deviation from unit magnitude is 3.55D-15 for   1486.
 Iteration    1 A^-1*A deviation from orthogonality  is 5.57D-15 for   1480    962.
 Error on total polarization charges =  0.00887
 SCF Done:  E(RwB97XD) =  -558.147125962     A.U. after   11 cycles
            NFock= 11  Conv=0.55D-08     -V/T= 2.0060
 D1PCM: C-PCM CHGder 1st derivatives, ID1Alg=3 FixD1E=F DoIter=F DoCFld=F I1PDM=0.
 Calling FoFJK, ICntrl=      2127 FMM=F ISym2X=0 I1Cent= 0 IOpClX= 0 NMat=1 NMatS=1 NMatT=0.
 ***** Axes restored to original set *****
 -------------------------------------------------------------------
 Center     Atomic                   Forces (Hartrees/Bohr)
 Number     Number              X              Y              Z
 -------------------------------------------------------------------
      1        5          -0.008243059    0.005027642   -0.000105611
      2        9           0.000732773   -0.000456741    0.000799224
      3        9           0.000707631    0.000118792   -0.000513579
      4        9          -0.000567114    0.000101904   -0.000155106
      5        8           0.007887380   -0.002012213    0.000597362
      6        6           0.000622345    0.000415891   -0.000677798
      7        6          -0.000780314   -0.000575104    0.000047881
      8        6          -0.000076636   -0.000380527   -0.000802953
      9        6          -0.001032084   -0.001384095   -0.000072132
     10        1           0.000473800   -0.000768334    0.000545874
     11        1          -0.000000150   -0.000839477   -0.000265453
     12        1           0.000341114   -0.001095246   -0.000097531
     13        1          -0.000300829   -0.000067294   -0.000473497
     14        1          -0.000244072   -0.000538606    0.000168093
     15        1           0.000035653    0.000600399    0.000779618
     16        1           0.000544465    0.001089506    0.000235411
     17        1           0.000535829    0.000653183    0.000237014
     18        1           0.000208847   -0.000096141   -0.000593725
     19        1          -0.000845579    0.000206460    0.000346907
 -------------------------------------------------------------------
 Cartesian Forces:  Max     0.008243059 RMS     0.001760121

 GradGradGradGradGradGradGradGradGradGradGradGradGradGradGradGradGradGrad
 Berny optimization.
 Using GEDIIS/GDIIS optimizer.
 FormGI is forming the generalized inverse of G from B-inverse, IUseBI=4.
 Internal  Forces:  Max     0.008726647 RMS     0.001430854
 Search for a local minimum.
 Step number   4 out of a maximum of   97
 All quantities printed in internal units (Hartrees-Bohrs-Radians)
 Mixed Optimization -- RFO/linear search
 Update second derivatives using D2CorX and points    2    3    4
 DE= -1.94D-03 DEPred=-1.98D-03 R= 9.78D-01
 TightC=F SS=  1.41D+00  RLast= 2.10D-01 DXNew= 1.4270D+00 6.3044D-01
 Trust test= 9.78D-01 RLast= 2.10D-01 DXMaxT set to 8.49D-01
 ITU=  1  1  1  0
 Use linear search instead of GDIIS.
     Eigenvalues ---    0.00255   0.00267   0.01279   0.01340   0.01361
     Eigenvalues ---    0.02423   0.04173   0.04405   0.05114   0.05202
     Eigenvalues ---    0.05236   0.05376   0.05881   0.05966   0.09798
     Eigenvalues ---    0.10203   0.12667   0.12775   0.12883   0.13003
     Eigenvalues ---    0.15348   0.16000   0.16000   0.16001   0.16002
     Eigenvalues ---    0.16083   0.17227   0.19179   0.20202   0.22119
     Eigenvalues ---    0.24141   0.25002   0.25758   0.28158   0.28455
     Eigenvalues ---    0.28478   0.28722   0.29145   0.31832   0.31864
     Eigenvalues ---    0.31935   0.31989   0.32094   0.32140   0.32160
     Eigenvalues ---    0.32254   0.32263   0.33996   0.38687   0.41891
     Eigenvalues ---    0.43637
 RFO step:  Lambda=-1.08179022D-03 EMin= 2.55203331D-03
 Quartic linear search produced a step of  0.03589.
 Iteration  1 RMS(Cart)=  0.04394219 RMS(Int)=  0.00072871
 Iteration  2 RMS(Cart)=  0.00099421 RMS(Int)=  0.00006171
 Iteration  3 RMS(Cart)=  0.00000047 RMS(Int)=  0.00006171
 Variable       Old X    -DE/DX   Delta X   Delta X   Delta X     New X
                                 (Linear)    (Quad)   (Total)
    R1        2.61981  -0.00081   0.00075  -0.00611  -0.00535   2.61446
    R2        2.63363  -0.00054   0.00077  -0.00455  -0.00378   2.62985
    R3        2.62402   0.00038   0.00063  -0.00241  -0.00177   2.62225
    R4        2.96047   0.00873   0.00229   0.04808   0.05037   3.01085
    R5        2.78590   0.00326   0.00009   0.01176   0.01185   2.79775
    R6        2.78857  -0.00015   0.00036   0.00504   0.00540   2.79397
    R7        2.85731   0.00040  -0.00013  -0.00097  -0.00111   2.85620
    R8        2.07241   0.00055  -0.00009   0.00008  -0.00001   2.07239
    R9        2.05608   0.00039  -0.00005  -0.00074  -0.00079   2.05529
   R10        2.07050   0.00100  -0.00011   0.00144   0.00133   2.07183
   R11        2.07207   0.00036  -0.00007  -0.00029  -0.00036   2.07171
   R12        2.06919  -0.00017  -0.00005  -0.00195  -0.00200   2.06719
   R13        2.85416  -0.00072  -0.00003  -0.00439  -0.00442   2.84974
   R14        2.07055   0.00068  -0.00009   0.00047   0.00038   2.07093
   R15        2.06095  -0.00023  -0.00007  -0.00272  -0.00278   2.05817
   R16        2.07221   0.00074  -0.00009   0.00079   0.00070   2.07291
   R17        2.06815   0.00059  -0.00008   0.00025   0.00016   2.06832
   R18        2.06396   0.00086  -0.00012   0.00078   0.00066   2.06462
    A1        1.97330   0.00008   0.00054   0.00270   0.00312   1.97642
    A2        1.94576   0.00036   0.00055   0.01020   0.01072   1.95648
    A3        1.85955  -0.00134  -0.00029  -0.01093  -0.01129   1.84827
    A4        1.95748   0.00038   0.00036   0.00875   0.00907   1.96656
    A5        1.86419  -0.00103  -0.00039  -0.01063  -0.01109   1.85310
    A6        1.85469   0.00148  -0.00093  -0.00277  -0.00373   1.85096
    A7        1.99523   0.00062   0.00023   0.00923   0.00934   2.00457
    A8        2.03393  -0.00361   0.00112  -0.00790  -0.00708   2.02685
    A9        1.94281   0.00320  -0.00004   0.02008   0.01997   1.96278
   A10        1.95299   0.00319  -0.00073   0.01123   0.01049   1.96349
   A11        1.86536  -0.00060  -0.00082  -0.00089  -0.00174   1.86362
   A12        1.81431  -0.00053  -0.00098  -0.01002  -0.01097   1.80334
   A13        1.97213  -0.00092   0.00048   0.00091   0.00135   1.97348
   A14        1.94111  -0.00171   0.00114  -0.00601  -0.00486   1.93625
   A15        1.90990   0.00064   0.00082   0.00415   0.00493   1.91483
   A16        1.86751   0.00074  -0.00052  -0.00162  -0.00214   1.86536
   A17        1.93449  -0.00035   0.00004  -0.00151  -0.00147   1.93302
   A18        1.98072   0.00008   0.00022   0.00301   0.00323   1.98395
   A19        1.88766  -0.00028  -0.00012  -0.00306  -0.00319   1.88447
   A20        1.87912  -0.00055   0.00017  -0.00282  -0.00265   1.87647
   A21        1.91088   0.00033   0.00019   0.00543   0.00560   1.91649
   A22        1.98222  -0.00379   0.00012  -0.01903  -0.01898   1.96324
   A23        1.85876   0.00146  -0.00077  -0.00439  -0.00531   1.85344
   A24        1.82240   0.00219  -0.00111   0.00897   0.00793   1.83033
   A25        1.96289   0.00029   0.00042  -0.00202  -0.00179   1.96111
   A26        1.91911   0.00026   0.00060   0.00787   0.00850   1.92761
   A27        1.91208  -0.00021   0.00065   0.00981   0.01042   1.92250
   A28        1.85349   0.00080  -0.00052   0.00025  -0.00027   1.85321
   A29        1.94226  -0.00021   0.00005  -0.00139  -0.00134   1.94091
   A30        1.96802  -0.00059   0.00024  -0.00249  -0.00224   1.96577
   A31        1.89390  -0.00020  -0.00007  -0.00012  -0.00020   1.89371
   A32        1.89451  -0.00008   0.00011   0.00200   0.00211   1.89662
   A33        1.90906   0.00030   0.00016   0.00186   0.00202   1.91108
    D1       -2.67482   0.00024   0.00103   0.00646   0.00746  -2.66735
    D2        1.30132  -0.00154  -0.00029  -0.02611  -0.02632   1.27501
    D3        1.49466   0.00141   0.00076   0.01474   0.01541   1.51008
    D4       -0.81238  -0.00037  -0.00056  -0.01783  -0.01837  -0.83075
    D5       -0.59804   0.00073   0.00104   0.01142   0.01240  -0.58564
    D6       -2.90508  -0.00105  -0.00028  -0.02115  -0.02138  -2.92647
    D7        2.87612  -0.00022  -0.00121  -0.05915  -0.06049   2.81563
    D8       -1.23956   0.00026  -0.00168  -0.05144  -0.05323  -1.29279
    D9        0.77967   0.00049  -0.00157  -0.05170  -0.05338   0.72629
   D10       -1.05727  -0.00168   0.00060  -0.04119  -0.04049  -1.09775
   D11        1.11024  -0.00120   0.00013  -0.03348  -0.03323   1.07701
   D12        3.12947  -0.00097   0.00024  -0.03374  -0.03338   3.09610
   D13       -0.91571   0.00079   0.00014   0.03286   0.03293  -0.88278
   D14        1.25438  -0.00027   0.00020   0.01457   0.01481   1.26919
   D15       -3.00625   0.00112   0.00006   0.02782   0.02788  -2.97837
   D16        3.03667   0.00012  -0.00124   0.00566   0.00438   3.04105
   D17       -1.07643  -0.00094  -0.00118  -0.01262  -0.01374  -1.09017
   D18        0.94613   0.00045  -0.00132   0.00063  -0.00067   0.94546
   D19       -2.89695   0.00022  -0.00094   0.00814   0.00721  -2.88975
   D20       -0.84252   0.00013  -0.00138   0.00269   0.00132  -0.84120
   D21        1.31610   0.00035  -0.00094   0.01094   0.01002   1.32612
   D22        1.27969  -0.00068   0.00032   0.00042   0.00074   1.28043
   D23       -2.94906  -0.00077  -0.00011  -0.00503  -0.00515  -2.95421
   D24       -0.79045  -0.00054   0.00033   0.00322   0.00355  -0.78689
   D25       -0.87632   0.00048  -0.00189  -0.00113  -0.00304  -0.87936
   D26        1.17811   0.00039  -0.00232  -0.00659  -0.00892   1.16919
   D27       -2.94646   0.00061  -0.00188   0.00167  -0.00022  -2.94668
   D28       -2.99041  -0.00053  -0.00041  -0.04022  -0.04059  -3.03101
   D29       -0.93260  -0.00041  -0.00078  -0.04097  -0.04171  -0.97431
   D30        1.22011  -0.00061  -0.00035  -0.04142  -0.04173   1.17838
   D31        1.18012   0.00014   0.00019  -0.01870  -0.01852   1.16161
   D32       -3.04525   0.00027  -0.00018  -0.01944  -0.01963  -3.06488
   D33       -0.89254   0.00007   0.00025  -0.01990  -0.01966  -0.91220
   D34       -0.95574   0.00003  -0.00132  -0.03556  -0.03691  -0.99265
   D35        1.10207   0.00015  -0.00169  -0.03631  -0.03803   1.06404
   D36       -3.02840  -0.00005  -0.00126  -0.03677  -0.03805  -3.06645
         Item               Value     Threshold  Converged?
 Maximum Force            0.008727     0.000450     NO 
 RMS     Force            0.001431     0.000300     NO 
 Maximum Displacement     0.124665     0.001800     NO 
 RMS     Displacement     0.043791     0.001200     NO 
 Predicted change in Energy=-5.567313D-04
 GradGradGradGradGradGradGradGradGradGradGradGradGradGradGradGradGradGrad

                          Input orientation:                          
 ---------------------------------------------------------------------
 Center     Atomic      Atomic             Coordinates (Angstroms)
 Number     Number       Type             X           Y           Z
 ---------------------------------------------------------------------
      1          5           0       -1.783041    0.724982   -0.079748
      2          9           0       -1.679866    1.817493   -0.922292
      3          9           0       -1.936892    1.075876    1.258125
      4          9           0       -2.745466   -0.177199   -0.510254
      5          8           0       -0.387754   -0.037542   -0.180982
      6          6           0       -0.451513   -1.490891    0.094000
      7          6           0        0.752142   -2.233703   -0.438806
      8          6           0        0.760027    0.613637    0.485762
      9          6           0        0.906844    2.063088    0.096326
     10          1           0       -0.580681   -1.602735    1.177272
     11          1           0       -1.358914   -1.803250   -0.417819
     12          1           0        0.499361   -3.300446   -0.425600
     13          1           0        0.957024   -1.947447   -1.477055
     14          1           0        1.653399   -2.101437    0.166903
     15          1           0        0.601162    0.485204    1.562443
     16          1           0        1.630407    0.043296    0.164256
     17          1           0        1.842976    2.408694    0.551834
     18          1           0        0.986828    2.175161   -0.989485
     19          1           0        0.087496    2.683202    0.467534
 ---------------------------------------------------------------------
                    Distance matrix (angstroms):
                    1          2          3          4          5
     1  B    0.000000
     2  F    1.383512   0.000000
     3  F    1.391655   2.317386   0.000000
     4  F    1.387634   2.298712   2.313256   0.000000
     5  O    1.593272   2.379128   2.389677   2.384687   0.000000
     6  C    2.590993   3.672479   3.185880   2.711665   1.480507
     7  C    3.912786   4.749801   4.589531   4.058026   2.487762
     8  C    2.607564   3.063488   2.843164   3.729068   1.478507
     9  C    3.009486   2.790872   3.226639   4.327377   2.483048
    10  H    2.905862   4.161050   3.003465   3.092926   2.081322
    11  H    2.585756   3.669780   3.381156   2.138952   2.029032
    12  H    4.640371   5.584715   5.284170   4.504524   3.390185
    13  H    4.074592   4.629873   4.999644   4.216267   2.671324
    14  H    4.456299   5.258804   4.916937   4.848839   2.923524
    15  H    2.904946   3.626568   2.623590   3.991838   2.071412
    16  H    3.489393   3.909766   3.871485   4.433040   2.049072
    17  H    4.047441   3.864321   4.069724   5.372957   3.390759
    18  H    3.256196   2.691412   3.848158   4.437711   2.727491
    19  H    2.762797   2.409281   2.703087   4.142902   2.837055
                    6          7          8          9         10
     6  C    0.000000
     7  C    1.511436   0.000000
     8  C    2.459745   2.993699   0.000000
     9  C    3.804721   4.332749   1.508020   0.000000
    10  H    1.096664   2.187749   2.681042   4.101150   0.000000
    11  H    1.087613   2.154596   3.338819   4.510718   1.786104
    12  H    2.109179   1.096364   4.027230   5.404253   2.572531
    13  H    2.158850   1.096302   3.232741   4.308415   3.086877
    14  H    2.192883   1.093911   2.876007   4.231501   2.502131
    15  H    2.677573   3.379385   1.095890   2.175468   2.429938
    16  H    2.587094   2.513913   1.089136   2.146560   2.936755
    17  H    4.547642   4.870640   2.097468   1.096938   4.728303
    18  H    4.084446   4.449315   2.160127   1.094505   4.628652
    19  H    4.225293   5.043725   2.176172   1.092551   4.395388
                   11         12         13         14         15
    11  H    0.000000
    12  H    2.386387   0.000000
    13  H    2.550753   1.773589   0.000000
    14  H    3.082992   1.766490   1.791995   0.000000
    15  H    3.605601   4.277128   3.909344   3.121770   0.000000
    16  H    3.561542   3.578800   2.666534   2.144858   1.791523
    17  H    5.378921   5.946004   4.886437   4.530496   2.502648
    18  H    4.653715   5.526108   4.151447   4.480049   3.084968
    19  H    4.796270   6.063940   5.097099   5.043332   2.508759
                   16         17         18         19
    16  H    0.000000
    17  H    2.406348   0.000000
    18  H    2.508019   1.778535   0.000000
    19  H    3.072727   1.778811   1.786004   0.000000
 Stoichiometry    C4H10BF3O
 Framework group  C1[X(C4H10BF3O)]
 Deg. of freedom    51
 Full point group                 C1      NOp   1
 Largest Abelian subgroup         C1      NOp   1
 Largest concise Abelian subgroup C1      NOp   1
                         Standard orientation:                         
 ---------------------------------------------------------------------
 Center     Atomic      Atomic             Coordinates (Angstroms)
 Number     Number       Type             X           Y           Z
 ---------------------------------------------------------------------
      1          5           0       -1.008199   -0.635704   -0.027012
      2          9           0       -1.815135   -0.038042   -0.978725
      3          9           0       -1.435417   -0.406466    1.277456
      4          9           0       -0.797149   -1.981327   -0.292124
      5          8           0        0.415402    0.067681   -0.157888
      6          6           0        1.563109   -0.767333    0.263331
      7          6           0        2.878171   -0.261001   -0.283184
      8          6           0        0.506923    1.452327    0.352368
      9          6           0       -0.585980    2.339648   -0.188325
     10          1           0        1.540020   -0.807622    1.359011
     11          1           0        1.323781   -1.746609   -0.144887
     12          1           0        3.610752   -1.064991   -0.145563
     13          1           0        2.799213   -0.055502   -1.357155
     14          1           0        3.258420    0.623327    0.236447
     15          1           0        0.480845    1.377620    1.445397
     16          1           0        1.482703    1.807388    0.023732
     17          1           0       -0.355485    3.354448    0.158559
     18          1           0       -0.590934    2.339469   -1.282819
     19          1           0       -1.575573    2.060207    0.180843
 ---------------------------------------------------------------------
 Rotational constants (GHZ):           1.8477080           1.3787251           0.9814624
 Standard basis: Aug-CC-pVDZ (5D, 7F)
 There are   315 symmetry adapted cartesian basis functions of A   symmetry.
 There are   297 symmetry adapted basis functions of A   symmetry.
   297 basis functions,   497 primitive gaussians,   315 cartesian basis functions
    37 alpha electrons       37 beta electrons
       nuclear repulsion energy       524.7431655434 Hartrees.
 NAtoms=   19 NActive=   19 NUniq=   19 SFac= 1.00D+00 NAtFMM=   60 NAOKFM=F Big=F
 Integral buffers will be    131072 words long.
 Raffenetti 2 integral format.
 Two-electron integral symmetry is turned on.
 Nuclear repulsion after empirical dispersion term =      524.7310603575 Hartrees.
 Force PCM accuracy= 1.00D-12.
 ------------------------------------------------------------------------------
 Polarizable Continuum Model (PCM)
 =================================
 Model                : C-PCM.
 Atomic radii         : UFF (Universal Force Field).
 Polarization charges : Total charges.
 Charge compensation  : None.
 Solution method      : On-the-fly selection.
 Cavity type          : Scaled VdW (van der Waals Surface) (Alpha=1.100).
 Cavity algorithm     : GePol (No added spheres)
                        Default sphere list used, NSphG=   19.
                        Lebedev-Laikov grids with approx.  5.0 points / Ang**2.
                        Smoothing algorithm: York/Karplus (Gamma=1.0000).
                        Polarization charges: spherical gaussians, with
                                              point-specific exponents (IZeta= 3).
                        Self-potential: point-specific (ISelfS= 7).
                        Self-field    : sphere-specific E.n sum rule (ISelfD= 2).
 1st derivatives      : Analytical E(r).r(x)/FMM algorithm (CHGder, D1EAlg=3).
                        Cavity 1st derivative terms included.
 Solvent              : Chloroform, Eps=   4.711300 Eps(inf)=   2.090627
 ------------------------------------------------------------------------------
 Spheres list:
 ISph  on   Nord     Re0    Alpha      Xe            Ye            Ze
    1   B      1    2.0415  1.100     -1.008199     -0.635704     -0.027012
    2   F      2    1.6820  1.100     -1.815135     -0.038042     -0.978725
    3   F      3    1.6820  1.100     -1.435417     -0.406466      1.277456
    4   F      4    1.6820  1.100     -0.797149     -1.981327     -0.292124
    5   O      5    1.7500  1.100      0.415402      0.067681     -0.157888
    6   C      6    1.9255  1.100      1.563109     -0.767333      0.263331
    7   C      7    1.9255  1.100      2.878171     -0.261001     -0.283184
    8   C      8    1.9255  1.100      0.506923      1.452327      0.352368
    9   C      9    1.9255  1.100     -0.585980      2.339648     -0.188325
   10   H     10    1.4430  1.100      1.540020     -0.807622      1.359011
   11   H     11    1.4430  1.100      1.323781     -1.746609     -0.144887
   12   H     12    1.4430  1.100      3.610752     -1.064991     -0.145563
   13   H     13    1.4430  1.100      2.799213     -0.055502     -1.357155
   14   H     14    1.4430  1.100      3.258420      0.623327      0.236447
   15   H     15    1.4430  1.100      0.480845      1.377620      1.445397
   16   H     16    1.4430  1.100      1.482703      1.807388      0.023732
   17   H     17    1.4430  1.100     -0.355485      3.354448      0.158559
   18   H     18    1.4430  1.100     -0.590934      2.339469     -1.282819
   19   H     19    1.4430  1.100     -1.575573      2.060207      0.180843
 ------------------------------------------------------------------------------
 One-electron integrals computed using PRISM.
 NBasis=   297 RedAO= T EigKep=  3.17D-05  NBF=   297
 NBsUse=   297 1.00D-06 EigRej= -1.00D+00 NBFU=   297
 Initial guess from the checkpoint file:  "/inspire/hdd/project/materialscienceresearch/lipenghui-253107030018/g16/00-B-DFT-Shift/04-output/BF3OEt2_CDCl3/BF3OEt2_CDCl3.chk"
 B after Tr=    -0.000000    0.000000    0.000000
         Rot=    0.999786    0.001508    0.002045   -0.020509 Ang=   2.37 deg.
 ExpMin= 2.38D-02 ExpMax= 1.47D+04 ExpMxC= 5.03D+02 IAcc=3 IRadAn=         5 AccDes= 0.00D+00
 Harris functional with IExCor= 4639 and IRadAn=       5 diagonalized for initial guess.
 HarFok:  IExCor= 4639 AccDes= 0.00D+00 IRadAn=         5 IDoV= 1 UseB2=F ITyADJ=14
 ICtDFT=  3500011 ScaDFX=  1.000000  1.000000  1.000000  1.000000
 FoFCou: FMM=F IPFlag=           0 FMFlag=      100000 FMFlg1=           0
         NFxFlg=           0 DoJE=T BraDBF=F KetDBF=T FulRan=T
         wScrn=  0.000000 ICntrl=       500 IOpCl=  0 I1Cent=   200000004 NGrid=           0
         NMat0=    1 NMatS0=      1 NMatT0=    0 NMatD0=    1 NMtDS0=    0 NMtDT0=    0
 Petite list used in FoFCou.
 Requested convergence on RMS density matrix=1.00D-08 within 128 cycles.
 Requested convergence on MAX density matrix=1.00D-06.
 Requested convergence on             energy=1.00D-06.
 No special actions if energy rises.
 Inv3:  Mode=1 IEnd=     6741003.
 Iteration    1 A*A^-1 deviation from unit magnitude is 4.44D-15 for   1470.
 Iteration    1 A*A^-1 deviation from orthogonality  is 2.97D-15 for   1497    881.
 Iteration    1 A^-1*A deviation from unit magnitude is 4.44D-15 for   1470.
 Iteration    1 A^-1*A deviation from orthogonality  is 2.38D-15 for   1463   1132.
 Error on total polarization charges =  0.00890
 SCF Done:  E(RwB97XD) =  -558.147508669     A.U. after   11 cycles
            NFock= 11  Conv=0.48D-08     -V/T= 2.0060
 D1PCM: C-PCM CHGder 1st derivatives, ID1Alg=3 FixD1E=F DoIter=F DoCFld=F I1PDM=0.
 Calling FoFJK, ICntrl=      2127 FMM=F ISym2X=0 I1Cent= 0 IOpClX= 0 NMat=1 NMatS=1 NMatT=0.
 ***** Axes restored to original set *****
 -------------------------------------------------------------------
 Center     Atomic                   Forces (Hartrees/Bohr)
 Number     Number              X              Y              Z
 -------------------------------------------------------------------
      1        5          -0.002597604    0.001083067    0.000219568
      2        9          -0.001474298   -0.000968694   -0.000252012
      3        9          -0.000127958   -0.000202976   -0.000765079
      4        9           0.000464401    0.001009134    0.000290259
      5        8           0.005043290   -0.002894675    0.000130874
      6        6          -0.000184916    0.005319313   -0.000468039
      7        6          -0.001109274    0.000292519   -0.000414510
      8        6          -0.006085352   -0.002276918   -0.000978457
      9        6           0.001842707   -0.000078480    0.000703054
     10        1           0.000301870   -0.000808814    0.000427166
     11        1          -0.000644680   -0.001368247    0.000211315
     12        1           0.000312462   -0.000782153    0.000023431
     13        1           0.000133031    0.000161548   -0.000383760
     14        1           0.000624953    0.000707685    0.000494905
     15        1           0.001022119    0.000291409    0.000789789
     16        1           0.001605707   -0.000686955   -0.000029087
     17        1           0.000479853    0.000905759    0.000091991
     18        1           0.000048366    0.000127581   -0.000445752
     19        1           0.000345322    0.000169899    0.000354344
 -------------------------------------------------------------------
 Cartesian Forces:  Max     0.006085352 RMS     0.001542918

 GradGradGradGradGradGradGradGradGradGradGradGradGradGradGradGradGradGrad
 Berny optimization.
 Using GEDIIS/GDIIS optimizer.
 FormGI is forming the generalized inverse of G from B-inverse, IUseBI=4.
 Internal  Forces:  Max     0.003983808 RMS     0.001164644
 Search for a local minimum.
 Step number   5 out of a maximum of   97
 All quantities printed in internal units (Hartrees-Bohrs-Radians)
 Mixed Optimization -- RFO/linear search
 Update second derivatives using D2CorX and points    2    3    4    5
 DE= -3.83D-04 DEPred=-5.57D-04 R= 6.87D-01
 TightC=F SS=  1.41D+00  RLast= 1.82D-01 DXNew= 1.4270D+00 5.4500D-01
 Trust test= 6.87D-01 RLast= 1.82D-01 DXMaxT set to 8.49D-01
 ITU=  1  1  1  1  0
 Use linear search instead of GDIIS.
     Eigenvalues ---    0.00250   0.00279   0.01048   0.01344   0.01435
     Eigenvalues ---    0.02382   0.04323   0.04567   0.05152   0.05237
     Eigenvalues ---    0.05298   0.05591   0.05917   0.05988   0.09826
     Eigenvalues ---    0.10424   0.12098   0.12862   0.12871   0.13057
     Eigenvalues ---    0.13276   0.16000   0.16000   0.16000   0.16018
     Eigenvalues ---    0.16058   0.16731   0.19509   0.20620   0.22188
     Eigenvalues ---    0.24801   0.25046   0.26843   0.28278   0.28440
     Eigenvalues ---    0.28555   0.28808   0.31270   0.31837   0.31935
     Eigenvalues ---    0.31988   0.32092   0.32138   0.32156   0.32176
     Eigenvalues ---    0.32254   0.33747   0.34213   0.37844   0.41777
     Eigenvalues ---    0.47656
 RFO step:  Lambda=-4.34352609D-04 EMin= 2.50110961D-03
 Quartic linear search produced a step of -0.22399.
 Iteration  1 RMS(Cart)=  0.03023428 RMS(Int)=  0.00044805
 Iteration  2 RMS(Cart)=  0.00050959 RMS(Int)=  0.00001632
 Iteration  3 RMS(Cart)=  0.00000020 RMS(Int)=  0.00001632
 Variable       Old X    -DE/DX   Delta X   Delta X   Delta X     New X
                                 (Linear)    (Quad)   (Total)
    R1        2.61446  -0.00072   0.00120  -0.00811  -0.00691   2.60755
    R2        2.62985  -0.00077   0.00085  -0.00709  -0.00625   2.62360
    R3        2.62225  -0.00107   0.00040  -0.00682  -0.00642   2.61583
    R4        3.01085   0.00368  -0.01128   0.04241   0.03112   3.04197
    R5        2.79775  -0.00346  -0.00265   0.00171  -0.00094   2.79681
    R6        2.79397  -0.00104  -0.00121   0.00241   0.00120   2.79517
    R7        2.85620  -0.00011   0.00025  -0.00155  -0.00131   2.85489
    R8        2.07239   0.00047   0.00000   0.00078   0.00078   2.07318
    R9        2.05529   0.00083   0.00018   0.00103   0.00121   2.05650
   R10        2.07183   0.00069  -0.00030   0.00217   0.00187   2.07370
   R11        2.07171   0.00043   0.00008   0.00050   0.00058   2.07229
   R12        2.06719   0.00088   0.00045   0.00056   0.00101   2.06820
   R13        2.84974   0.00117   0.00099  -0.00007   0.00092   2.85067
   R14        2.07093   0.00059  -0.00009   0.00132   0.00124   2.07217
   R15        2.05817   0.00165   0.00062   0.00188   0.00250   2.06067
   R16        2.07291   0.00073  -0.00016   0.00191   0.00175   2.07466
   R17        2.06832   0.00046  -0.00004   0.00086   0.00082   2.06914
   R18        2.06462  -0.00004  -0.00015  -0.00009  -0.00024   2.06438
    A1        1.97642  -0.00015  -0.00070   0.00439   0.00372   1.98014
    A2        1.95648  -0.00152  -0.00240   0.00178  -0.00062   1.95587
    A3        1.84827   0.00203   0.00253  -0.00121   0.00133   1.84960
    A4        1.96656  -0.00047  -0.00203   0.00444   0.00240   1.96896
    A5        1.85310   0.00023   0.00248  -0.00677  -0.00427   1.84883
    A6        1.85096   0.00021   0.00084  -0.00430  -0.00346   1.84750
    A7        2.00457   0.00006  -0.00209   0.00449   0.00243   2.00700
    A8        2.02685   0.00321   0.00159   0.00797   0.00963   2.03647
    A9        1.96278  -0.00339  -0.00447  -0.00312  -0.00761   1.95518
   A10        1.96349  -0.00284  -0.00235  -0.00406  -0.00642   1.95707
   A11        1.86362   0.00123   0.00039   0.00097   0.00134   1.86496
   A12        1.80334   0.00189   0.00246   0.00529   0.00774   1.81108
   A13        1.97348   0.00020  -0.00030  -0.00258  -0.00288   1.97059
   A14        1.93625   0.00012   0.00109  -0.00115  -0.00005   1.93620
   A15        1.91483  -0.00043  -0.00110   0.00238   0.00126   1.91609
   A16        1.86536   0.00085   0.00048   0.00342   0.00390   1.86926
   A17        1.93302   0.00001   0.00033  -0.00150  -0.00117   1.93185
   A18        1.98395  -0.00078  -0.00072  -0.00249  -0.00322   1.98073
   A19        1.88447  -0.00017   0.00072  -0.00087  -0.00015   1.88432
   A20        1.87647   0.00001   0.00059  -0.00028   0.00032   1.87679
   A21        1.91649   0.00011  -0.00126   0.00184   0.00058   1.91706
   A22        1.96324   0.00398   0.00425   0.00509   0.00935   1.97259
   A23        1.85344  -0.00048   0.00119   0.00306   0.00428   1.85773
   A24        1.83033  -0.00121  -0.00178  -0.00075  -0.00252   1.82781
   A25        1.96111  -0.00123   0.00040  -0.00365  -0.00326   1.95785
   A26        1.92761  -0.00128  -0.00190  -0.00310  -0.00502   1.92259
   A27        1.92250   0.00026  -0.00233  -0.00023  -0.00258   1.91992
   A28        1.85321   0.00097   0.00006   0.00348   0.00354   1.85675
   A29        1.94091   0.00001   0.00030  -0.00038  -0.00008   1.94083
   A30        1.96577  -0.00000   0.00050  -0.00150  -0.00099   1.96478
   A31        1.89371  -0.00040   0.00004  -0.00131  -0.00127   1.89244
   A32        1.89662  -0.00062  -0.00047  -0.00210  -0.00258   1.89404
   A33        1.91108   0.00002  -0.00045   0.00176   0.00131   1.91238
    D1       -2.66735   0.00013  -0.00167   0.02681   0.02516  -2.64220
    D2        1.27501   0.00182   0.00589   0.01772   0.02358   1.29858
    D3        1.51008  -0.00084  -0.00345   0.02575   0.02234   1.53241
    D4       -0.83075   0.00085   0.00411   0.01666   0.02076  -0.80999
    D5       -0.58564  -0.00053  -0.00278   0.02616   0.02341  -0.56223
    D6       -2.92647   0.00117   0.00479   0.01708   0.02183  -2.90463
    D7        2.81563  -0.00065   0.01355  -0.04468  -0.03110   2.78453
    D8       -1.29279  -0.00138   0.01192  -0.04990  -0.03795  -1.33075
    D9        0.72629  -0.00051   0.01196  -0.04448  -0.03248   0.69382
   D10       -1.09775   0.00065   0.00907  -0.03105  -0.02202  -1.11977
   D11        1.07701  -0.00008   0.00744  -0.03627  -0.02887   1.04814
   D12        3.09610   0.00079   0.00748  -0.03084  -0.02339   3.07271
   D13       -0.88278  -0.00059  -0.00738  -0.00210  -0.00948  -0.89226
   D14        1.26919   0.00001  -0.00332  -0.00140  -0.00472   1.26447
   D15       -2.97837  -0.00046  -0.00624  -0.00065  -0.00690  -2.98527
   D16        3.04105  -0.00038  -0.00098  -0.01421  -0.01519   3.02586
   D17       -1.09017   0.00022   0.00308  -0.01351  -0.01042  -1.10059
   D18        0.94546  -0.00025   0.00015  -0.01275  -0.01260   0.93286
   D19       -2.88975  -0.00052  -0.00161  -0.03459  -0.03620  -2.92595
   D20       -0.84120  -0.00022  -0.00030  -0.03444  -0.03473  -0.87593
   D21        1.32612  -0.00065  -0.00224  -0.03506  -0.03730   1.28882
   D22        1.28043  -0.00017  -0.00017  -0.03092  -0.03109   1.24934
   D23       -2.95421   0.00014   0.00115  -0.03077  -0.02962  -2.98383
   D24       -0.78689  -0.00030  -0.00080  -0.03139  -0.03219  -0.81908
   D25       -0.87936   0.00015   0.00068  -0.03125  -0.03056  -0.90992
   D26        1.16919   0.00046   0.00200  -0.03109  -0.02909   1.14009
   D27       -2.94668   0.00002   0.00005  -0.03172  -0.03166  -2.97834
   D28       -3.03101   0.00040   0.00909   0.00532   0.01441  -3.01660
   D29       -0.97431   0.00050   0.00934   0.00561   0.01494  -0.95937
   D30        1.17838   0.00054   0.00935   0.00652   0.01586   1.19423
   D31        1.16161  -0.00094   0.00415   0.00034   0.00450   1.16611
   D32       -3.06488  -0.00083   0.00440   0.00062   0.00504  -3.05985
   D33       -0.91220  -0.00079   0.00440   0.00153   0.00595  -0.90625
   D34       -0.99265   0.00055   0.00827   0.00555   0.01381  -0.97884
   D35        1.06404   0.00066   0.00852   0.00584   0.01435   1.07839
   D36       -3.06645   0.00069   0.00852   0.00675   0.01526  -3.05119
         Item               Value     Threshold  Converged?
 Maximum Force            0.003984     0.000450     NO 
 RMS     Force            0.001165     0.000300     NO 
 Maximum Displacement     0.095596     0.001800     NO 
 RMS     Displacement     0.030285     0.001200     NO 
 Predicted change in Energy=-2.581943D-04
 GradGradGradGradGradGradGradGradGradGradGradGradGradGradGradGradGradGrad

                          Input orientation:                          
 ---------------------------------------------------------------------
 Center     Atomic      Atomic             Coordinates (Angstroms)
 Number     Number       Type             X           Y           Z
 ---------------------------------------------------------------------
      1          5           0       -1.806258    0.725734   -0.094664
      2          9           0       -1.710323    1.795941   -0.960374
      3          9           0       -1.961367    1.101118    1.232942
      4          9           0       -2.755856   -0.193128   -0.507060
      5          8           0       -0.391370   -0.037696   -0.175529
      6          6           0       -0.448067   -1.490547    0.100931
      7          6           0        0.750636   -2.222911   -0.455042
      8          6           0        0.753081    0.611292    0.500419
      9          6           0        0.926652    2.057691    0.108754
     10          1           0       -0.551619   -1.603825    1.187222
     11          1           0       -1.363387   -1.812427   -0.391892
     12          1           0        0.524217   -3.295581   -0.407050
     13          1           0        0.912775   -1.958203   -1.506798
     14          1           0        1.668665   -2.053852    0.116316
     15          1           0        0.586039    0.491324    1.577506
     16          1           0        1.623052    0.031209    0.190974
     17          1           0        1.868521    2.390891    0.563909
     18          1           0        1.009650    2.166550   -0.977595
     19          1           0        0.118499    2.692403    0.479447
 ---------------------------------------------------------------------
                    Distance matrix (angstroms):
                    1          2          3          4          5
     1  B    0.000000
     2  F    1.379855   0.000000
     3  F    1.388348   2.314398   0.000000
     4  F    1.384238   2.292385   2.309522   0.000000
     5  O    1.609742   2.391200   2.396994   2.392669   0.000000
     6  C    2.606692   3.677045   3.207531   2.716402   1.480007
     7  C    3.919450   4.739499   4.610143   4.051939   2.481426
     8  C    2.630102   3.099301   2.853901   3.738281   1.479142
     9  C    3.047013   2.857479   3.243376   4.359619   2.491715
    10  H    2.940101   4.184874   3.050606   3.117581   2.082194
    11  H    2.593596   3.669313   3.389161   2.138776   2.035019
    12  H    4.658290   5.587748   5.310241   4.515981   3.392008
    13  H    4.073179   4.612247   5.012616   4.192114   2.676084
    14  H    4.454851   5.234283   4.937390   4.840173   2.897206
    15  H    2.928171   3.662804   2.641940   3.997767   2.075650
    16  H    3.510572   3.943509   3.883099   4.439866   2.048650
    17  H    4.087844   3.935166   4.096238   5.404534   3.398810
    18  H    3.284030   2.745159   3.853383   4.468615   2.732190
    19  H    2.811064   2.494257   2.725029   4.190633   2.853489
                    6          7          8          9         10
     6  C    0.000000
     7  C    1.510745   0.000000
     8  C    2.453584   2.990923   0.000000
     9  C    3.805247   4.321158   1.508509   0.000000
    10  H    1.097079   2.185444   2.660955   4.093297   0.000000
    11  H    1.088252   2.154432   3.339172   4.524681   1.787759
    12  H    2.112233   1.097355   4.017403   5.393100   2.561476
    13  H    2.157635   1.096609   3.264464   4.328696   3.086710
    14  H    2.190457   1.094444   2.844085   4.177969   2.505798
    15  H    2.679078   3.394910   1.096545   2.174110   2.415830
    16  H    2.571649   2.501900   1.090459   2.144379   2.897419
    17  H    4.543841   4.855419   2.101240   1.097864   4.712043
    18  H    4.081974   4.428038   2.160829   1.094939   4.619493
    19  H    4.238083   5.043132   2.175813   1.092422   4.405404
                   11         12         13         14         15
    11  H    0.000000
    12  H    2.400629   0.000000
    13  H    2.538736   1.774543   0.000000
    14  H    3.083812   1.767927   1.793047   0.000000
    15  H    3.603617   4.275854   3.952198   3.128110   0.000000
    16  H    3.557744   3.554237   2.710108   2.086895   1.791527
    17  H    5.387640   5.923333   4.910794   4.471690   2.506091
    18  H    4.669755   5.513260   4.159691   4.409391   3.084537
    19  H    4.821692   6.066831   5.119003   5.006178   2.503812
                   16         17         18         19
    16  H    0.000000
    17  H    2.401548   0.000000
    18  H    2.510278   1.778826   0.000000
    19  H    3.070644   1.777814   1.787077   0.000000
 Stoichiometry    C4H10BF3O
 Framework group  C1[X(C4H10BF3O)]
 Deg. of freedom    51
 Full point group                 C1      NOp   1
 Largest Abelian subgroup         C1      NOp   1
 Largest concise Abelian subgroup C1      NOp   1
                         Standard orientation:                         
 ---------------------------------------------------------------------
 Center     Atomic      Atomic             Coordinates (Angstroms)
 Number     Number       Type             X           Y           Z
 ---------------------------------------------------------------------
      1          5           0       -1.036388   -0.619369   -0.028460
      2          9           0       -1.812662   -0.028998   -1.004606
      3          9           0       -1.475263   -0.354564    1.261803
      4          9           0       -0.843916   -1.969890   -0.263324
      5          8           0        0.418244    0.059546   -0.148418
      6          6           0        1.545838   -0.798143    0.279744
      7          6           0        2.863577   -0.335381   -0.296247
      8          6           0        0.549563    1.442661    0.359133
      9          6           0       -0.499824    2.375549   -0.192327
     10          1           0        1.539260   -0.808032    1.376759
     11          1           0        1.280356   -1.783178   -0.099093
     12          1           0        3.592198   -1.136654   -0.119441
     13          1           0        2.781651   -0.185729   -1.379503
     14          1           0        3.251131    0.572731    0.175921
     15          1           0        0.511131    1.376772    1.453022
     16          1           0        1.541879    1.762240    0.039324
     17          1           0       -0.226489    3.383650    0.145791
     18          1           0       -0.501841    2.366367   -1.287226
     19          1           0       -1.501650    2.145270    0.177404
 ---------------------------------------------------------------------
 Rotational constants (GHZ):           1.8343052           1.3731219           0.9757526
 Standard basis: Aug-CC-pVDZ (5D, 7F)
 There are   315 symmetry adapted cartesian basis functions of A   symmetry.
 There are   297 symmetry adapted basis functions of A   symmetry.
   297 basis functions,   497 primitive gaussians,   315 cartesian basis functions
    37 alpha electrons       37 beta electrons
       nuclear repulsion energy       523.6289688477 Hartrees.
 NAtoms=   19 NActive=   19 NUniq=   19 SFac= 1.00D+00 NAtFMM=   60 NAOKFM=F Big=F
 Integral buffers will be    131072 words long.
 Raffenetti 2 integral format.
 Two-electron integral symmetry is turned on.
 Nuclear repulsion after empirical dispersion term =      523.6168717886 Hartrees.
 Force PCM accuracy= 1.00D-12.
 ------------------------------------------------------------------------------
 Polarizable Continuum Model (PCM)
 =================================
 Model                : C-PCM.
 Atomic radii         : UFF (Universal Force Field).
 Polarization charges : Total charges.
 Charge compensation  : None.
 Solution method      : On-the-fly selection.
 Cavity type          : Scaled VdW (van der Waals Surface) (Alpha=1.100).
 Cavity algorithm     : GePol (No added spheres)
                        Default sphere list used, NSphG=   19.
                        Lebedev-Laikov grids with approx.  5.0 points / Ang**2.
                        Smoothing algorithm: York/Karplus (Gamma=1.0000).
                        Polarization charges: spherical gaussians, with
                                              point-specific exponents (IZeta= 3).
                        Self-potential: point-specific (ISelfS= 7).
                        Self-field    : sphere-specific E.n sum rule (ISelfD= 2).
 1st derivatives      : Analytical E(r).r(x)/FMM algorithm (CHGder, D1EAlg=3).
                        Cavity 1st derivative terms included.
 Solvent              : Chloroform, Eps=   4.711300 Eps(inf)=   2.090627
 ------------------------------------------------------------------------------
 Spheres list:
 ISph  on   Nord     Re0    Alpha      Xe            Ye            Ze
    1   B      1    2.0415  1.100     -1.036388     -0.619369     -0.028460
    2   F      2    1.6820  1.100     -1.812662     -0.028998     -1.004606
    3   F      3    1.6820  1.100     -1.475263     -0.354564      1.261803
    4   F      4    1.6820  1.100     -0.843916     -1.969890     -0.263324
    5   O      5    1.7500  1.100      0.418244      0.059546     -0.148418
    6   C      6    1.9255  1.100      1.545838     -0.798143      0.279744
    7   C      7    1.9255  1.100      2.863577     -0.335381     -0.296247
    8   C      8    1.9255  1.100      0.549563      1.442661      0.359133
    9   C      9    1.9255  1.100     -0.499824      2.375549     -0.192327
   10   H     10    1.4430  1.100      1.539260     -0.808032      1.376759
   11   H     11    1.4430  1.100      1.280356     -1.783178     -0.099093
   12   H     12    1.4430  1.100      3.592198     -1.136654     -0.119441
   13   H     13    1.4430  1.100      2.781651     -0.185729     -1.379503
   14   H     14    1.4430  1.100      3.251131      0.572731      0.175921
   15   H     15    1.4430  1.100      0.511131      1.376772      1.453022
   16   H     16    1.4430  1.100      1.541879      1.762240      0.039324
   17   H     17    1.4430  1.100     -0.226489      3.383650      0.145791
   18   H     18    1.4430  1.100     -0.501841      2.366367     -1.287226
   19   H     19    1.4430  1.100     -1.501650      2.145270      0.177404
 ------------------------------------------------------------------------------
 One-electron integrals computed using PRISM.
 NBasis=   297 RedAO= T EigKep=  3.12D-05  NBF=   297
 NBsUse=   297 1.00D-06 EigRej= -1.00D+00 NBFU=   297
 Initial guess from the checkpoint file:  "/inspire/hdd/project/materialscienceresearch/lipenghui-253107030018/g16/00-B-DFT-Shift/04-output/BF3OEt2_CDCl3/BF3OEt2_CDCl3.chk"
 B after Tr=     0.000000    0.000000    0.000000
         Rot=    0.999903    0.004364    0.001854    0.013099 Ang=   1.60 deg.
 ExpMin= 2.38D-02 ExpMax= 1.47D+04 ExpMxC= 5.03D+02 IAcc=3 IRadAn=         5 AccDes= 0.00D+00
 Harris functional with IExCor= 4639 and IRadAn=       5 diagonalized for initial guess.
 HarFok:  IExCor= 4639 AccDes= 0.00D+00 IRadAn=         5 IDoV= 1 UseB2=F ITyADJ=14
 ICtDFT=  3500011 ScaDFX=  1.000000  1.000000  1.000000  1.000000
 FoFCou: FMM=F IPFlag=           0 FMFlag=      100000 FMFlg1=           0
         NFxFlg=           0 DoJE=T BraDBF=F KetDBF=T FulRan=T
         wScrn=  0.000000 ICntrl=       500 IOpCl=  0 I1Cent=   200000004 NGrid=           0
         NMat0=    1 NMatS0=      1 NMatT0=    0 NMatD0=    1 NMtDS0=    0 NMtDT0=    0
 Petite list used in FoFCou.
 Requested convergence on RMS density matrix=1.00D-08 within 128 cycles.
 Requested convergence on MAX density matrix=1.00D-06.
 Requested convergence on             energy=1.00D-06.
 No special actions if energy rises.
 Inv3:  Mode=1 IEnd=     6777027.
 Iteration    1 A*A^-1 deviation from unit magnitude is 4.55D-15 for   1493.
 Iteration    1 A*A^-1 deviation from orthogonality  is 2.92D-15 for   1480    678.
 Iteration    1 A^-1*A deviation from unit magnitude is 4.55D-15 for   1493.
 Iteration    1 A^-1*A deviation from orthogonality  is 1.88D-15 for   1469    799.
 Error on total polarization charges =  0.00890
 SCF Done:  E(RwB97XD) =  -558.147769178     A.U. after   11 cycles
            NFock= 11  Conv=0.20D-08     -V/T= 2.0061
 D1PCM: C-PCM CHGder 1st derivatives, ID1Alg=3 FixD1E=F DoIter=F DoCFld=F I1PDM=0.
 Calling FoFJK, ICntrl=      2127 FMM=F ISym2X=0 I1Cent= 0 IOpClX= 0 NMat=1 NMatS=1 NMatT=0.
 ***** Axes restored to original set *****
 -------------------------------------------------------------------
 Center     Atomic                   Forces (Hartrees/Bohr)
 Number     Number              X              Y              Z
 -------------------------------------------------------------------
      1        5          -0.000068104   -0.000226742    0.000694869
      2        9           0.000665162    0.000621398   -0.000690726
      3        9           0.000156029    0.000155090    0.000485098
      4        9          -0.000329240   -0.000458462   -0.000121582
      5        8           0.003216723   -0.001246649    0.000710699
      6        6           0.000140963    0.005402923   -0.000400094
      7        6          -0.000766082   -0.000808471   -0.000627392
      8        6          -0.004803204   -0.002748176   -0.000992286
      9        6           0.000543609   -0.000393878   -0.000240389
     10        1           0.000020109   -0.000656909    0.000175643
     11        1          -0.000450772   -0.000758731    0.000407866
     12        1           0.000301329   -0.000126754    0.000081317
     13        1           0.000262434    0.000199304   -0.000097638
     14        1           0.000398531    0.000072596    0.000085895
     15        1           0.000546107    0.000064804    0.000288085
     16        1           0.000824081   -0.000003768    0.000445617
     17        1          -0.000135457    0.000388345   -0.000052758
     18        1          -0.000070596    0.000155364   -0.000298583
     19        1          -0.000451623    0.000368716    0.000146359
 -------------------------------------------------------------------
 Cartesian Forces:  Max     0.005402923 RMS     0.001197336

 GradGradGradGradGradGradGradGradGradGradGradGradGradGradGradGradGradGrad
 Berny optimization.
 Using GEDIIS/GDIIS optimizer.
 FormGI is forming the generalized inverse of G from B-inverse, IUseBI=4.
 Internal  Forces:  Max     0.004022678 RMS     0.000714448
 Search for a local minimum.
 Step number   6 out of a maximum of   97
 All quantities printed in internal units (Hartrees-Bohrs-Radians)
 Mixed Optimization -- En-DIIS/RFO-DIIS
 Update second derivatives using D2CorX and points    3    4    5    6
 DE= -2.61D-04 DEPred=-2.58D-04 R= 1.01D+00
 TightC=F SS=  1.41D+00  RLast= 1.47D-01 DXNew= 1.4270D+00 4.4234D-01
 Trust test= 1.01D+00 RLast= 1.47D-01 DXMaxT set to 8.49D-01
 ITU=  1  1  1  1  1  0
 Use linear search instead of GDIIS.
     Eigenvalues ---    0.00241   0.00280   0.00737   0.01347   0.01442
     Eigenvalues ---    0.02463   0.04329   0.04558   0.05181   0.05248
     Eigenvalues ---    0.05336   0.05636   0.05917   0.05979   0.09828
     Eigenvalues ---    0.10548   0.12448   0.12864   0.12936   0.13081
     Eigenvalues ---    0.13296   0.16000   0.16000   0.16007   0.16020
     Eigenvalues ---    0.16028   0.16418   0.19747   0.20685   0.22536
     Eigenvalues ---    0.24795   0.25047   0.27216   0.28395   0.28530
     Eigenvalues ---    0.28591   0.28920   0.31802   0.31845   0.31936
     Eigenvalues ---    0.31994   0.32090   0.32139   0.32155   0.32189
     Eigenvalues ---    0.32303   0.33172   0.35461   0.37940   0.45267
     Eigenvalues ---    0.51797
 RFO step:  Lambda=-2.15876930D-04 EMin= 2.41461920D-03
 Quartic linear search produced a step of  0.04672.
 Iteration  1 RMS(Cart)=  0.02928857 RMS(Int)=  0.00040418
 Iteration  2 RMS(Cart)=  0.00048339 RMS(Int)=  0.00000503
 Iteration  3 RMS(Cart)=  0.00000012 RMS(Int)=  0.00000503
 Variable       Old X    -DE/DX   Delta X   Delta X   Delta X     New X
                                 (Linear)    (Quad)   (Total)
    R1        2.60755   0.00096  -0.00032   0.00164   0.00131   2.60886
    R2        2.62360   0.00049  -0.00029   0.00013  -0.00016   2.62344
    R3        2.61583   0.00057  -0.00030   0.00038   0.00008   2.61591
    R4        3.04197  -0.00031   0.00145   0.01778   0.01924   3.06121
    R5        2.79681  -0.00333  -0.00004  -0.00779  -0.00783   2.78898
    R6        2.79517  -0.00402   0.00006  -0.00866  -0.00861   2.78656
    R7        2.85489   0.00069  -0.00006   0.00157   0.00151   2.85641
    R8        2.07318   0.00024   0.00004   0.00073   0.00076   2.07394
    R9        2.05650   0.00042   0.00006   0.00146   0.00152   2.05802
   R10        2.07370   0.00006   0.00009   0.00060   0.00069   2.07439
   R11        2.07229   0.00018   0.00003   0.00053   0.00055   2.07284
   R12        2.06820   0.00039   0.00005   0.00130   0.00135   2.06955
   R13        2.85067   0.00060   0.00004   0.00202   0.00206   2.85273
   R14        2.07217   0.00019   0.00006   0.00076   0.00082   2.07299
   R15        2.06067   0.00053   0.00012   0.00215   0.00227   2.06294
   R16        2.07466  -0.00002   0.00008   0.00028   0.00036   2.07502
   R17        2.06914   0.00031   0.00004   0.00103   0.00106   2.07020
   R18        2.06438   0.00060  -0.00001   0.00155   0.00154   2.06591
    A1        1.98014   0.00040   0.00017   0.00318   0.00334   1.98348
    A2        1.95587   0.00050  -0.00003   0.00305   0.00302   1.95888
    A3        1.84960  -0.00121   0.00006  -0.00551  -0.00546   1.84414
    A4        1.96896   0.00025   0.00011   0.00333   0.00343   1.97239
    A5        1.84883  -0.00019  -0.00020  -0.00360  -0.00381   1.84502
    A6        1.84750   0.00007  -0.00016  -0.00202  -0.00218   1.84532
    A7        2.00700   0.00083   0.00011   0.00467   0.00479   2.01179
    A8        2.03647  -0.00126   0.00045  -0.00325  -0.00280   2.03368
    A9        1.95518   0.00025  -0.00036  -0.00138  -0.00173   1.95344
   A10        1.95707  -0.00042  -0.00030  -0.00424  -0.00453   1.95253
   A11        1.86496   0.00046   0.00006   0.00394   0.00400   1.86895
   A12        1.81108   0.00057   0.00036   0.00571   0.00606   1.81714
   A13        1.97059  -0.00003  -0.00013  -0.00122  -0.00136   1.96924
   A14        1.93620  -0.00026  -0.00000  -0.00132  -0.00132   1.93488
   A15        1.91609  -0.00025   0.00006  -0.00219  -0.00214   1.91395
   A16        1.86926   0.00041   0.00018   0.00344   0.00362   1.87288
   A17        1.93185   0.00006  -0.00005  -0.00014  -0.00020   1.93165
   A18        1.98073  -0.00000  -0.00015  -0.00122  -0.00138   1.97936
   A19        1.88432  -0.00004  -0.00001   0.00099   0.00098   1.88529
   A20        1.87679  -0.00023   0.00001  -0.00105  -0.00103   1.87575
   A21        1.91706  -0.00019   0.00003  -0.00177  -0.00175   1.91532
   A22        1.97259  -0.00175   0.00044  -0.00558  -0.00514   1.96745
   A23        1.85773   0.00083   0.00020   0.00454   0.00473   1.86246
   A24        1.82781   0.00099  -0.00012   0.00495   0.00483   1.83265
   A25        1.95785   0.00028  -0.00015  -0.00092  -0.00107   1.95677
   A26        1.92259   0.00015  -0.00023  -0.00007  -0.00029   1.92230
   A27        1.91992  -0.00044  -0.00012  -0.00249  -0.00262   1.91729
   A28        1.85675   0.00059   0.00017   0.00445   0.00462   1.86137
   A29        1.94083   0.00009  -0.00000   0.00051   0.00050   1.94133
   A30        1.96478  -0.00011  -0.00005  -0.00129  -0.00134   1.96344
   A31        1.89244  -0.00019  -0.00006  -0.00053  -0.00060   1.89184
   A32        1.89404  -0.00026  -0.00012  -0.00208  -0.00220   1.89185
   A33        1.91238  -0.00012   0.00006  -0.00097  -0.00090   1.91148
    D1       -2.64220  -0.00009   0.00118   0.01256   0.01373  -2.62846
    D2        1.29858  -0.00000   0.00110   0.01306   0.01417   1.31275
    D3        1.53241   0.00016   0.00104   0.01347   0.01451   1.54692
    D4       -0.80999   0.00025   0.00097   0.01397   0.01494  -0.79505
    D5       -0.56223  -0.00007   0.00109   0.01241   0.01350  -0.54873
    D6       -2.90463   0.00002   0.00102   0.01292   0.01394  -2.89069
    D7        2.78453  -0.00000  -0.00145  -0.04072  -0.04217   2.74236
    D8       -1.33075   0.00000  -0.00177  -0.04223  -0.04401  -1.37475
    D9        0.69382   0.00018  -0.00152  -0.04043  -0.04193   0.65188
   D10       -1.11977  -0.00078  -0.00103  -0.04222  -0.04325  -1.16302
   D11        1.04814  -0.00078  -0.00135  -0.04373  -0.04508   1.00306
   D12        3.07271  -0.00061  -0.00109  -0.04192  -0.04301   3.02970
   D13       -0.89226   0.00009  -0.00044  -0.00449  -0.00493  -0.89719
   D14        1.26447  -0.00009  -0.00022  -0.00600  -0.00622   1.25825
   D15       -2.98527   0.00023  -0.00032  -0.00453  -0.00484  -2.99011
   D16        3.02586  -0.00011  -0.00071  -0.00669  -0.00740   3.01846
   D17       -1.10059  -0.00029  -0.00049  -0.00820  -0.00870  -1.10928
   D18        0.93286   0.00003  -0.00059  -0.00673  -0.00732   0.92554
   D19       -2.92595  -0.00009  -0.00169  -0.02032  -0.02201  -2.94796
   D20       -0.87593   0.00013  -0.00162  -0.01720  -0.01882  -0.89476
   D21        1.28882  -0.00008  -0.00174  -0.02057  -0.02232   1.26650
   D22        1.24934  -0.00035  -0.00145  -0.02147  -0.02292   1.22642
   D23       -2.98383  -0.00013  -0.00138  -0.01835  -0.01974  -3.00357
   D24       -0.81908  -0.00034  -0.00150  -0.02173  -0.02323  -0.84231
   D25       -0.90992   0.00020  -0.00143  -0.01668  -0.01811  -0.92803
   D26        1.14009   0.00042  -0.00136  -0.01356  -0.01492   1.12517
   D27       -2.97834   0.00021  -0.00148  -0.01693  -0.01841  -2.99676
   D28       -3.01660  -0.00015   0.00067  -0.00794  -0.00727  -3.02387
   D29       -0.95937   0.00002   0.00070  -0.00566  -0.00496  -0.96433
   D30        1.19423  -0.00015   0.00074  -0.00750  -0.00676   1.18747
   D31        1.16611  -0.00017   0.00021  -0.00916  -0.00895   1.15715
   D32       -3.05985  -0.00000   0.00024  -0.00688  -0.00665  -3.06650
   D33       -0.90625  -0.00017   0.00028  -0.00872  -0.00844  -0.91469
   D34       -0.97884   0.00010   0.00065  -0.00526  -0.00462  -0.98345
   D35        1.07839   0.00026   0.00067  -0.00298  -0.00231   1.07608
   D36       -3.05119   0.00010   0.00071  -0.00482  -0.00411  -3.05530
         Item               Value     Threshold  Converged?
 Maximum Force            0.004023     0.000450     NO 
 RMS     Force            0.000714     0.000300     NO 
 Maximum Displacement     0.119185     0.001800     NO 
 RMS     Displacement     0.029315     0.001200     NO 
 Predicted change in Energy=-1.095110D-04
 GradGradGradGradGradGradGradGradGradGradGradGradGradGradGradGradGradGrad

                          Input orientation:                          
 ---------------------------------------------------------------------
 Center     Atomic      Atomic             Coordinates (Angstroms)
 Number     Number       Type             X           Y           Z
 ---------------------------------------------------------------------
      1          5           0       -1.805965    0.730199   -0.106636
      2          9           0       -1.695819    1.784641   -0.990909
      3          9           0       -1.964101    1.125782    1.214646
      4          9           0       -2.751906   -0.196002   -0.511080
      5          8           0       -0.382671   -0.041050   -0.166293
      6          6           0       -0.438609   -1.489062    0.113531
      7          6           0        0.742638   -2.223060   -0.478643
      8          6           0        0.747994    0.609343    0.521450
      9          6           0        0.924959    2.052679    0.116035
     10          1           0       -0.509197   -1.604465    1.202645
     11          1           0       -1.368986   -1.813458   -0.350376
     12          1           0        0.529697   -3.297430   -0.405356
     13          1           0        0.861969   -1.972413   -1.539837
     14          1           0        1.681689   -2.036929    0.053246
     15          1           0        0.566289    0.502062    1.597942
     16          1           0        1.625974    0.027802    0.233902
     17          1           0        1.854654    2.399751    0.586069
     18          1           0        1.029600    2.149671   -0.970136
     19          1           0        0.105331    2.687919    0.462217
 ---------------------------------------------------------------------
                    Distance matrix (angstroms):
                    1          2          3          4          5
     1  B    0.000000
     2  F    1.380550   0.000000
     3  F    1.388265   2.317442   0.000000
     4  F    1.384279   2.295321   2.312116   0.000000
     5  O    1.619923   2.395307   2.401960   2.399200   0.000000
     6  C    2.615962   3.676615   3.221334   2.722772   1.475863
     7  C    3.918610   4.719127   4.626922   4.040031   2.474884
     8  C    2.632832   3.104960   2.846523   3.736844   1.474586
     9  C    3.042446   2.857559   3.226879   4.355361   2.484613
    10  H    2.974304   4.207825   3.093726   3.154420   2.081891
    11  H    2.592402   3.669253   3.382689   2.134117   2.036697
    12  H    4.665442   5.578821   5.329938   4.516520   3.390218
    13  H    4.059070   4.578106   5.017236   4.156208   2.676922
    14  H    4.454918   5.205979   4.964210   4.833657   2.879811
    15  H    2.930055   3.669372   2.634163   3.993205   2.075577
    16  H    3.519592   3.952335   3.880213   4.446450   2.049280
    17  H    4.082570   3.933330   4.074432   5.400191   3.395465
    18  H    3.286481   2.749834   3.844979   4.473555   2.727623
    19  H    2.794515   2.484276   2.699809   4.174699   2.842612
                    6          7          8          9         10
     6  C    0.000000
     7  C    1.511545   0.000000
     8  C    2.444939   3.003784   0.000000
     9  C    3.795162   4.320743   1.509601   0.000000
    10  H    1.097484   2.185516   2.635432   4.075810   0.000000
    11  H    1.089056   2.154804   3.333414   4.519594   1.787398
    12  H    2.115905   1.097718   4.021131   5.389966   2.555601
    13  H    2.158415   1.096902   3.305655   4.352843   3.088153
    14  H    2.190767   1.095157   2.844953   4.159504   2.511598
    15  H    2.679155   3.430684   1.096978   2.174651   2.397996
    16  H    2.564736   2.520790   1.091660   2.146028   2.856871
    17  H    4.539297   4.872430   2.105810   1.098055   4.690598
    18  H    4.070669   4.409613   2.162577   1.095502   4.602435
    19  H    4.226656   5.040743   2.176466   1.093235   4.398913
                   11         12         13         14         15
    11  H    0.000000
    12  H    2.410434   0.000000
    13  H    2.533227   1.775702   0.000000
    14  H    3.085364   1.768124   1.792768   0.000000
    15  H    3.592056   4.295425   4.007007   3.174378   0.000000
    16  H    3.563903   3.559163   2.780417   2.073368   1.791217
    17  H    5.387014   5.932647   4.961928   4.471907   2.506990
    18  H    4.673725   5.499071   4.164641   4.358916   3.086146
    19  H    4.805862   6.062769   5.128296   4.997634   2.506058
                   16         17         18         19
    16  H    0.000000
    17  H    2.408829   0.000000
    18  H    2.511513   1.779054   0.000000
    19  H    3.072572   1.777220   1.787629   0.000000
 Stoichiometry    C4H10BF3O
 Framework group  C1[X(C4H10BF3O)]
 Deg. of freedom    51
 Full point group                 C1      NOp   1
 Largest Abelian subgroup         C1      NOp   1
 Largest concise Abelian subgroup C1      NOp   1
                         Standard orientation:                         
 ---------------------------------------------------------------------
 Center     Atomic      Atomic             Coordinates (Angstroms)
 Number     Number       Type             X           Y           Z
 ---------------------------------------------------------------------
      1          5           0       -1.036902   -0.625646   -0.030066
      2          9           0       -1.795428   -0.048257   -1.028654
      3          9           0       -1.494154   -0.343687    1.250050
      4          9           0       -0.829372   -1.977292   -0.245034
      5          8           0        0.424432    0.065317   -0.136007
      6          6           0        1.553464   -0.778555    0.301416
      7          6           0        2.860496   -0.333514   -0.313703
      8          6           0        0.538904    1.444818    0.372203
      9          6           0       -0.511078    2.366190   -0.200079
     10          1           0        1.568742   -0.753282    1.398503
     11          1           0        1.285337   -1.777900   -0.038380
     12          1           0        3.602080   -1.115896   -0.106538
     13          1           0        2.763493   -0.237577   -1.402088
     14          1           0        3.243269    0.602165    0.107437
     15          1           0        0.482812    1.383673    1.466038
     16          1           0        1.534351    1.775643    0.069943
     17          1           0       -0.261900    3.378933    0.143413
     18          1           0       -0.491574    2.358070   -1.295378
     19          1           0       -1.517682    2.121360    0.149160
 ---------------------------------------------------------------------
 Rotational constants (GHZ):           1.8330774           1.3718097           0.9774262
 Standard basis: Aug-CC-pVDZ (5D, 7F)
 There are   315 symmetry adapted cartesian basis functions of A   symmetry.
 There are   297 symmetry adapted basis functions of A   symmetry.
   297 basis functions,   497 primitive gaussians,   315 cartesian basis functions
    37 alpha electrons       37 beta electrons
       nuclear repulsion energy       523.5158511315 Hartrees.
 NAtoms=   19 NActive=   19 NUniq=   19 SFac= 1.00D+00 NAtFMM=   60 NAOKFM=F Big=F
 Integral buffers will be    131072 words long.
 Raffenetti 2 integral format.
 Two-electron integral symmetry is turned on.
 Nuclear repulsion after empirical dispersion term =      523.5037796608 Hartrees.
 Force PCM accuracy= 1.00D-12.
 ------------------------------------------------------------------------------
 Polarizable Continuum Model (PCM)
 =================================
 Model                : C-PCM.
 Atomic radii         : UFF (Universal Force Field).
 Polarization charges : Total charges.
 Charge compensation  : None.
 Solution method      : On-the-fly selection.
 Cavity type          : Scaled VdW (van der Waals Surface) (Alpha=1.100).
 Cavity algorithm     : GePol (No added spheres)
                        Default sphere list used, NSphG=   19.
                        Lebedev-Laikov grids with approx.  5.0 points / Ang**2.
                        Smoothing algorithm: York/Karplus (Gamma=1.0000).
                        Polarization charges: spherical gaussians, with
                                              point-specific exponents (IZeta= 3).
                        Self-potential: point-specific (ISelfS= 7).
                        Self-field    : sphere-specific E.n sum rule (ISelfD= 2).
 1st derivatives      : Analytical E(r).r(x)/FMM algorithm (CHGder, D1EAlg=3).
                        Cavity 1st derivative terms included.
 Solvent              : Chloroform, Eps=   4.711300 Eps(inf)=   2.090627
 ------------------------------------------------------------------------------
 Spheres list:
 ISph  on   Nord     Re0    Alpha      Xe            Ye            Ze
    1   B      1    2.0415  1.100     -1.036902     -0.625646     -0.030066
    2   F      2    1.6820  1.100     -1.795428     -0.048257     -1.028654
    3   F      3    1.6820  1.100     -1.494154     -0.343687      1.250050
    4   F      4    1.6820  1.100     -0.829372     -1.977292     -0.245034
    5   O      5    1.7500  1.100      0.424432      0.065317     -0.136007
    6   C      6    1.9255  1.100      1.553464     -0.778555      0.301416
    7   C      7    1.9255  1.100      2.860496     -0.333514     -0.313703
    8   C      8    1.9255  1.100      0.538904      1.444818      0.372203
    9   C      9    1.9255  1.100     -0.511078      2.366190     -0.200079
   10   H     10    1.4430  1.100      1.568742     -0.753282      1.398503
   11   H     11    1.4430  1.100      1.285337     -1.777900     -0.038380
   12   H     12    1.4430  1.100      3.602080     -1.115896     -0.106538
   13   H     13    1.4430  1.100      2.763493     -0.237577     -1.402088
   14   H     14    1.4430  1.100      3.243269      0.602165      0.107437
   15   H     15    1.4430  1.100      0.482812      1.383673      1.466038
   16   H     16    1.4430  1.100      1.534351      1.775643      0.069943
   17   H     17    1.4430  1.100     -0.261900      3.378933      0.143413
   18   H     18    1.4430  1.100     -0.491574      2.358070     -1.295378
   19   H     19    1.4430  1.100     -1.517682      2.121360      0.149160
 ------------------------------------------------------------------------------
 One-electron integrals computed using PRISM.
 NBasis=   297 RedAO= T EigKep=  3.11D-05  NBF=   297
 NBsUse=   297 1.00D-06 EigRej= -1.00D+00 NBFU=   297
 Initial guess from the checkpoint file:  "/inspire/hdd/project/materialscienceresearch/lipenghui-253107030018/g16/00-B-DFT-Shift/04-output/BF3OEt2_CDCl3/BF3OEt2_CDCl3.chk"
 B after Tr=     0.000000   -0.000000   -0.000000
         Rot=    0.999989    0.003379    0.001973   -0.002440 Ang=   0.53 deg.
 ExpMin= 2.38D-02 ExpMax= 1.47D+04 ExpMxC= 5.03D+02 IAcc=3 IRadAn=         5 AccDes= 0.00D+00
 Harris functional with IExCor= 4639 and IRadAn=       5 diagonalized for initial guess.
 HarFok:  IExCor= 4639 AccDes= 0.00D+00 IRadAn=         5 IDoV= 1 UseB2=F ITyADJ=14
 ICtDFT=  3500011 ScaDFX=  1.000000  1.000000  1.000000  1.000000
 FoFCou: FMM=F IPFlag=           0 FMFlag=      100000 FMFlg1=           0
         NFxFlg=           0 DoJE=T BraDBF=F KetDBF=T FulRan=T
         wScrn=  0.000000 ICntrl=       500 IOpCl=  0 I1Cent=   200000004 NGrid=           0
         NMat0=    1 NMatS0=      1 NMatT0=    0 NMatD0=    1 NMtDS0=    0 NMtDT0=    0
 Petite list used in FoFCou.
 Requested convergence on RMS density matrix=1.00D-08 within 128 cycles.
 Requested convergence on MAX density matrix=1.00D-06.
 Requested convergence on             energy=1.00D-06.
 No special actions if energy rises.
 Inv3:  Mode=1 IEnd=     6804108.
 Iteration    1 A*A^-1 deviation from unit magnitude is 3.55D-15 for   1501.
 Iteration    1 A*A^-1 deviation from orthogonality  is 2.58D-15 for   1484    679.
 Iteration    1 A^-1*A deviation from unit magnitude is 3.55D-15 for   1501.
 Iteration    1 A^-1*A deviation from orthogonality  is 2.33D-15 for   1496   1042.
 Error on total polarization charges =  0.00891
 SCF Done:  E(RwB97XD) =  -558.147935189     A.U. after   10 cycles
            NFock= 10  Conv=0.78D-08     -V/T= 2.0061
 D1PCM: C-PCM CHGder 1st derivatives, ID1Alg=3 FixD1E=F DoIter=F DoCFld=F I1PDM=0.
 Calling FoFJK, ICntrl=      2127 FMM=F ISym2X=0 I1Cent= 0 IOpClX= 0 NMat=1 NMatS=1 NMatT=0.
 ***** Axes restored to original set *****
 -------------------------------------------------------------------
 Center     Atomic                   Forces (Hartrees/Bohr)
 Number     Number              X              Y              Z
 -------------------------------------------------------------------
      1        5           0.000897440   -0.000541131    0.000370635
      2        9           0.000197883   -0.000306333    0.000100149
      3        9          -0.000032291   -0.000095687   -0.000476020
      4        9           0.000261799    0.000317100    0.000191549
      5        8           0.000645893   -0.000577351    0.000733400
      6        6           0.000208260    0.003476617   -0.000686831
      7        6          -0.000411725   -0.000964771   -0.000443979
      8        6          -0.002899187   -0.001244678   -0.000852637
      9        6           0.000657498    0.000037841    0.000027406
     10        1           0.000026223   -0.000381596   -0.000007841
     11        1          -0.000037522   -0.000395189    0.000557751
     12        1           0.000191122    0.000146926    0.000052695
     13        1           0.000147125    0.000175127    0.000150222
     14        1           0.000072540   -0.000105169   -0.000134287
     15        1           0.000298168    0.000077111   -0.000000286
     16        1           0.000159268    0.000269394    0.000519086
     17        1          -0.000187219    0.000058584   -0.000088263
     18        1          -0.000144575   -0.000006880    0.000034228
     19        1          -0.000050700    0.000060086   -0.000046977
 -------------------------------------------------------------------
 Cartesian Forces:  Max     0.003476617 RMS     0.000718785

 GradGradGradGradGradGradGradGradGradGradGradGradGradGradGradGradGradGrad
 Berny optimization.
 Using GEDIIS/GDIIS optimizer.
 FormGI is forming the generalized inverse of G from B-inverse, IUseBI=4.
 Internal  Forces:  Max     0.002182676 RMS     0.000428609
 Search for a local minimum.
 Step number   7 out of a maximum of   97
 All quantities printed in internal units (Hartrees-Bohrs-Radians)
 Mixed Optimization -- En-DIIS/RFO-DIIS
 Swapping is turned off.
 Update second derivatives using D2CorX and points    3    4    5    6    7
 DE= -1.66D-04 DEPred=-1.10D-04 R= 1.52D+00
 TightC=F SS=  1.41D+00  RLast= 1.33D-01 DXNew= 1.4270D+00 3.9792D-01
 Trust test= 1.52D+00 RLast= 1.33D-01 DXMaxT set to 8.49D-01
 ITU=  1  1  1  1  1  1  0
     Eigenvalues ---    0.00214   0.00281   0.00354   0.01390   0.01444
     Eigenvalues ---    0.02411   0.04378   0.04592   0.05175   0.05258
     Eigenvalues ---    0.05354   0.05372   0.05869   0.05936   0.09783
     Eigenvalues ---    0.10210   0.12817   0.12915   0.12974   0.13147
     Eigenvalues ---    0.14923   0.15937   0.16000   0.16008   0.16011
     Eigenvalues ---    0.16117   0.16603   0.19454   0.20705   0.24230
     Eigenvalues ---    0.24741   0.25250   0.27531   0.28382   0.28536
     Eigenvalues ---    0.28612   0.28937   0.31777   0.31832   0.31934
     Eigenvalues ---    0.31976   0.32095   0.32142   0.32157   0.32197
     Eigenvalues ---    0.32288   0.33096   0.37945   0.41633   0.42857
     Eigenvalues ---    0.48590
 En-DIIS/RFO-DIIS/Sim-DIIS IScMMF=       -3 using points:     7    6
 RFO step:  Lambda=-3.22990222D-04.
 DidBck=F Rises=F RFO-DIIS coefs:    3.00000   -2.00000
 Iteration  1 RMS(Cart)=  0.07453703 RMS(Int)=  0.00229853
 Iteration  2 RMS(Cart)=  0.00294071 RMS(Int)=  0.00002437
 Iteration  3 RMS(Cart)=  0.00000320 RMS(Int)=  0.00002427
 Iteration  4 RMS(Cart)=  0.00000000 RMS(Int)=  0.00002427
 Variable       Old X    -DE/DX   Delta X   Delta X   Delta X     New X
                                 (Linear)    (Quad)   (Total)
    R1        2.60886  -0.00028   0.00263  -0.00477  -0.00215   2.60672
    R2        2.62344  -0.00047  -0.00032  -0.00416  -0.00447   2.61897
    R3        2.61591  -0.00045   0.00015  -0.00440  -0.00425   2.61166
    R4        3.06121  -0.00145   0.03848  -0.00183   0.03664   3.09785
    R5        2.78898  -0.00202  -0.01567  -0.00124  -0.01690   2.77208
    R6        2.78656  -0.00218  -0.01722   0.00021  -0.01701   2.76956
    R7        2.85641   0.00051   0.00302   0.00101   0.00403   2.86044
    R8        2.07394   0.00003   0.00153  -0.00044   0.00109   2.07504
    R9        2.05802  -0.00009   0.00304  -0.00173   0.00132   2.05933
   R10        2.07439  -0.00018   0.00137  -0.00106   0.00031   2.07470
   R11        2.07284  -0.00009   0.00111  -0.00104   0.00007   2.07291
   R12        2.06955  -0.00002   0.00269  -0.00133   0.00136   2.07091
   R13        2.85273   0.00020   0.00413  -0.00071   0.00342   2.85615
   R14        2.07299  -0.00006   0.00164  -0.00079   0.00085   2.07384
   R15        2.06294  -0.00015   0.00454  -0.00249   0.00205   2.06498
   R16        2.07502  -0.00018   0.00072  -0.00077  -0.00005   2.07498
   R17        2.07020  -0.00005   0.00213  -0.00120   0.00093   2.07113
   R18        2.06591   0.00006   0.00307  -0.00167   0.00140   2.06732
    A1        1.98348   0.00010   0.00668   0.00044   0.00705   1.99053
    A2        1.95888   0.00012   0.00603  -0.00135   0.00462   1.96350
    A3        1.84414  -0.00055  -0.01092   0.00066  -0.01031   1.83383
    A4        1.97239  -0.00009   0.00687  -0.00147   0.00536   1.97775
    A5        1.84502   0.00026  -0.00763   0.00251  -0.00516   1.83986
    A6        1.84532   0.00014  -0.00437  -0.00039  -0.00480   1.84052
    A7        2.01179   0.00035   0.00958  -0.00034   0.00924   2.02102
    A8        2.03368  -0.00081  -0.00560   0.00034  -0.00526   2.02841
    A9        1.95344   0.00036  -0.00347   0.00188  -0.00157   1.95187
   A10        1.95253   0.00043  -0.00907   0.00687  -0.00218   1.95035
   A11        1.86895   0.00004   0.00800   0.00048   0.00846   1.87742
   A12        1.81714   0.00014   0.01213  -0.00144   0.01067   1.82781
   A13        1.96924  -0.00008  -0.00271   0.00096  -0.00176   1.96748
   A14        1.93488  -0.00038  -0.00264  -0.00404  -0.00668   1.92820
   A15        1.91395  -0.00012  -0.00429  -0.00297  -0.00737   1.90658
   A16        1.87288   0.00017   0.00724  -0.00024   0.00699   1.87987
   A17        1.93165  -0.00007  -0.00040  -0.00149  -0.00190   1.92974
   A18        1.97936   0.00020  -0.00275   0.00240  -0.00036   1.97900
   A19        1.88529   0.00005   0.00195   0.00086   0.00280   1.88809
   A20        1.87575  -0.00019  -0.00207  -0.00078  -0.00285   1.87291
   A21        1.91532  -0.00017  -0.00350  -0.00075  -0.00426   1.91105
   A22        1.96745  -0.00023  -0.01027   0.00890  -0.00136   1.96610
   A23        1.86246   0.00019   0.00946  -0.00079   0.00866   1.87112
   A24        1.83265   0.00040   0.00967  -0.00072   0.00894   1.84159
   A25        1.95677   0.00004  -0.00215  -0.00057  -0.00273   1.95404
   A26        1.92230  -0.00019  -0.00059  -0.00452  -0.00511   1.91719
   A27        1.91729  -0.00018  -0.00525  -0.00233  -0.00767   1.90962
   A28        1.86137   0.00019   0.00923  -0.00104   0.00819   1.86955
   A29        1.94133  -0.00007   0.00101  -0.00180  -0.00081   1.94053
   A30        1.96344   0.00002  -0.00268   0.00109  -0.00160   1.96184
   A31        1.89184   0.00000  -0.00120   0.00096  -0.00026   1.89158
   A32        1.89185  -0.00008  -0.00440   0.00097  -0.00343   1.88842
   A33        1.91148  -0.00006  -0.00181  -0.00010  -0.00192   1.90956
    D1       -2.62846   0.00008   0.02747   0.00747   0.03493  -2.59353
    D2        1.31275   0.00002   0.02834   0.00447   0.03282   1.34557
    D3        1.54692   0.00011   0.02901   0.00540   0.03439   1.58131
    D4       -0.79505   0.00005   0.02988   0.00241   0.03228  -0.76277
    D5       -0.54873   0.00002   0.02701   0.00606   0.03307  -0.51565
    D6       -2.89069  -0.00004   0.02788   0.00306   0.03096  -2.85974
    D7        2.74236  -0.00023  -0.08434  -0.03378  -0.11813   2.62423
    D8       -1.37475  -0.00003  -0.08802  -0.02781  -0.11586  -1.49062
    D9        0.65188  -0.00008  -0.08386  -0.03164  -0.11547   0.53642
   D10       -1.16302  -0.00070  -0.08649  -0.03155  -0.11804  -1.28106
   D11        1.00306  -0.00050  -0.09017  -0.02558  -0.11578   0.88728
   D12        3.02970  -0.00056  -0.08601  -0.02941  -0.11538   2.91431
   D13       -0.89719  -0.00013  -0.00986  -0.01924  -0.02910  -0.92630
   D14        1.25825  -0.00010  -0.01245  -0.01485  -0.02732   1.23093
   D15       -2.99011  -0.00003  -0.00969  -0.01819  -0.02784  -3.01795
   D16        3.01846  -0.00021  -0.01480  -0.02119  -0.03600   2.98246
   D17       -1.10928  -0.00017  -0.01739  -0.01680  -0.03422  -1.14350
   D18        0.92554  -0.00010  -0.01463  -0.02014  -0.03474   0.89080
   D19       -2.94796   0.00002  -0.04402   0.01683  -0.02719  -2.97515
   D20       -0.89476   0.00014  -0.03764   0.01690  -0.02074  -0.91550
   D21        1.26650   0.00002  -0.04463   0.01654  -0.02808   1.23842
   D22        1.22642  -0.00029  -0.04585   0.01049  -0.03535   1.19107
   D23       -3.00357  -0.00016  -0.03947   0.01056  -0.02890  -3.03247
   D24       -0.84231  -0.00029  -0.04646   0.01020  -0.03624  -0.87855
   D25       -0.92803   0.00022  -0.03621   0.01673  -0.01949  -0.94752
   D26        1.12517   0.00034  -0.02984   0.01680  -0.01305   1.11213
   D27       -2.99676   0.00022  -0.03683   0.01644  -0.02039  -3.01715
   D28       -3.02387  -0.00005  -0.01454   0.01472   0.00018  -3.02369
   D29       -0.96433   0.00003  -0.00992   0.01427   0.00435  -0.95998
   D30        1.18747  -0.00008  -0.01352   0.01358   0.00007   1.18755
   D31        1.15715  -0.00015  -0.01790   0.00978  -0.00812   1.14903
   D32       -3.06650  -0.00007  -0.01329   0.00932  -0.00396  -3.07045
   D33       -0.91469  -0.00019  -0.01688   0.00864  -0.00824  -0.92292
   D34       -0.98345   0.00018  -0.00923   0.01642   0.00717  -0.97629
   D35        1.07608   0.00026  -0.00462   0.01596   0.01133   1.08742
   D36       -3.05530   0.00015  -0.00821   0.01528   0.00705  -3.04824
         Item               Value     Threshold  Converged?
 Maximum Force            0.002183     0.000450     NO 
 RMS     Force            0.000429     0.000300     NO 
 Maximum Displacement     0.298509     0.001800     NO 
 RMS     Displacement     0.074650     0.001200     NO 
 Predicted change in Energy=-1.768035D-04
 GradGradGradGradGradGradGradGradGradGradGradGradGradGradGradGradGradGrad

                          Input orientation:                          
 ---------------------------------------------------------------------
 Center     Atomic      Atomic             Coordinates (Angstroms)
 Number     Number       Type             X           Y           Z
 ---------------------------------------------------------------------
      1          5           0       -1.808018    0.727654   -0.136540
      2          9           0       -1.673554    1.742851   -1.060703
      3          9           0       -1.987149    1.168814    1.164999
      4          9           0       -2.734343   -0.221678   -0.524739
      5          8           0       -0.362560   -0.045647   -0.139502
      6          6           0       -0.407321   -1.483657    0.146812
      7          6           0        0.717808   -2.227563   -0.540145
      8          6           0        0.728962    0.619222    0.577767
      9          6           0        0.932066    2.049184    0.132434
     10          1           0       -0.392021   -1.604966    1.238046
     11          1           0       -1.372479   -1.812724   -0.237563
     12          1           0        0.525446   -3.302522   -0.426982
     13          1           0        0.736245   -1.994141   -1.611800
     14          1           0        1.702853   -2.024981   -0.104718
     15          1           0        0.502008    0.551436    1.649329
     16          1           0        1.623699    0.031610    0.358124
     17          1           0        1.837861    2.417661    0.631867
     18          1           0        1.086426    2.108453   -0.951016
     19          1           0        0.097610    2.696976    0.416746
 ---------------------------------------------------------------------
                    Distance matrix (angstroms):
                    1          2          3          4          5
     1  B    0.000000
     2  F    1.379414   0.000000
     3  F    1.385898   2.319830   0.000000
     4  F    1.382030   2.296063   2.312354   0.000000
     5  O    1.639314   2.401258   2.411623   2.409304   0.000000
     6  C    2.632894   3.670394   3.250871   2.731044   1.466919
     7  C    3.908452   4.664094   4.664728   3.992637   2.467482
     8  C    2.637851   3.117564   2.832693   3.730564   1.465587
     9  C    3.053989   2.882130   3.219171   4.362482   2.477564
    10  H    3.055429   4.258456   3.200566   3.241506   2.080861
    11  H    2.579422   3.662010   3.351801   2.113899   2.037674
    12  H    4.666018   5.540125   5.370324   4.486354   3.387984
    13  H    4.007222   4.480619   5.013160   4.045776   2.677997
    14  H    4.461415   5.148843   5.042680   4.808017   2.860928
    15  H    2.925166   3.673801   2.609911   3.974700   2.074585
    16  H    3.536361   3.976593   3.870724   4.453777   2.049104
    17  H    4.091332   3.956033   4.058885   5.404525   3.391865
    18  H    3.308743   2.786250   3.848026   4.495498   2.719975
    19  H    2.795670   2.496043   2.690981   4.174313   2.836044
                    6          7          8          9         10
     6  C    0.000000
     7  C    1.513678   0.000000
     8  C    2.428778   3.058437   0.000000
     9  C    3.778244   4.334609   1.511411   0.000000
    10  H    1.098062   2.186621   2.576739   4.040841   0.000000
    11  H    1.089752   2.152428   3.315898   4.512445   1.783783
    12  H    2.123103   1.097882   4.053519   5.396206   2.548678
    13  H    2.158948   1.096937   3.409388   4.407854   3.089670
    14  H    2.192974   1.095878   2.899321   4.153213   2.523475
    15  H    2.688129   3.544461   1.097428   2.174666   2.370339
    16  H    2.542780   2.594492   1.092742   2.144736   2.741491
    17  H    4.527295   4.919983   2.113520   1.098031   4.639111
    18  H    4.042247   4.371010   2.163970   1.095994   4.557113
    19  H    4.219657   5.054836   2.177520   1.093977   4.406923
                   11         12         13         14         15
    11  H    0.000000
    12  H    2.420227   0.000000
    13  H    2.523521   1.777665   0.000000
    14  H    3.085509   1.766989   1.790693   0.000000
    15  H    3.558555   4.377740   4.143645   3.340155   0.000000
    16  H    3.568403   3.597081   2.961730   2.109516   1.787630
    17  H    5.381296   5.963563   5.070661   4.505314   2.510483
    18  H    4.683040   5.465159   4.170197   4.263975   3.086688
    19  H    4.788181   6.073623   5.150673   5.014540   2.507218
                   16         17         18         19
    16  H    0.000000
    17  H    2.411232   0.000000
    18  H    2.513122   1.779265   0.000000
    19  H    3.071898   1.775603   1.787426   0.000000
 Stoichiometry    C4H10BF3O
 Framework group  C1[X(C4H10BF3O)]
 Deg. of freedom    51
 Full point group                 C1      NOp   1
 Largest Abelian subgroup         C1      NOp   1
 Largest concise Abelian subgroup C1      NOp   1
                         Standard orientation:                         
 ---------------------------------------------------------------------
 Center     Atomic      Atomic             Coordinates (Angstroms)
 Number     Number       Type             X           Y           Z
 ---------------------------------------------------------------------
      1          5           0       -1.029965   -0.648788   -0.034370
      2          9           0       -1.749932   -0.113275   -1.082061
      3          9           0       -1.539512   -0.340388    1.217016
      4          9           0       -0.772767   -1.996109   -0.203432
      5          8           0        0.433278    0.087163   -0.102540
      6          6           0        1.572959   -0.714365    0.356300
      7          6           0        2.852154   -0.329385   -0.355508
      8          6           0        0.491976    1.459997    0.407191
      9          6           0       -0.544481    2.360342   -0.224868
     10          1           0        1.642409   -0.598386    1.446009
     11          1           0        1.300653   -1.743047    0.121306
     12          1           0        3.616309   -1.073304   -0.094747
     13          1           0        2.709760   -0.351743   -1.442934
     14          1           0        3.237488    0.652192   -0.057221
     15          1           0        0.379097    1.406583    1.497490
     16          1           0        1.494463    1.819844    0.163027
     17          1           0       -0.342581    3.381220    0.125443
     18          1           0       -0.465954    2.348215   -1.317978
     19          1           0       -1.563790    2.093480    0.069378
 ---------------------------------------------------------------------
 Rotational constants (GHZ):           1.8174651           1.3729979           0.9801534
 Standard basis: Aug-CC-pVDZ (5D, 7F)
 There are   315 symmetry adapted cartesian basis functions of A   symmetry.
 There are   297 symmetry adapted basis functions of A   symmetry.
   297 basis functions,   497 primitive gaussians,   315 cartesian basis functions
    37 alpha electrons       37 beta electrons
       nuclear repulsion energy       523.1680067116 Hartrees.
 NAtoms=   19 NActive=   19 NUniq=   19 SFac= 1.00D+00 NAtFMM=   60 NAOKFM=F Big=F
 Integral buffers will be    131072 words long.
 Raffenetti 2 integral format.
 Two-electron integral symmetry is turned on.
 Nuclear repulsion after empirical dispersion term =      523.1559843823 Hartrees.
 Force PCM accuracy= 1.00D-12.
 ------------------------------------------------------------------------------
 Polarizable Continuum Model (PCM)
 =================================
 Model                : C-PCM.
 Atomic radii         : UFF (Universal Force Field).
 Polarization charges : Total charges.
 Charge compensation  : None.
 Solution method      : On-the-fly selection.
 Cavity type          : Scaled VdW (van der Waals Surface) (Alpha=1.100).
 Cavity algorithm     : GePol (No added spheres)
                        Default sphere list used, NSphG=   19.
                        Lebedev-Laikov grids with approx.  5.0 points / Ang**2.
                        Smoothing algorithm: York/Karplus (Gamma=1.0000).
                        Polarization charges: spherical gaussians, with
                                              point-specific exponents (IZeta= 3).
                        Self-potential: point-specific (ISelfS= 7).
                        Self-field    : sphere-specific E.n sum rule (ISelfD= 2).
 1st derivatives      : Analytical E(r).r(x)/FMM algorithm (CHGder, D1EAlg=3).
                        Cavity 1st derivative terms included.
 Solvent              : Chloroform, Eps=   4.711300 Eps(inf)=   2.090627
 ------------------------------------------------------------------------------
 Spheres list:
 ISph  on   Nord     Re0    Alpha      Xe            Ye            Ze
    1   B      1    2.0415  1.100     -1.029965     -0.648788     -0.034370
    2   F      2    1.6820  1.100     -1.749932     -0.113275     -1.082061
    3   F      3    1.6820  1.100     -1.539512     -0.340388      1.217016
    4   F      4    1.6820  1.100     -0.772767     -1.996109     -0.203432
    5   O      5    1.7500  1.100      0.433278      0.087163     -0.102540
    6   C      6    1.9255  1.100      1.572959     -0.714365      0.356300
    7   C      7    1.9255  1.100      2.852154     -0.329385     -0.355508
    8   C      8    1.9255  1.100      0.491976      1.459997      0.407191
    9   C      9    1.9255  1.100     -0.544481      2.360342     -0.224868
   10   H     10    1.4430  1.100      1.642409     -0.598386      1.446009
   11   H     11    1.4430  1.100      1.300653     -1.743047      0.121306
   12   H     12    1.4430  1.100      3.616309     -1.073304     -0.094747
   13   H     13    1.4430  1.100      2.709760     -0.351743     -1.442934
   14   H     14    1.4430  1.100      3.237488      0.652192     -0.057221
   15   H     15    1.4430  1.100      0.379097      1.406583      1.497490
   16   H     16    1.4430  1.100      1.494463      1.819844      0.163027
   17   H     17    1.4430  1.100     -0.342581      3.381220      0.125443
   18   H     18    1.4430  1.100     -0.465954      2.348215     -1.317978
   19   H     19    1.4430  1.100     -1.563790      2.093480      0.069378
 ------------------------------------------------------------------------------
 One-electron integrals computed using PRISM.
 NBasis=   297 RedAO= T EigKep=  2.93D-05  NBF=   297
 NBsUse=   297 1.00D-06 EigRej= -1.00D+00 NBFU=   297
 Initial guess from the checkpoint file:  "/inspire/hdd/project/materialscienceresearch/lipenghui-253107030018/g16/00-B-DFT-Shift/04-output/BF3OEt2_CDCl3/BF3OEt2_CDCl3.chk"
 B after Tr=    -0.000000   -0.000000    0.000000
         Rot=    0.999916    0.008148    0.005397   -0.008571 Ang=   1.49 deg.
 ExpMin= 2.38D-02 ExpMax= 1.47D+04 ExpMxC= 5.03D+02 IAcc=3 IRadAn=         5 AccDes= 0.00D+00
 Harris functional with IExCor= 4639 and IRadAn=       5 diagonalized for initial guess.
 HarFok:  IExCor= 4639 AccDes= 0.00D+00 IRadAn=         5 IDoV= 1 UseB2=F ITyADJ=14
 ICtDFT=  3500011 ScaDFX=  1.000000  1.000000  1.000000  1.000000
 FoFCou: FMM=F IPFlag=           0 FMFlag=      100000 FMFlg1=           0
         NFxFlg=           0 DoJE=T BraDBF=F KetDBF=T FulRan=T
         wScrn=  0.000000 ICntrl=       500 IOpCl=  0 I1Cent=   200000004 NGrid=           0
         NMat0=    1 NMatS0=      1 NMatT0=    0 NMatD0=    1 NMtDS0=    0 NMtDT0=    0
 Petite list used in FoFCou.
 Requested convergence on RMS density matrix=1.00D-08 within 128 cycles.
 Requested convergence on MAX density matrix=1.00D-06.
 Requested convergence on             energy=1.00D-06.
 No special actions if energy rises.
 Inv3:  Mode=1 IEnd=     6940323.
 Iteration    1 A*A^-1 deviation from unit magnitude is 4.22D-15 for   1512.
 Iteration    1 A*A^-1 deviation from orthogonality  is 2.96D-15 for   1506   1060.
 Iteration    1 A^-1*A deviation from unit magnitude is 3.77D-15 for   1512.
 Iteration    1 A^-1*A deviation from orthogonality  is 2.28D-15 for   1519    887.
 Error on total polarization charges =  0.00894
 SCF Done:  E(RwB97XD) =  -558.148147099     A.U. after   11 cycles
            NFock= 11  Conv=0.36D-08     -V/T= 2.0061
 D1PCM: C-PCM CHGder 1st derivatives, ID1Alg=3 FixD1E=F DoIter=F DoCFld=F I1PDM=0.
 Calling FoFJK, ICntrl=      2127 FMM=F ISym2X=0 I1Cent= 0 IOpClX= 0 NMat=1 NMatS=1 NMatT=0.
 ***** Axes restored to original set *****
 -------------------------------------------------------------------
 Center     Atomic                   Forces (Hartrees/Bohr)
 Number     Number              X              Y              Z
 -------------------------------------------------------------------
      1        5           0.002858013   -0.001357749   -0.000214047
      2        9           0.000014829   -0.000322227    0.000717879
      3        9          -0.000085217   -0.000091331   -0.000848077
      4        9          -0.000032205    0.000622386    0.000138760
      5        8          -0.003536099    0.001320126    0.000348769
      6        6           0.000048576   -0.001393190   -0.000782275
      7        6           0.000155177   -0.000090640   -0.000102823
      8        6           0.001280763    0.001090622    0.000518946
      9        6          -0.000086794    0.000254560   -0.000127596
     10        1           0.000224074    0.000281452   -0.000285875
     11        1           0.000332845    0.000115106    0.000646069
     12        1          -0.000181147    0.000339212    0.000031457
     13        1          -0.000028418    0.000021117    0.000226995
     14        1          -0.000071316    0.000321281   -0.000156521
     15        1          -0.000302475    0.000070231   -0.000343404
     16        1          -0.000371396   -0.000385912    0.000243723
     17        1          -0.000163153   -0.000463311   -0.000022628
     18        1          -0.000180324   -0.000107203    0.000205674
     19        1           0.000124267   -0.000224530   -0.000195024
 -------------------------------------------------------------------
 Cartesian Forces:  Max     0.003536099 RMS     0.000772934

 GradGradGradGradGradGradGradGradGradGradGradGradGradGradGradGradGradGrad
 Berny optimization.
 Using GEDIIS/GDIIS optimizer.
 FormGI is forming the generalized inverse of G from B-inverse, IUseBI=4.
 Internal  Forces:  Max     0.002974080 RMS     0.000484801
 Search for a local minimum.
 Step number   8 out of a maximum of   97
 All quantities printed in internal units (Hartrees-Bohrs-Radians)
 Mixed Optimization -- En-DIIS/RFO-DIIS
 Swapping is turned off.
 Update second derivatives using D2CorX and points    5    6    7    8
 DE= -2.12D-04 DEPred=-1.77D-04 R= 1.20D+00
 TightC=F SS=  1.41D+00  RLast= 3.22D-01 DXNew= 1.4270D+00 9.6648D-01
 Trust test= 1.20D+00 RLast= 3.22D-01 DXMaxT set to 9.66D-01
 ITU=  1  1  1  1  1  1  1  0
     Eigenvalues ---    0.00115   0.00281   0.00341   0.01442   0.01490
     Eigenvalues ---    0.02475   0.04440   0.04590   0.05157   0.05280
     Eigenvalues ---    0.05391   0.05512   0.05835   0.05895   0.09731
     Eigenvalues ---    0.10226   0.12803   0.12920   0.13060   0.13311
     Eigenvalues ---    0.15221   0.15999   0.16001   0.16008   0.16064
     Eigenvalues ---    0.16126   0.17022   0.20222   0.20918   0.24327
     Eigenvalues ---    0.24696   0.25218   0.28278   0.28436   0.28604
     Eigenvalues ---    0.28887   0.29515   0.31799   0.31865   0.31941
     Eigenvalues ---    0.32006   0.32093   0.32132   0.32156   0.32195
     Eigenvalues ---    0.32267   0.33799   0.38020   0.40246   0.47884
     Eigenvalues ---    0.50177
 En-DIIS/RFO-DIIS/Sim-DIIS IScMMF=       -3 using points:     8    7    6
 RFO step:  Lambda=-2.29384047D-04.
 DidBck=F Rises=F RFO-DIIS coefs:    1.13255    1.19693   -1.32948
 Iteration  1 RMS(Cart)=  0.04979115 RMS(Int)=  0.00113688
 Iteration  2 RMS(Cart)=  0.00139989 RMS(Int)=  0.00003494
 Iteration  3 RMS(Cart)=  0.00000092 RMS(Int)=  0.00003494
 Variable       Old X    -DE/DX   Delta X   Delta X   Delta X     New X
                                 (Linear)    (Quad)   (Total)
    R1        2.60672  -0.00072   0.00146  -0.00298  -0.00151   2.60520
    R2        2.61897  -0.00082  -0.00080  -0.00222  -0.00302   2.61594
    R3        2.61166  -0.00044  -0.00046  -0.00159  -0.00205   2.60961
    R4        3.09785  -0.00297   0.03043  -0.01140   0.01903   3.11689
    R5        2.77208   0.00030  -0.01265   0.00381  -0.00885   2.76323
    R6        2.76956   0.00046  -0.01370   0.00480  -0.00890   2.76066
    R7        2.86044  -0.00037   0.00254  -0.00118   0.00136   2.86180
    R8        2.07504  -0.00031   0.00116  -0.00077   0.00040   2.07543
    R9        2.05933  -0.00056   0.00220  -0.00179   0.00040   2.05973
   R10        2.07470  -0.00030   0.00095  -0.00071   0.00025   2.07495
   R11        2.07291  -0.00022   0.00074  -0.00069   0.00005   2.07296
   R12        2.07091  -0.00006   0.00197  -0.00087   0.00110   2.07201
   R13        2.85615  -0.00051   0.00320  -0.00196   0.00123   2.85739
   R14        2.07384  -0.00028   0.00120  -0.00075   0.00045   2.07429
   R15        2.06498  -0.00015   0.00329  -0.00153   0.00175   2.06674
   R16        2.07498  -0.00030   0.00047  -0.00052  -0.00004   2.07494
   R17        2.07113  -0.00024   0.00154  -0.00096   0.00058   2.07171
   R18        2.06732  -0.00027   0.00223  -0.00146   0.00076   2.06808
    A1        1.99053  -0.00040   0.00538  -0.00284   0.00243   1.99296
    A2        1.96350  -0.00016   0.00462  -0.00213   0.00241   1.96591
    A3        1.83383  -0.00018  -0.00862   0.00246  -0.00624   1.82759
    A4        1.97775  -0.00037   0.00527  -0.00240   0.00283   1.98058
    A5        1.83986   0.00035  -0.00575   0.00289  -0.00293   1.83693
    A6        1.84052   0.00096  -0.00354   0.00351  -0.00008   1.84044
    A7        2.02102   0.00139   0.00759   0.00301   0.01060   2.03162
    A8        2.02841  -0.00054  -0.00442   0.00135  -0.00307   2.02534
    A9        1.95187  -0.00068  -0.00251  -0.00006  -0.00257   1.94930
   A10        1.95035  -0.00086  -0.00632   0.00139  -0.00489   1.94546
   A11        1.87742  -0.00001   0.00644  -0.00352   0.00289   1.88030
   A12        1.82781   0.00047   0.00947   0.00036   0.00981   1.83762
   A13        1.96748   0.00033  -0.00204   0.00052  -0.00151   1.96597
   A14        1.92820   0.00026  -0.00264   0.00084  -0.00177   1.92643
   A15        1.90658  -0.00018  -0.00383   0.00029  -0.00369   1.90289
   A16        1.87987  -0.00025   0.00574  -0.00165   0.00409   1.88396
   A17        1.92974  -0.00005  -0.00052  -0.00091  -0.00145   1.92829
   A18        1.97900  -0.00011  -0.00188   0.00042  -0.00147   1.97753
   A19        1.88809   0.00014   0.00167   0.00011   0.00175   1.88984
   A20        1.87291   0.00030  -0.00175   0.00182   0.00007   1.87298
   A21        1.91105   0.00000  -0.00289   0.00025  -0.00266   1.90839
   A22        1.96610  -0.00017  -0.00701   0.00478  -0.00220   1.96389
   A23        1.87112  -0.00013   0.00744  -0.00311   0.00431   1.87543
   A24        1.84159  -0.00017   0.00761  -0.00332   0.00427   1.84586
   A25        1.95404   0.00019  -0.00179   0.00067  -0.00110   1.95294
   A26        1.91719   0.00031  -0.00107  -0.00001  -0.00106   1.91613
   A27        1.90962  -0.00006  -0.00451   0.00066  -0.00395   1.90567
   A28        1.86955  -0.00050   0.00722  -0.00341   0.00380   1.87336
   A29        1.94053  -0.00010   0.00056  -0.00123  -0.00068   1.93984
   A30        1.96184   0.00006  -0.00199   0.00093  -0.00106   1.96078
   A31        1.89158   0.00027  -0.00083   0.00118   0.00032   1.89190
   A32        1.88842   0.00029  -0.00338   0.00222  -0.00115   1.88727
   A33        1.90956  -0.00000  -0.00146   0.00036  -0.00110   1.90846
    D1       -2.59353  -0.00035   0.02289  -0.00636   0.01654  -2.57699
    D2        1.34557  -0.00024   0.02319  -0.01131   0.01190   1.35746
    D3        1.58131   0.00002   0.02384  -0.00568   0.01813   1.59944
    D4       -0.76277   0.00013   0.02414  -0.01063   0.01349  -0.74929
    D5       -0.51565  -0.00018   0.02234  -0.00601   0.01634  -0.49932
    D6       -2.85974  -0.00007   0.02263  -0.01096   0.01170  -2.84804
    D7        2.62423  -0.00009  -0.07172  -0.00160  -0.07334   2.55089
    D8       -1.49062  -0.00025  -0.07387  -0.00249  -0.07643  -1.56705
    D9        0.53642  -0.00024  -0.07105  -0.00357  -0.07456   0.46185
   D10       -1.28106  -0.00019  -0.07314   0.00369  -0.06945  -1.35051
   D11        0.88728  -0.00035  -0.07529   0.00279  -0.07254   0.81473
   D12        2.91431  -0.00034  -0.07247   0.00172  -0.07068   2.84363
   D13       -0.92630   0.00016  -0.01041  -0.01134  -0.02175  -0.94805
   D14        1.23093   0.00020  -0.01189  -0.00958  -0.02153   1.20940
   D15       -3.01795  -0.00001  -0.01013  -0.01188  -0.02196  -3.03991
   D16        2.98246  -0.00065  -0.01461  -0.01742  -0.03203   2.95043
   D17       -1.14350  -0.00060  -0.01610  -0.01566  -0.03181  -1.17531
   D18        0.89080  -0.00082  -0.01433  -0.01796  -0.03223   0.85857
   D19       -2.97515  -0.00021  -0.03286  -0.00073  -0.03360  -3.00874
   D20       -0.91550  -0.00022  -0.02777  -0.00209  -0.02986  -0.94536
   D21        1.23842  -0.00034  -0.03339  -0.00215  -0.03553   1.20289
   D22        1.19107   0.00020  -0.03516   0.00246  -0.03269   1.15837
   D23       -3.03247   0.00019  -0.03007   0.00110  -0.02896  -3.06143
   D24       -0.87855   0.00006  -0.03569   0.00104  -0.03463  -0.91318
   D25       -0.94752   0.00001  -0.02665   0.00110  -0.02557  -0.97309
   D26        1.11213   0.00000  -0.02156  -0.00026  -0.02183   1.09029
   D27       -3.01715  -0.00012  -0.02718  -0.00032  -0.02750  -3.04465
   D28       -3.02369   0.00003  -0.00964   0.01003   0.00038  -3.02331
   D29       -0.95998   0.00000  -0.00602   0.00871   0.00269  -0.95729
   D30        1.18755  -0.00003  -0.00898   0.00895  -0.00002   1.18752
   D31        1.14903   0.00018  -0.01298   0.01014  -0.00284   1.14618
   D32       -3.07045   0.00015  -0.00936   0.00882  -0.00053  -3.07098
   D33       -0.92292   0.00012  -0.01232   0.00906  -0.00325  -0.92617
   D34       -0.97629  -0.00008  -0.00519   0.00885   0.00365  -0.97264
   D35        1.08742  -0.00011  -0.00157   0.00753   0.00596   1.09338
   D36       -3.04824  -0.00015  -0.00452   0.00777   0.00324  -3.04500
         Item               Value     Threshold  Converged?
 Maximum Force            0.002974     0.000450     NO 
 RMS     Force            0.000485     0.000300     NO 
 Maximum Displacement     0.207203     0.001800     NO 
 RMS     Displacement     0.049888     0.001200     NO 
 Predicted change in Energy=-9.259869D-05
 GradGradGradGradGradGradGradGradGradGradGradGradGradGradGradGradGradGrad

                          Input orientation:                          
 ---------------------------------------------------------------------
 Center     Atomic      Atomic             Coordinates (Angstroms)
 Number     Number       Type             X           Y           Z
 ---------------------------------------------------------------------
      1          5           0       -1.809616    0.726375   -0.154450
      2          9           0       -1.653386    1.722381   -1.094736
      3          9           0       -2.005776    1.189587    1.135216
      4          9           0       -2.727407   -0.230316   -0.540992
      5          8           0       -0.354412   -0.049303   -0.120127
      6          6           0       -0.388207   -1.482647    0.167142
      7          6           0        0.702327   -2.223160   -0.578366
      8          6           0        0.713894    0.623530    0.614848
      9          6           0        0.939456    2.041362    0.140286
     10          1           0       -0.315766   -1.607413    1.255897
     11          1           0       -1.370447   -1.819139   -0.164521
     12          1           0        0.540966   -3.299413   -0.432503
     13          1           0        0.646078   -2.009314   -1.652814
     14          1           0        1.710459   -1.992065   -0.214365
     15          1           0        0.455009    0.584980    1.680854
     16          1           0        1.614452    0.027546    0.441890
     17          1           0        1.830366    2.421596    0.657320
     18          1           0        1.126612    2.071924   -0.939488
     19          1           0        0.098937    2.699465    0.381325
 ---------------------------------------------------------------------
                    Distance matrix (angstroms):
                    1          2          3          4          5
     1  B    0.000000
     2  F    1.378613   0.000000
     3  F    1.384298   2.319641   0.000000
     4  F    1.380947   2.296341   2.312261   0.000000
     5  O    1.649385   2.403344   2.416141   2.416816   0.000000
     6  C    2.646432   3.669498   3.270249   2.746205   1.462238
     7  C    3.897347   4.624210   4.681562   3.966850   2.460149
     8  C    2.640170   3.119963   2.826271   3.729286   1.460880
     9  C    3.061610   2.889612   3.223321   4.366984   2.472405
    10  H    3.109218   4.289783   3.270154   3.307752   2.079097
    11  H    2.583140   3.672563   3.338471   2.123070   2.041230
    12  H    4.670066   5.520158   5.393956   4.484794   3.385631
    13  H    3.969826   4.418657   5.003839   3.972578   2.681744
    14  H    4.447969   5.087987   5.074907   4.785927   2.836705
    15  H    2.918366   3.666458   2.592052   3.965991   2.073887
    16  H    3.545169   3.989041   3.864853   4.459180   2.048949
    17  H    4.096610   3.961708   4.057366   5.407577   3.388660
    18  H    3.323886   2.806185   3.859375   4.506947   2.713741
    19  H    2.796911   2.490800   2.697759   4.174028   2.830672
                    6          7          8          9         10
     6  C    0.000000
     7  C    1.514400   0.000000
     8  C    2.418894   3.086671   0.000000
     9  C    3.765906   4.331147   1.512064   0.000000
    10  H    1.098272   2.186361   2.539340   4.016681   0.000000
    11  H    1.089965   2.151951   3.304319   4.509105   1.781788
    12  H    2.126870   1.098014   4.064029   5.386164   2.539202
    13  H    2.158556   1.096965   3.475451   4.439510   3.089865
    14  H    2.193047   1.096463   2.919259   4.121742   2.532827
    15  H    2.697669   3.612602   1.097668   2.174646   2.362471
    16  H    2.523254   2.634116   1.093671   2.145237   2.657336
    17  H    4.517240   4.936917   2.116921   1.098009   4.604030
    18  H    4.019239   4.331070   2.164288   1.096300   4.520806
    19  H    4.215833   5.051467   2.177662   1.094382   4.414301
                   11         12         13         14         15
    11  H    0.000000
    12  H    2.432391   0.000000
    13  H    2.513475   1.778922   0.000000
    14  H    3.086158   1.767613   1.789508   0.000000
    15  H    3.538006   4.422915   4.228500   3.436448   0.000000
    16  H    3.561966   3.603552   3.078040   2.125727   1.786077
    17  H    5.376287   5.964915   5.135389   4.500513   2.512446
    18  H    4.687883   5.426903   4.170881   4.169255   3.086786
    19  H    4.782763   6.069946   5.158457   4.996229   2.507311
                   16         17         18         19
    16  H    0.000000
    17  H    2.413401   0.000000
    18  H    2.515089   1.779701   0.000000
    19  H    3.072394   1.775171   1.787308   0.000000
 Stoichiometry    C4H10BF3O
 Framework group  C1[X(C4H10BF3O)]
 Deg. of freedom    51
 Full point group                 C1      NOp   1
 Largest Abelian subgroup         C1      NOp   1
 Largest concise Abelian subgroup C1      NOp   1
                         Standard orientation:                         
 ---------------------------------------------------------------------
 Center     Atomic      Atomic             Coordinates (Angstroms)
 Number     Number       Type             X           Y           Z
 ---------------------------------------------------------------------
      1          5           0       -1.029109   -0.656862   -0.037025
      2          9           0       -1.722024   -0.133465   -1.107772
      3          9           0       -1.566960   -0.336876    1.197725
      4          9           0       -0.756859   -2.002423   -0.186558
      5          8           0        0.438020    0.095613   -0.079281
      6          6           0        1.582633   -0.684487    0.389171
      7          6           0        2.840109   -0.341212   -0.381753
      8          6           0        0.472006    1.463951    0.431274
      9          6           0       -0.543443    2.358982   -0.242608
     10          1           0        1.687386   -0.509753    1.468382
     11          1           0        1.307953   -1.726077    0.222848
     12          1           0        3.624226   -1.049192   -0.082490
     13          1           0        2.671136   -0.450545   -1.460098
     14          1           0        3.214796    0.667948   -0.173341
     15          1           0        0.317303    1.414251    1.516849
     16          1           0        1.481878    1.831635    0.228583
     17          1           0       -0.363498    3.382577    0.111648
     18          1           0       -0.422759    2.343679   -1.332137
     19          1           0       -1.572274    2.086361    0.012063
 ---------------------------------------------------------------------
 Rotational constants (GHZ):           1.8087573           1.3742481           0.9826304
 Standard basis: Aug-CC-pVDZ (5D, 7F)
 There are   315 symmetry adapted cartesian basis functions of A   symmetry.
 There are   297 symmetry adapted basis functions of A   symmetry.
   297 basis functions,   497 primitive gaussians,   315 cartesian basis functions
    37 alpha electrons       37 beta electrons
       nuclear repulsion energy       523.0273212812 Hartrees.
 NAtoms=   19 NActive=   19 NUniq=   19 SFac= 1.00D+00 NAtFMM=   60 NAOKFM=F Big=F
 Integral buffers will be    131072 words long.
 Raffenetti 2 integral format.
 Two-electron integral symmetry is turned on.
 Nuclear repulsion after empirical dispersion term =      523.0153136953 Hartrees.
 Force PCM accuracy= 1.00D-12.
 ------------------------------------------------------------------------------
 Polarizable Continuum Model (PCM)
 =================================
 Model                : C-PCM.
 Atomic radii         : UFF (Universal Force Field).
 Polarization charges : Total charges.
 Charge compensation  : None.
 Solution method      : On-the-fly selection.
 Cavity type          : Scaled VdW (van der Waals Surface) (Alpha=1.100).
 Cavity algorithm     : GePol (No added spheres)
                        Default sphere list used, NSphG=   19.
                        Lebedev-Laikov grids with approx.  5.0 points / Ang**2.
                        Smoothing algorithm: York/Karplus (Gamma=1.0000).
                        Polarization charges: spherical gaussians, with
                                              point-specific exponents (IZeta= 3).
                        Self-potential: point-specific (ISelfS= 7).
                        Self-field    : sphere-specific E.n sum rule (ISelfD= 2).
 1st derivatives      : Analytical E(r).r(x)/FMM algorithm (CHGder, D1EAlg=3).
                        Cavity 1st derivative terms included.
 Solvent              : Chloroform, Eps=   4.711300 Eps(inf)=   2.090627
 ------------------------------------------------------------------------------
 Spheres list:
 ISph  on   Nord     Re0    Alpha      Xe            Ye            Ze
    1   B      1    2.0415  1.100     -1.029109     -0.656862     -0.037025
    2   F      2    1.6820  1.100     -1.722024     -0.133465     -1.107772
    3   F      3    1.6820  1.100     -1.566960     -0.336876      1.197725
    4   F      4    1.6820  1.100     -0.756859     -2.002423     -0.186558
    5   O      5    1.7500  1.100      0.438020      0.095613     -0.079281
    6   C      6    1.9255  1.100      1.582633     -0.684487      0.389171
    7   C      7    1.9255  1.100      2.840109     -0.341212     -0.381753
    8   C      8    1.9255  1.100      0.472006      1.463951      0.431274
    9   C      9    1.9255  1.100     -0.543443      2.358982     -0.242608
   10   H     10    1.4430  1.100      1.687386     -0.509753      1.468382
   11   H     11    1.4430  1.100      1.307953     -1.726077      0.222848
   12   H     12    1.4430  1.100      3.624226     -1.049192     -0.082490
   13   H     13    1.4430  1.100      2.671136     -0.450545     -1.460098
   14   H     14    1.4430  1.100      3.214796      0.667948     -0.173341
   15   H     15    1.4430  1.100      0.317303      1.414251      1.516849
   16   H     16    1.4430  1.100      1.481878      1.831635      0.228583
   17   H     17    1.4430  1.100     -0.363498      3.382577      0.111648
   18   H     18    1.4430  1.100     -0.422759      2.343679     -1.332137
   19   H     19    1.4430  1.100     -1.572274      2.086361      0.012063
 ------------------------------------------------------------------------------
 One-electron integrals computed using PRISM.
 NBasis=   297 RedAO= T EigKep=  2.77D-05  NBF=   297
 NBsUse=   297 1.00D-06 EigRej= -1.00D+00 NBFU=   297
 Initial guess from the checkpoint file:  "/inspire/hdd/project/materialscienceresearch/lipenghui-253107030018/g16/00-B-DFT-Shift/04-output/BF3OEt2_CDCl3/BF3OEt2_CDCl3.chk"
 B after Tr=    -0.000000    0.000000   -0.000000
         Rot=    0.999985    0.004086    0.003138   -0.001913 Ang=   0.63 deg.
 ExpMin= 2.38D-02 ExpMax= 1.47D+04 ExpMxC= 5.03D+02 IAcc=3 IRadAn=         5 AccDes= 0.00D+00
 Harris functional with IExCor= 4639 and IRadAn=       5 diagonalized for initial guess.
 HarFok:  IExCor= 4639 AccDes= 0.00D+00 IRadAn=         5 IDoV= 1 UseB2=F ITyADJ=14
 ICtDFT=  3500011 ScaDFX=  1.000000  1.000000  1.000000  1.000000
 FoFCou: FMM=F IPFlag=           0 FMFlag=      100000 FMFlg1=           0
         NFxFlg=           0 DoJE=T BraDBF=F KetDBF=T FulRan=T
         wScrn=  0.000000 ICntrl=       500 IOpCl=  0 I1Cent=   200000004 NGrid=           0
         NMat0=    1 NMatS0=      1 NMatT0=    0 NMatD0=    1 NMtDS0=    0 NMtDT0=    0
 Petite list used in FoFCou.
 Requested convergence on RMS density matrix=1.00D-08 within 128 cycles.
 Requested convergence on MAX density matrix=1.00D-06.
 Requested convergence on             energy=1.00D-06.
 No special actions if energy rises.
 Inv3:  Mode=1 IEnd=     6912972.
 Iteration    1 A*A^-1 deviation from unit magnitude is 5.88D-15 for   1517.
 Iteration    1 A*A^-1 deviation from orthogonality  is 2.21D-15 for   1507   1261.
 Iteration    1 A^-1*A deviation from unit magnitude is 5.88D-15 for   1517.
 Iteration    1 A^-1*A deviation from orthogonality  is 1.51D-15 for   1506   1056.
 Error on total polarization charges =  0.00899
 SCF Done:  E(RwB97XD) =  -558.148250739     A.U. after   11 cycles
            NFock= 11  Conv=0.23D-08     -V/T= 2.0061
 D1PCM: C-PCM CHGder 1st derivatives, ID1Alg=3 FixD1E=F DoIter=F DoCFld=F I1PDM=0.
 Calling FoFJK, ICntrl=      2127 FMM=F ISym2X=0 I1Cent= 0 IOpClX= 0 NMat=1 NMatS=1 NMatT=0.
 ***** Axes restored to original set *****
 -------------------------------------------------------------------
 Center     Atomic                   Forces (Hartrees/Bohr)
 Number     Number              X              Y              Z
 -------------------------------------------------------------------
      1        5           0.003658271   -0.001839747   -0.000511790
      2        9          -0.000146250   -0.000227601    0.000756103
      3        9          -0.000123837   -0.000079784   -0.000716566
      4        9           0.000368793    0.000398326    0.000218499
      5        8          -0.005775671    0.002213438   -0.000102700
      6        6           0.000283688   -0.003691270   -0.000517488
      7        6           0.000320243    0.000036335   -0.000095148
      8        6           0.003359918    0.002420458    0.001308147
      9        6          -0.000264847    0.000424869   -0.000171550
     10        1           0.000226229    0.000517755   -0.000426033
     11        1           0.000148366    0.000590528    0.000463213
     12        1          -0.000289108    0.000420490    0.000032956
     13        1          -0.000044116   -0.000057408    0.000282542
     14        1          -0.000295313    0.000425974   -0.000172773
     15        1          -0.000559145    0.000047966   -0.000562152
     16        1          -0.000790369   -0.000466859    0.000144367
     17        1          -0.000142776   -0.000636731    0.000007735
     18        1          -0.000195925   -0.000138260    0.000326871
     19        1           0.000261847   -0.000358478   -0.000264233
 -------------------------------------------------------------------
 Cartesian Forces:  Max     0.005775671 RMS     0.001285060

 GradGradGradGradGradGradGradGradGradGradGradGradGradGradGradGradGradGrad
 Berny optimization.
 Using GEDIIS/GDIIS optimizer.
 FormGI is forming the generalized inverse of G from B-inverse, IUseBI=4.
 Internal  Forces:  Max     0.004132600 RMS     0.000637468
 Search for a local minimum.
 Step number   9 out of a maximum of   97
 All quantities printed in internal units (Hartrees-Bohrs-Radians)
 Mixed Optimization -- En-DIIS/RFO-DIIS
 Swapping is turned off.
 Update second derivatives using D2CorX and points    7    8    9
 DE= -1.04D-04 DEPred=-9.26D-05 R= 1.12D+00
 TightC=F SS=  1.41D+00  RLast= 2.17D-01 DXNew= 1.6254D+00 6.5070D-01
 Trust test= 1.12D+00 RLast= 2.17D-01 DXMaxT set to 9.66D-01
 ITU=  1  1  1  1  1  1  1  1  0
     Eigenvalues ---    0.00058   0.00281   0.00339   0.01450   0.01481
     Eigenvalues ---    0.02483   0.04445   0.04628   0.05176   0.05292
     Eigenvalues ---    0.05416   0.05674   0.05812   0.05888   0.09705
     Eigenvalues ---    0.10391   0.12801   0.12909   0.13100   0.13440
     Eigenvalues ---    0.15254   0.16000   0.16003   0.16007   0.16102
     Eigenvalues ---    0.16195   0.17856   0.20469   0.21096   0.24392
     Eigenvalues ---    0.25124   0.25870   0.28305   0.28466   0.28665
     Eigenvalues ---    0.28945   0.30931   0.31778   0.31939   0.31979
     Eigenvalues ---    0.32036   0.32095   0.32145   0.32157   0.32195
     Eigenvalues ---    0.32322   0.35208   0.38254   0.40634   0.48133
     Eigenvalues ---    0.65963
 En-DIIS/RFO-DIIS/Sim-DIIS IScMMF=       -3 using points:     9    8    7    6
 RFO step:  Lambda=-2.85557603D-04.
 DidBck=F Rises=F RFO-DIIS coefs:    2.78345   -2.00000    0.85030   -0.63374
 Iteration  1 RMS(Cart)=  0.11441335 RMS(Int)=  0.00602238
 Iteration  2 RMS(Cart)=  0.00757806 RMS(Int)=  0.00005169
 Iteration  3 RMS(Cart)=  0.00003146 RMS(Int)=  0.00004606
 Iteration  4 RMS(Cart)=  0.00000000 RMS(Int)=  0.00004606
 Variable       Old X    -DE/DX   Delta X   Delta X   Delta X     New X
                                 (Linear)    (Quad)   (Total)
    R1        2.60520  -0.00070  -0.00140  -0.00076  -0.00216   2.60304
    R2        2.61594  -0.00068  -0.00452  -0.00064  -0.00516   2.61079
    R3        2.60961  -0.00058  -0.00268  -0.00151  -0.00419   2.60542
    R4        3.11689  -0.00413   0.03820  -0.00475   0.03345   3.15034
    R5        2.76323   0.00163  -0.01708   0.00131  -0.01577   2.74746
    R6        2.76066   0.00222  -0.01764   0.00267  -0.01496   2.74570
    R7        2.86180  -0.00064   0.00252  -0.00049   0.00203   2.86383
    R8        2.07543  -0.00047   0.00095  -0.00050   0.00045   2.07588
    R9        2.05973  -0.00046   0.00139   0.00045   0.00184   2.06158
   R10        2.07495  -0.00037   0.00081  -0.00026   0.00055   2.07550
   R11        2.07296  -0.00029   0.00043  -0.00031   0.00013   2.07309
   R12        2.07201  -0.00024   0.00253  -0.00048   0.00205   2.07406
   R13        2.85739  -0.00069   0.00277  -0.00062   0.00215   2.85953
   R14        2.07429  -0.00041   0.00114  -0.00046   0.00069   2.07498
   R15        2.06674  -0.00042   0.00412  -0.00090   0.00322   2.06996
   R16        2.07494  -0.00033   0.00016  -0.00017  -0.00000   2.07493
   R17        2.07171  -0.00036   0.00150  -0.00042   0.00109   2.07280
   R18        2.06808  -0.00047   0.00203  -0.00067   0.00136   2.06944
    A1        1.99296  -0.00046   0.00493   0.00023   0.00503   1.99799
    A2        1.96591   0.00004   0.00521   0.00128   0.00640   1.97231
    A3        1.82759   0.00032  -0.01236   0.00137  -0.01107   1.81652
    A4        1.98058  -0.00020   0.00606   0.00022   0.00623   1.98682
    A5        1.83693   0.00045  -0.00652   0.00103  -0.00556   1.83137
    A6        1.84044  -0.00003  -0.00048  -0.00453  -0.00506   1.83538
    A7        2.03162   0.00064   0.01994   0.00006   0.02002   2.05164
    A8        2.02534  -0.00005  -0.00611   0.00194  -0.00429   2.02105
    A9        1.94930  -0.00034  -0.00534   0.00339  -0.00203   1.94726
   A10        1.94546  -0.00069  -0.01113   0.00083  -0.01026   1.93520
   A11        1.88030  -0.00017   0.00585  -0.00036   0.00541   1.88572
   A12        1.83762   0.00006   0.01902  -0.00187   0.01712   1.85474
   A13        1.96597   0.00039  -0.00317   0.00151  -0.00166   1.96431
   A14        1.92643   0.00048  -0.00255   0.00021  -0.00227   1.92416
   A15        1.90289  -0.00011  -0.00634  -0.00057  -0.00707   1.89582
   A16        1.88396  -0.00037   0.00807   0.00100   0.00907   1.89302
   A17        1.92829   0.00001  -0.00231  -0.00034  -0.00269   1.92560
   A18        1.97753  -0.00029  -0.00341  -0.00200  -0.00544   1.97209
   A19        1.88984   0.00014   0.00314   0.00065   0.00377   1.89361
   A20        1.87298   0.00046   0.00009   0.00173   0.00184   1.87482
   A21        1.90839   0.00007  -0.00493  -0.00084  -0.00583   1.90256
   A22        1.96389   0.00029  -0.00689   0.00267  -0.00420   1.95970
   A23        1.87543  -0.00044   0.00881  -0.00154   0.00725   1.88269
   A24        1.84586  -0.00051   0.00874  -0.00134   0.00738   1.85324
   A25        1.95294   0.00019  -0.00205   0.00057  -0.00147   1.95147
   A26        1.91613   0.00035  -0.00097  -0.00009  -0.00104   1.91509
   A27        1.90567   0.00006  -0.00705  -0.00045  -0.00758   1.89809
   A28        1.87336  -0.00075   0.00794  -0.00087   0.00706   1.88041
   A29        1.93984  -0.00012  -0.00073  -0.00107  -0.00182   1.93803
   A30        1.96078   0.00012  -0.00240   0.00041  -0.00199   1.95879
   A31        1.89190   0.00036   0.00025   0.00068   0.00091   1.89281
   A32        1.88727   0.00041  -0.00271   0.00125  -0.00145   1.88582
   A33        1.90846   0.00000  -0.00212  -0.00032  -0.00245   1.90601
    D1       -2.57699  -0.00015   0.03063   0.00770   0.03837  -2.53862
    D2        1.35746  -0.00029   0.02309  -0.00016   0.02293   1.38039
    D3        1.59944   0.00001   0.03408   0.00631   0.04038   1.63982
    D4       -0.74929  -0.00013   0.02653  -0.00155   0.02493  -0.72435
    D5       -0.49932   0.00003   0.03053   0.00773   0.03830  -0.46101
    D6       -2.84804  -0.00011   0.02299  -0.00013   0.02286  -2.82518
    D7        2.55089  -0.00028  -0.13194  -0.03741  -0.16940   2.38149
    D8       -1.56705  -0.00035  -0.13910  -0.03522  -0.17444  -1.74149
    D9        0.46185  -0.00052  -0.13455  -0.03696  -0.17146   0.29039
   D10       -1.35051  -0.00004  -0.12571  -0.03043  -0.15612  -1.50663
   D11        0.81473  -0.00012  -0.13288  -0.02825  -0.16116   0.65358
   D12        2.84363  -0.00029  -0.12832  -0.02999  -0.15817   2.68546
   D13       -0.94805  -0.00005  -0.03561  -0.02159  -0.05725  -1.00529
   D14        1.20940   0.00007  -0.03642  -0.02022  -0.05673   1.15267
   D15       -3.03991  -0.00032  -0.03620  -0.02212  -0.05832  -3.09823
   D16        2.95043  -0.00061  -0.05402  -0.02765  -0.08162   2.86881
   D17       -1.17531  -0.00049  -0.05483  -0.02629  -0.08111  -1.25641
   D18        0.85857  -0.00087  -0.05460  -0.02819  -0.08270   0.77587
   D19       -3.00874  -0.00013  -0.06798  -0.01474  -0.08272  -3.09146
   D20       -0.94536  -0.00018  -0.06070  -0.01355  -0.07425  -1.01961
   D21        1.20289  -0.00029  -0.07143  -0.01635  -0.08775   1.11513
   D22        1.15837   0.00031  -0.06518  -0.01595  -0.08114   1.07723
   D23       -3.06143   0.00026  -0.05790  -0.01476  -0.07267  -3.13410
   D24       -0.91318   0.00015  -0.06863  -0.01756  -0.08618  -0.99937
   D25       -0.97309  -0.00017  -0.05285  -0.01641  -0.06927  -1.04236
   D26        1.09029  -0.00022  -0.04557  -0.01522  -0.06080   1.02949
   D27       -3.04465  -0.00033  -0.05630  -0.01803  -0.07431  -3.11896
   D28       -3.02331   0.00007  -0.00397   0.00399   0.00001  -3.02330
   D29       -0.95729  -0.00001   0.00071   0.00367   0.00439  -0.95290
   D30        1.18752  -0.00001  -0.00434   0.00277  -0.00157   1.18595
   D31        1.14618   0.00029  -0.00899   0.00366  -0.00533   1.14085
   D32       -3.07098   0.00020  -0.00430   0.00335  -0.00095  -3.07194
   D33       -0.92617   0.00020  -0.00936   0.00244  -0.00691  -0.93308
   D34       -0.97264  -0.00015   0.00203   0.00392   0.00593  -0.96671
   D35        1.09338  -0.00024   0.00671   0.00360   0.01031   1.10369
   D36       -3.04500  -0.00024   0.00166   0.00270   0.00435  -3.04064
         Item               Value     Threshold  Converged?
 Maximum Force            0.004133     0.000450     NO 
 RMS     Force            0.000637     0.000300     NO 
 Maximum Displacement     0.481085     0.001800     NO 
 RMS     Displacement     0.115408     0.001200     NO 
 Predicted change in Energy=-1.719459D-04
 GradGradGradGradGradGradGradGradGradGradGradGradGradGradGradGradGradGrad

                          Input orientation:                          
 ---------------------------------------------------------------------
 Center     Atomic      Atomic             Coordinates (Angstroms)
 Number     Number       Type             X           Y           Z
 ---------------------------------------------------------------------
      1          5           0       -1.810327    0.714767   -0.194074
      2          9           0       -1.610763    1.672932   -1.163360
      3          9           0       -2.051442    1.219871    1.069044
      4          9           0       -2.698701   -0.266097   -0.580851
      5          8           0       -0.336206   -0.054594   -0.074799
      6          6           0       -0.342845   -1.480191    0.210558
      7          6           0        0.658170   -2.210351   -0.662077
      8          6           0        0.678957    0.640207    0.698372
      9          6           0        0.963740    2.024813    0.158427
     10          1           0       -0.143312   -1.613552    1.282532
     11          1           0       -1.354280   -1.829642   -0.001645
     12          1           0        0.583842   -3.285731   -0.451570
     13          1           0        0.430004   -2.046738   -1.722572
     14          1           0        1.695620   -1.908683   -0.468945
     15          1           0        0.344130    0.670833    1.743661
     16          1           0        1.583691    0.025843    0.636266
     17          1           0        1.818453    2.431625    0.714836
     18          1           0        1.228750    1.985901   -0.905243
     19          1           0        0.116058    2.704767    0.293857
 ---------------------------------------------------------------------
                    Distance matrix (angstroms):
                    1          2          3          4          5
     1  B    0.000000
     2  F    1.377469   0.000000
     3  F    1.381569   2.320148   0.000000
     4  F    1.378731   2.298425   2.312833   0.000000
     5  O    1.667086   2.407033   2.423772   2.425326   0.000000
     6  C    2.671156   3.665713   3.308570   2.765937   1.453891
     7  C    3.856011   4.525399   4.701617   3.880116   2.445602
     8  C    2.645478   3.126562   2.815757   3.723758   1.452962
     9  C    3.088029   2.915306   3.250920   4.382724   2.463369
    10  H    3.221860   4.351641   3.422693   3.437710   2.076031
    11  H    2.592108   3.699106   3.306348   2.141873   2.047589
    12  H    4.669297   5.469121   5.436676   4.462061   3.380635
    13  H    3.870569   4.279416   4.961999   3.776639   2.696456
    14  H    4.387449   4.923652   5.117981   4.692618   2.778725
    15  H    2.898005   3.643705   2.548592   3.942083   2.072655
    16  H    3.561382   4.019465   3.850610   4.461557   2.048924
    17  H    4.116037   3.982808   4.070614   5.418596   3.383395
    18  H    3.370093   2.868346   3.904391   4.538898   2.702285
    19  H    2.812318   2.483964   2.739322   4.184975   2.820376
                    6          7          8          9         10
     6  C    0.000000
     7  C    1.515473   0.000000
     8  C    2.403774   3.158629   0.000000
     9  C    3.740980   4.324721   1.513200   0.000000
    10  H    1.098511   2.186331   2.469170   3.965712   0.000000
    11  H    1.090939   2.151991   3.274788   4.500629   1.778272
    12  H    2.134746   1.098307   4.091993   5.358945   2.516355
    13  H    2.157606   1.097032   3.625276   4.516698   3.089820
    14  H    2.191043   1.097546   2.982125   4.049892   2.556646
    15  H    2.729331   3.766620   1.098033   2.174890   2.380895
    16  H    2.482118   2.746425   1.095374   2.146753   2.467350
    17  H    4.497534   4.978965   2.123181   1.098008   4.531474
    18  H    3.965944   4.241842   2.164427   1.096876   4.430008
    19  H    4.210867   5.036475   2.177819   1.095100   4.437638
                   11         12         13         14         15
    11  H    0.000000
    12  H    2.465552   0.000000
    13  H    2.488451   1.781632   0.000000
    14  H    3.086504   1.769919   1.786736   0.000000
    15  H    3.490425   4.531104   4.405377   3.657329   0.000000
    16  H    3.532907   3.626239   3.345252   2.230787   1.782933
    17  H    5.360781   5.964305   5.284363   4.500522   2.516445
    18  H    4.695412   5.330275   4.191444   3.946657   3.086851
    19  H    4.775990   6.054796   5.171204   4.935666   2.508154
                   16         17         18         19
    16  H    0.000000
    17  H    2.418485   0.000000
    18  H    2.518742   1.780751   0.000000
    19  H    3.073731   1.774818   1.786810   0.000000
 Stoichiometry    C4H10BF3O
 Framework group  C1[X(C4H10BF3O)]
 Deg. of freedom    51
 Full point group                 C1      NOp   1
 Largest Abelian subgroup         C1      NOp   1
 Largest concise Abelian subgroup C1      NOp   1
                         Standard orientation:                         
 ---------------------------------------------------------------------
 Center     Atomic      Atomic             Coordinates (Angstroms)
 Number     Number       Type             X           Y           Z
 ---------------------------------------------------------------------
      1          5           0       -1.016267   -0.684792   -0.041889
      2          9           0       -1.659246   -0.196092   -1.157761
      3          9           0       -1.618434   -0.353740    1.156665
      4          9           0       -0.687825   -2.019419   -0.150499
      5          8           0        0.441836    0.123234   -0.027588
      6          6           0        1.606252   -0.599191    0.458247
      7          6           0        2.805350   -0.354563   -0.435610
      8          6           0        0.406051    1.483374    0.482156
      9          6           0       -0.558627    2.359266   -0.287249
     10          1           0        1.786676   -0.293936    1.497955
     11          1           0        1.336610   -1.656225    0.447308
     12          1           0        3.645038   -0.956988   -0.063742
     13          1           0        2.583405   -0.664432   -1.464298
     14          1           0        3.129843    0.693907   -0.440217
     15          1           0        0.152322    1.436640    1.549449
     16          1           0        1.423828    1.874944    0.378974
     17          1           0       -0.437690    3.388699    0.075051
     18          1           0       -0.336466    2.340886   -1.361234
     19          1           0       -1.601534    2.064541   -0.130005
 ---------------------------------------------------------------------
 Rotational constants (GHZ):           1.7811349           1.3840089           0.9899356
 Standard basis: Aug-CC-pVDZ (5D, 7F)
 There are   315 symmetry adapted cartesian basis functions of A   symmetry.
 There are   297 symmetry adapted basis functions of A   symmetry.
   297 basis functions,   497 primitive gaussians,   315 cartesian basis functions
    37 alpha electrons       37 beta electrons
       nuclear repulsion energy       522.7779759820 Hartrees.
 NAtoms=   19 NActive=   19 NUniq=   19 SFac= 1.00D+00 NAtFMM=   60 NAOKFM=F Big=F
 Integral buffers will be    131072 words long.
 Raffenetti 2 integral format.
 Two-electron integral symmetry is turned on.
 Nuclear repulsion after empirical dispersion term =      522.7659624014 Hartrees.
 Force PCM accuracy= 1.00D-12.
 ------------------------------------------------------------------------------
 Polarizable Continuum Model (PCM)
 =================================
 Model                : C-PCM.
 Atomic radii         : UFF (Universal Force Field).
 Polarization charges : Total charges.
 Charge compensation  : None.
 Solution method      : On-the-fly selection.
 Cavity type          : Scaled VdW (van der Waals Surface) (Alpha=1.100).
 Cavity algorithm     : GePol (No added spheres)
                        Default sphere list used, NSphG=   19.
                        Lebedev-Laikov grids with approx.  5.0 points / Ang**2.
                        Smoothing algorithm: York/Karplus (Gamma=1.0000).
                        Polarization charges: spherical gaussians, with
                                              point-specific exponents (IZeta= 3).
                        Self-potential: point-specific (ISelfS= 7).
                        Self-field    : sphere-specific E.n sum rule (ISelfD= 2).
 1st derivatives      : Analytical E(r).r(x)/FMM algorithm (CHGder, D1EAlg=3).
                        Cavity 1st derivative terms included.
 Solvent              : Chloroform, Eps=   4.711300 Eps(inf)=   2.090627
 ------------------------------------------------------------------------------
 Spheres list:
 ISph  on   Nord     Re0    Alpha      Xe            Ye            Ze
    1   B      1    2.0415  1.100     -1.016267     -0.684792     -0.041889
    2   F      2    1.6820  1.100     -1.659246     -0.196092     -1.157761
    3   F      3    1.6820  1.100     -1.618434     -0.353740      1.156665
    4   F      4    1.6820  1.100     -0.687825     -2.019419     -0.150499
    5   O      5    1.7500  1.100      0.441836      0.123234     -0.027588
    6   C      6    1.9255  1.100      1.606252     -0.599191      0.458247
    7   C      7    1.9255  1.100      2.805350     -0.354563     -0.435610
    8   C      8    1.9255  1.100      0.406051      1.483374      0.482156
    9   C      9    1.9255  1.100     -0.558627      2.359266     -0.287249
   10   H     10    1.4430  1.100      1.786676     -0.293936      1.497955
   11   H     11    1.4430  1.100      1.336610     -1.656225      0.447308
   12   H     12    1.4430  1.100      3.645038     -0.956988     -0.063742
   13   H     13    1.4430  1.100      2.583405     -0.664432     -1.464298
   14   H     14    1.4430  1.100      3.129843      0.693907     -0.440217
   15   H     15    1.4430  1.100      0.152322      1.436640      1.549449
   16   H     16    1.4430  1.100      1.423828      1.874944      0.378974
   17   H     17    1.4430  1.100     -0.437690      3.388699      0.075051
   18   H     18    1.4430  1.100     -0.336466      2.340886     -1.361234
   19   H     19    1.4430  1.100     -1.601534      2.064541     -0.130005
 ------------------------------------------------------------------------------
 One-electron integrals computed using PRISM.
 NBasis=   297 RedAO= T EigKep=  2.61D-05  NBF=   297
 NBsUse=   297 1.00D-06 EigRej= -1.00D+00 NBFU=   297
 Initial guess from the checkpoint file:  "/inspire/hdd/project/materialscienceresearch/lipenghui-253107030018/g16/00-B-DFT-Shift/04-output/BF3OEt2_CDCl3/BF3OEt2_CDCl3.chk"
 B after Tr=     0.000000   -0.000000   -0.000000
         Rot=    0.999892    0.009344    0.006846   -0.009089 Ang=   1.69 deg.
 ExpMin= 2.38D-02 ExpMax= 1.47D+04 ExpMxC= 5.03D+02 IAcc=3 IRadAn=         5 AccDes= 0.00D+00
 Harris functional with IExCor= 4639 and IRadAn=       5 diagonalized for initial guess.
 HarFok:  IExCor= 4639 AccDes= 0.00D+00 IRadAn=         5 IDoV= 1 UseB2=F ITyADJ=14
 ICtDFT=  3500011 ScaDFX=  1.000000  1.000000  1.000000  1.000000
 FoFCou: FMM=F IPFlag=           0 FMFlag=      100000 FMFlg1=           0
         NFxFlg=           0 DoJE=T BraDBF=F KetDBF=T FulRan=T
         wScrn=  0.000000 ICntrl=       500 IOpCl=  0 I1Cent=   200000004 NGrid=           0
         NMat0=    1 NMatS0=      1 NMatT0=    0 NMatD0=    1 NMtDS0=    0 NMtDT0=    0
 Petite list used in FoFCou.
 Requested convergence on RMS density matrix=1.00D-08 within 128 cycles.
 Requested convergence on MAX density matrix=1.00D-06.
 Requested convergence on             energy=1.00D-06.
 No special actions if energy rises.
 Inv3:  Mode=1 IEnd=     6940323.
 Iteration    1 A*A^-1 deviation from unit magnitude is 4.22D-15 for   1517.
 Iteration    1 A*A^-1 deviation from orthogonality  is 2.50D-15 for   1506    952.
 Iteration    1 A^-1*A deviation from unit magnitude is 4.22D-15 for   1517.
 Iteration    1 A^-1*A deviation from orthogonality  is 1.23D-15 for   1155     86.
 Error on total polarization charges =  0.00902
 SCF Done:  E(RwB97XD) =  -558.148298859     A.U. after   11 cycles
            NFock= 11  Conv=0.46D-08     -V/T= 2.0061
 D1PCM: C-PCM CHGder 1st derivatives, ID1Alg=3 FixD1E=F DoIter=F DoCFld=F I1PDM=0.
 Calling FoFJK, ICntrl=      2127 FMM=F ISym2X=0 I1Cent= 0 IOpClX= 0 NMat=1 NMatS=1 NMatT=0.
 ***** Axes restored to original set *****
 -------------------------------------------------------------------
 Center     Atomic                   Forces (Hartrees/Bohr)
 Number     Number              X              Y              Z
 -------------------------------------------------------------------
      1        5           0.005458111   -0.002780460   -0.000885468
      2        9          -0.000643367   -0.000210908    0.001026280
      3        9          -0.000197098    0.000098718   -0.000789848
      4        9           0.000499539    0.000301659    0.000233284
      5        8          -0.009003329    0.004182102   -0.000879653
      6        6          -0.000013746   -0.008234061   -0.000394785
      7        6           0.000641624    0.000375652    0.000004276
      8        6           0.006912190    0.004791826    0.002981730
      9        6          -0.000753361    0.000607163   -0.000400324
     10        1           0.000107950    0.001012658   -0.000845403
     11        1           0.000122555    0.001246623    0.000452982
     12        1          -0.000538372    0.000572050   -0.000023785
     13        1           0.000071162   -0.000161739    0.000353328
     14        1          -0.000588588    0.000795866    0.000185431
     15        1          -0.000885808   -0.000163144   -0.000907421
     16        1          -0.001249561   -0.000712884   -0.000525164
     17        1          -0.000162590   -0.000903809    0.000083440
     18        1          -0.000229668   -0.000176029    0.000543779
     19        1           0.000452357   -0.000641281   -0.000212678
 -------------------------------------------------------------------
 Cartesian Forces:  Max     0.009003329 RMS     0.002296563

 GradGradGradGradGradGradGradGradGradGradGradGradGradGradGradGradGradGrad
 Berny optimization.
 Using GEDIIS/GDIIS optimizer.
 FormGI is forming the generalized inverse of G from B-inverse, IUseBI=4.
 Internal  Forces:  Max     0.005690683 RMS     0.001098307
 Search for a local minimum.
 Step number  10 out of a maximum of   97
 All quantities printed in internal units (Hartrees-Bohrs-Radians)
 Mixed Optimization -- RFO/linear search
 Update second derivatives using D2CorX and points    9   10
 DE= -4.81D-05 DEPred=-1.72D-04 R= 2.80D-01
 Trust test= 2.80D-01 RLast= 5.07D-01 DXMaxT set to 9.66D-01
 ITU=  0  1  1  1  1  1  1  1  1  0
 Use linear search instead of GDIIS.
     Eigenvalues ---    0.00153   0.00281   0.00368   0.01447   0.01475
     Eigenvalues ---    0.02446   0.04456   0.04675   0.05216   0.05319
     Eigenvalues ---    0.05453   0.05730   0.05760   0.05853   0.09624
     Eigenvalues ---    0.10339   0.12760   0.12898   0.13185   0.13556
     Eigenvalues ---    0.15073   0.16001   0.16003   0.16007   0.16090
     Eigenvalues ---    0.16277   0.17644   0.20528   0.21141   0.24327
     Eigenvalues ---    0.25131   0.25704   0.28292   0.28470   0.28660
     Eigenvalues ---    0.28959   0.30633   0.31766   0.31943   0.31977
     Eigenvalues ---    0.32036   0.32095   0.32145   0.32157   0.32196
     Eigenvalues ---    0.32320   0.35000   0.38214   0.40536   0.47916
     Eigenvalues ---    0.65948
 RFO step:  Lambda=-1.80596305D-04 EMin= 1.52803694D-03
 Quartic linear search produced a step of -0.37463.
 Iteration  1 RMS(Cart)=  0.02776352 RMS(Int)=  0.00033339
 Iteration  2 RMS(Cart)=  0.00043569 RMS(Int)=  0.00001014
 Iteration  3 RMS(Cart)=  0.00000006 RMS(Int)=  0.00001014
 Variable       Old X    -DE/DX   Delta X   Delta X   Delta X     New X
                                 (Linear)    (Quad)   (Total)
    R1        2.60304  -0.00096   0.00081   0.00006   0.00087   2.60391
    R2        2.61079  -0.00065   0.00193  -0.00012   0.00181   2.61260
    R3        2.60542  -0.00060   0.00157   0.00069   0.00226   2.60768
    R4        3.15034  -0.00569  -0.01253  -0.01035  -0.02288   3.12745
    R5        2.74746   0.00426   0.00591   0.00112   0.00703   2.75449
    R6        2.74570   0.00502   0.00561   0.00134   0.00694   2.75264
    R7        2.86383  -0.00133  -0.00076  -0.00129  -0.00205   2.86178
    R8        2.07588  -0.00093  -0.00017  -0.00090  -0.00107   2.07482
    R9        2.06158  -0.00060  -0.00069  -0.00017  -0.00086   2.06072
   R10        2.07550  -0.00053  -0.00021  -0.00028  -0.00049   2.07501
   R11        2.07309  -0.00038  -0.00005  -0.00006  -0.00011   2.07298
   R12        2.07406  -0.00031  -0.00077   0.00054  -0.00022   2.07384
   R13        2.85953  -0.00115  -0.00080  -0.00103  -0.00183   2.85770
   R14        2.07498  -0.00060  -0.00026  -0.00026  -0.00052   2.07446
   R15        2.06996  -0.00060  -0.00121   0.00055  -0.00066   2.06930
   R16        2.07493  -0.00042   0.00000  -0.00027  -0.00027   2.07466
   R17        2.07280  -0.00058  -0.00041  -0.00015  -0.00056   2.07224
   R18        2.06944  -0.00077  -0.00051  -0.00019  -0.00070   2.06874
    A1        1.99799  -0.00090  -0.00188  -0.00292  -0.00480   1.99318
    A2        1.97231  -0.00011  -0.00240  -0.00061  -0.00300   1.96931
    A3        1.81652   0.00129   0.00415   0.00123   0.00537   1.82189
    A4        1.98682  -0.00019  -0.00234  -0.00072  -0.00306   1.98376
    A5        1.83137   0.00076   0.00208   0.00209   0.00417   1.83554
    A6        1.83538  -0.00056   0.00190   0.00194   0.00384   1.83922
    A7        2.05164  -0.00040  -0.00750   0.00515  -0.00236   2.04928
    A8        2.02105   0.00091   0.00161   0.00116   0.00281   2.02386
    A9        1.94726  -0.00006   0.00076   0.00115   0.00194   1.94920
   A10        1.93520  -0.00116   0.00384  -0.00465  -0.00082   1.93439
   A11        1.88572  -0.00022  -0.00203  -0.00231  -0.00433   1.88139
   A12        1.85474  -0.00023  -0.00641   0.00519  -0.00122   1.85352
   A13        1.96431   0.00043   0.00062  -0.00132  -0.00071   1.96360
   A14        1.92416   0.00127   0.00085   0.00454   0.00537   1.92953
   A15        1.89582  -0.00015   0.00265  -0.00114   0.00152   1.89734
   A16        1.89302  -0.00046  -0.00340   0.00192  -0.00148   1.89154
   A17        1.92560   0.00032   0.00101   0.00053   0.00155   1.92715
   A18        1.97209  -0.00110   0.00204  -0.00532  -0.00327   1.96882
   A19        1.89361   0.00007  -0.00141   0.00115  -0.00026   1.89335
   A20        1.87482   0.00091  -0.00069   0.00333   0.00263   1.87745
   A21        1.90256   0.00030   0.00219  -0.00128   0.00093   1.90349
   A22        1.95970   0.00061   0.00157  -0.00163  -0.00006   1.95964
   A23        1.88269  -0.00073  -0.00272  -0.00049  -0.00321   1.87948
   A24        1.85324  -0.00108  -0.00277  -0.00162  -0.00439   1.84886
   A25        1.95147   0.00024   0.00055   0.00120   0.00175   1.95322
   A26        1.91509   0.00059   0.00039   0.00200   0.00239   1.91748
   A27        1.89809   0.00030   0.00284   0.00041   0.00325   1.90134
   A28        1.88041  -0.00109  -0.00264  -0.00071  -0.00336   1.87706
   A29        1.93803  -0.00014   0.00068  -0.00074  -0.00006   1.93797
   A30        1.95879   0.00005   0.00075  -0.00056   0.00019   1.95898
   A31        1.89281   0.00048  -0.00034   0.00110   0.00076   1.89357
   A32        1.88582   0.00061   0.00054   0.00141   0.00196   1.88777
   A33        1.90601   0.00010   0.00092  -0.00037   0.00055   1.90656
    D1       -2.53862   0.00011  -0.01438   0.00418  -0.01021  -2.54883
    D2        1.38039  -0.00042  -0.00859  -0.00544  -0.01402   1.36637
    D3        1.63982   0.00019  -0.01513   0.00597  -0.00916   1.63066
    D4       -0.72435  -0.00034  -0.00934  -0.00364  -0.01297  -0.73732
    D5       -0.46101   0.00032  -0.01435   0.00490  -0.00946  -0.47048
    D6       -2.82518  -0.00021  -0.00856  -0.00472  -0.01328  -2.83846
    D7        2.38149  -0.00010   0.06346  -0.02015   0.04333   2.42482
    D8       -1.74149  -0.00046   0.06535  -0.02637   0.03901  -1.70248
    D9        0.29039  -0.00085   0.06424  -0.02618   0.03805   0.32844
   D10       -1.50663   0.00083   0.05849  -0.01101   0.04746  -1.45916
   D11        0.65358   0.00047   0.06037  -0.01723   0.04314   0.69672
   D12        2.68546   0.00007   0.05926  -0.01705   0.04218   2.72764
   D13       -1.00529  -0.00003   0.02145  -0.01028   0.01119  -0.99411
   D14        1.15267   0.00015   0.02125  -0.01018   0.01110   1.16377
   D15       -3.09823  -0.00040   0.02185  -0.01076   0.01111  -3.08713
   D16        2.86881  -0.00035   0.03058  -0.02107   0.00949   2.87830
   D17       -1.25641  -0.00016   0.03038  -0.02097   0.00940  -1.24702
   D18        0.77587  -0.00072   0.03098  -0.02155   0.00941   0.78528
   D19       -3.09146  -0.00020   0.03099  -0.02504   0.00595  -3.08551
   D20       -1.01961  -0.00020   0.02782  -0.02217   0.00564  -1.01396
   D21        1.11513  -0.00035   0.03288  -0.02720   0.00567   1.12080
   D22        1.07723   0.00061   0.03040  -0.01781   0.01259   1.08982
   D23       -3.13410   0.00060   0.02723  -0.01495   0.01228  -3.12182
   D24       -0.99937   0.00046   0.03229  -0.01997   0.01231  -0.98706
   D25       -1.04236  -0.00041   0.02595  -0.01867   0.00728  -1.03508
   D26        1.02949  -0.00041   0.02278  -0.01581   0.00697   1.03646
   D27       -3.11896  -0.00055   0.02784  -0.02083   0.00700  -3.11196
   D28       -3.02330   0.00018  -0.00000   0.00328   0.00328  -3.02002
   D29       -0.95290   0.00003  -0.00164   0.00376   0.00212  -0.95078
   D30        1.18595   0.00010   0.00059   0.00233   0.00292   1.18887
   D31        1.14085   0.00052   0.00200   0.00422   0.00622   1.14708
   D32       -3.07194   0.00036   0.00036   0.00470   0.00506  -3.06687
   D33       -0.93308   0.00043   0.00259   0.00327   0.00586  -0.92722
   D34       -0.96671  -0.00041  -0.00222   0.00156  -0.00067  -0.96738
   D35        1.10369  -0.00057  -0.00386   0.00203  -0.00183   1.10186
   D36       -3.04064  -0.00050  -0.00163   0.00060  -0.00103  -3.04167
         Item               Value     Threshold  Converged?
 Maximum Force            0.005691     0.000450     NO 
 RMS     Force            0.001098     0.000300     NO 
 Maximum Displacement     0.115494     0.001800     NO 
 RMS     Displacement     0.027790     0.001200     NO 
 Predicted change in Energy=-1.376782D-04
 GradGradGradGradGradGradGradGradGradGradGradGradGradGradGradGradGradGrad

                          Input orientation:                          
 ---------------------------------------------------------------------
 Center     Atomic      Atomic             Coordinates (Angstroms)
 Number     Number       Type             X           Y           Z
 ---------------------------------------------------------------------
      1          5           0       -1.808239    0.716221   -0.181667
      2          9           0       -1.617853    1.688898   -1.138925
      3          9           0       -2.045502    1.209289    1.087968
      4          9           0       -2.706592   -0.254294   -0.575688
      5          8           0       -0.346594   -0.053483   -0.081155
      6          6           0       -0.359185   -1.483790    0.199370
      7          6           0        0.671289   -2.206819   -0.642486
      8          6           0        0.685679    0.635417    0.681483
      9          6           0        0.960889    2.024032    0.149647
     10          1           0       -0.189977   -1.616060    1.276104
     11          1           0       -1.363809   -1.832357   -0.042260
     12          1           0        0.588024   -3.283306   -0.442611
     13          1           0        0.482207   -2.035595   -1.709389
     14          1           0        1.699942   -1.904898   -0.407828
     15          1           0        0.367374    0.654689    1.731903
     16          1           0        1.586075    0.018365    0.594236
     17          1           0        1.828175    2.420859    0.693382
     18          1           0        1.203934    1.995157   -0.919272
     19          1           0        0.117702    2.703656    0.309603
 ---------------------------------------------------------------------
                    Distance matrix (angstroms):
                    1          2          3          4          5
     1  B    0.000000
     2  F    1.377930   0.000000
     3  F    1.382527   2.317749   0.000000
     4  F    1.379924   2.297517   2.312329   0.000000
     5  O    1.654978   2.402263   2.418208   2.419603   0.000000
     6  C    2.661766   3.666228   3.299386   2.760923   1.457612
     7  C    3.860645   4.545683   4.695233   3.902166   2.447046
     8  C    2.640300   3.119290   2.820267   3.725529   1.456636
     9  C    3.080294   2.902180   3.253098   4.378048   2.465533
    10  H    3.191144   4.335198   3.385405   3.408356   2.075652
    11  H    2.590792   3.696816   3.315680   2.139602   2.049545
    12  H    4.669731   5.483936   5.427849   4.477401   3.381704
    13  H    3.892630   4.313644   4.974313   3.824494   2.695705
    14  H    4.385060   4.945466   5.095480   4.708526   2.778986
    15  H    2.898073   3.640381   2.558164   3.949746   2.073268
    16  H    3.551112   4.007454   3.853625   4.457584   2.048543
    17  H    4.110353   3.970923   4.077864   5.415819   3.384065
    18  H    3.354538   2.846845   3.899415   4.524411   2.702499
    19  H    2.810781   2.477927   2.741977   4.184477   2.823132
                    6          7          8          9         10
     6  C    0.000000
     7  C    1.514387   0.000000
     8  C    2.411475   3.135507   0.000000
     9  C    3.748318   4.314098   1.512231   0.000000
    10  H    1.097945   2.184436   2.487869   3.980411   0.000000
    11  H    1.090483   2.154558   3.288482   4.506972   1.778413
    12  H    2.132510   1.098047   4.077930   5.353283   2.517732
    13  H    2.157728   1.096974   3.590539   4.490626   3.088852
    14  H    2.187699   1.097427   2.944236   4.036517   2.547715
    15  H    2.729403   3.730726   1.097757   2.175062   2.382162
    16  H    2.489262   2.705135   1.095025   2.147375   2.508117
    17  H    4.502763   4.953617   2.119727   1.097863   4.550738
    18  H    3.974642   4.244634   2.163307   1.096581   4.450118
    19  H    4.215955   5.032464   2.176811   1.094732   4.437199
                   11         12         13         14         15
    11  H    0.000000
    12  H    2.464789   0.000000
    13  H    2.495676   1.781209   0.000000
    14  H    3.086337   1.771322   1.787182   0.000000
    15  H    3.511417   4.503888   4.369589   3.592447   0.000000
    16  H    3.540073   3.601692   3.277798   2.171644   1.784497
    17  H    5.368406   5.946928   5.238789   4.465566   2.516311
    18  H    4.691729   5.335609   4.170388   3.964596   3.086327
    19  H    4.784778   6.052333   5.164270   4.925135   2.506698
                   16         17         18         19
    16  H    0.000000
    17  H    2.416696   0.000000
    18  H    2.518818   1.780884   0.000000
    19  H    3.073748   1.775663   1.786618   0.000000
 Stoichiometry    C4H10BF3O
 Framework group  C1[X(C4H10BF3O)]
 Deg. of freedom    51
 Full point group                 C1      NOp   1
 Largest Abelian subgroup         C1      NOp   1
 Largest concise Abelian subgroup C1      NOp   1
                         Standard orientation:                         
 ---------------------------------------------------------------------
 Center     Atomic      Atomic             Coordinates (Angstroms)
 Number     Number       Type             X           Y           Z
 ---------------------------------------------------------------------
      1          5           0       -1.020308   -0.670519   -0.041629
      2          9           0       -1.675569   -0.162395   -1.142144
      3          9           0       -1.608568   -0.347917    1.167196
      4          9           0       -0.717746   -2.010720   -0.170110
      5          8           0        0.438926    0.110216   -0.035139
      6          6           0        1.597064   -0.635723    0.441225
      7          6           0        2.808728   -0.359567   -0.424209
      8          6           0        0.429992    1.474242    0.475880
      9          6           0       -0.535174    2.362213   -0.276986
     10          1           0        1.761115   -0.365281    1.492620
     11          1           0        1.322155   -1.689739    0.389952
     12          1           0        3.638887   -0.983024   -0.066656
     13          1           0        2.600990   -0.622757   -1.468684
     14          1           0        3.135901    0.686872   -0.376547
     15          1           0        0.193535    1.427607    1.546854
     16          1           0        1.452043    1.847763    0.353515
     17          1           0       -0.389400    3.389226    0.082594
     18          1           0       -0.332870    2.338924   -1.354493
     19          1           0       -1.578928    2.083577   -0.099844
 ---------------------------------------------------------------------
 Rotational constants (GHZ):           1.7894513           1.3831047           0.9893605
 Standard basis: Aug-CC-pVDZ (5D, 7F)
 There are   315 symmetry adapted cartesian basis functions of A   symmetry.
 There are   297 symmetry adapted basis functions of A   symmetry.
   297 basis functions,   497 primitive gaussians,   315 cartesian basis functions
    37 alpha electrons       37 beta electrons
       nuclear repulsion energy       523.0576039341 Hartrees.
 NAtoms=   19 NActive=   19 NUniq=   19 SFac= 1.00D+00 NAtFMM=   60 NAOKFM=F Big=F
 Integral buffers will be    131072 words long.
 Raffenetti 2 integral format.
 Two-electron integral symmetry is turned on.
 Nuclear repulsion after empirical dispersion term =      523.0455908305 Hartrees.
 Force PCM accuracy= 1.00D-12.
 ------------------------------------------------------------------------------
 Polarizable Continuum Model (PCM)
 =================================
 Model                : C-PCM.
 Atomic radii         : UFF (Universal Force Field).
 Polarization charges : Total charges.
 Charge compensation  : None.
 Solution method      : On-the-fly selection.
 Cavity type          : Scaled VdW (van der Waals Surface) (Alpha=1.100).
 Cavity algorithm     : GePol (No added spheres)
                        Default sphere list used, NSphG=   19.
                        Lebedev-Laikov grids with approx.  5.0 points / Ang**2.
                        Smoothing algorithm: York/Karplus (Gamma=1.0000).
                        Polarization charges: spherical gaussians, with
                                              point-specific exponents (IZeta= 3).
                        Self-potential: point-specific (ISelfS= 7).
                        Self-field    : sphere-specific E.n sum rule (ISelfD= 2).
 1st derivatives      : Analytical E(r).r(x)/FMM algorithm (CHGder, D1EAlg=3).
                        Cavity 1st derivative terms included.
 Solvent              : Chloroform, Eps=   4.711300 Eps(inf)=   2.090627
 ------------------------------------------------------------------------------
 Spheres list:
 ISph  on   Nord     Re0    Alpha      Xe            Ye            Ze
    1   B      1    2.0415  1.100     -1.020308     -0.670519     -0.041629
    2   F      2    1.6820  1.100     -1.675569     -0.162395     -1.142144
    3   F      3    1.6820  1.100     -1.608568     -0.347917      1.167196
    4   F      4    1.6820  1.100     -0.717746     -2.010720     -0.170110
    5   O      5    1.7500  1.100      0.438926      0.110216     -0.035139
    6   C      6    1.9255  1.100      1.597064     -0.635723      0.441225
    7   C      7    1.9255  1.100      2.808728     -0.359567     -0.424209
    8   C      8    1.9255  1.100      0.429992      1.474242      0.475880
    9   C      9    1.9255  1.100     -0.535174      2.362213     -0.276986
   10   H     10    1.4430  1.100      1.761115     -0.365281      1.492620
   11   H     11    1.4430  1.100      1.322155     -1.689739      0.389952
   12   H     12    1.4430  1.100      3.638887     -0.983024     -0.066656
   13   H     13    1.4430  1.100      2.600990     -0.622757     -1.468684
   14   H     14    1.4430  1.100      3.135901      0.686872     -0.376547
   15   H     15    1.4430  1.100      0.193535      1.427607      1.546854
   16   H     16    1.4430  1.100      1.452043      1.847763      0.353515
   17   H     17    1.4430  1.100     -0.389400      3.389226      0.082594
   18   H     18    1.4430  1.100     -0.332870      2.338924     -1.354493
   19   H     19    1.4430  1.100     -1.578928      2.083577     -0.099844
 ------------------------------------------------------------------------------
 One-electron integrals computed using PRISM.
 NBasis=   297 RedAO= T EigKep=  2.61D-05  NBF=   297
 NBsUse=   297 1.00D-06 EigRej= -1.00D+00 NBFU=   297
 Initial guess from the checkpoint file:  "/inspire/hdd/project/materialscienceresearch/lipenghui-253107030018/g16/00-B-DFT-Shift/04-output/BF3OEt2_CDCl3/BF3OEt2_CDCl3.chk"
 B after Tr=     0.000000    0.000000    0.000000
         Rot=    0.999978   -0.003883   -0.001536    0.005178 Ang=  -0.76 deg.
 ExpMin= 2.38D-02 ExpMax= 1.47D+04 ExpMxC= 5.03D+02 IAcc=3 IRadAn=         5 AccDes= 0.00D+00
 Harris functional with IExCor= 4639 and IRadAn=       5 diagonalized for initial guess.
 HarFok:  IExCor= 4639 AccDes= 0.00D+00 IRadAn=         5 IDoV= 1 UseB2=F ITyADJ=14
 ICtDFT=  3500011 ScaDFX=  1.000000  1.000000  1.000000  1.000000
 FoFCou: FMM=F IPFlag=           0 FMFlag=      100000 FMFlg1=           0
         NFxFlg=           0 DoJE=T BraDBF=F KetDBF=T FulRan=T
         wScrn=  0.000000 ICntrl=       500 IOpCl=  0 I1Cent=   200000004 NGrid=           0
         NMat0=    1 NMatS0=      1 NMatT0=    0 NMatD0=    1 NMtDS0=    0 NMtDT0=    0
 Petite list used in FoFCou.
 Requested convergence on RMS density matrix=1.00D-08 within 128 cycles.
 Requested convergence on MAX density matrix=1.00D-06.
 Requested convergence on             energy=1.00D-06.
 No special actions if energy rises.
 Inv3:  Mode=1 IEnd=     6858432.
 Iteration    1 A*A^-1 deviation from unit magnitude is 5.11D-15 for   1511.
 Iteration    1 A*A^-1 deviation from orthogonality  is 3.38D-15 for   1498   1074.
 Iteration    1 A^-1*A deviation from unit magnitude is 4.88D-15 for   1511.
 Iteration    1 A^-1*A deviation from orthogonality  is 1.63D-15 for   1126    831.
 Error on total polarization charges =  0.00902
 SCF Done:  E(RwB97XD) =  -558.148505799     A.U. after   10 cycles
            NFock= 10  Conv=0.80D-08     -V/T= 2.0061
 D1PCM: C-PCM CHGder 1st derivatives, ID1Alg=3 FixD1E=F DoIter=F DoCFld=F I1PDM=0.
 Calling FoFJK, ICntrl=      2127 FMM=F ISym2X=0 I1Cent= 0 IOpClX= 0 NMat=1 NMatS=1 NMatT=0.
 ***** Axes restored to original set *****
 -------------------------------------------------------------------
 Center     Atomic                   Forces (Hartrees/Bohr)
 Number     Number              X              Y              Z
 -------------------------------------------------------------------
      1        5           0.004400808   -0.002364756   -0.000769006
      2        9          -0.000462422    0.000005867    0.000492440
      3        9          -0.000168850    0.000095313   -0.000304708
      4        9           0.000509624    0.000171093    0.000213136
      5        8          -0.007832062    0.003099682   -0.000793011
      6        6           0.000604971   -0.006017700   -0.000008930
      7        6           0.000546366    0.000385559   -0.000221671
      8        6           0.005284334    0.003256356    0.002236498
      9        6          -0.000480044    0.000520462   -0.000295977
     10        1           0.000140374    0.000737666   -0.000374976
     11        1           0.000044317    0.001276919    0.000153424
     12        1          -0.000318385    0.000461043    0.000025620
     13        1           0.000008133   -0.000139152    0.000339174
     14        1          -0.000503229    0.000213630   -0.000067841
     15        1          -0.000742529   -0.000104100   -0.000747014
     16        1          -0.001161445   -0.000376577   -0.000184247
     17        1          -0.000106377   -0.000631847    0.000042161
     18        1          -0.000123022   -0.000113122    0.000432329
     19        1           0.000359439   -0.000476336   -0.000167400
 -------------------------------------------------------------------
 Cartesian Forces:  Max     0.007832062 RMS     0.001806485

 GradGradGradGradGradGradGradGradGradGradGradGradGradGradGradGradGradGrad
 Berny optimization.
 Using GEDIIS/GDIIS optimizer.
 FormGI is forming the generalized inverse of G from B-inverse, IUseBI=4.
 Internal  Forces:  Max     0.004729348 RMS     0.000833090
 Search for a local minimum.
 Step number  11 out of a maximum of   97
 All quantities printed in internal units (Hartrees-Bohrs-Radians)
 Mixed Optimization -- En-DIIS/RFO-DIIS
 Update second derivatives using D2CorX and points    9   10   11
 DE= -2.07D-04 DEPred=-1.38D-04 R= 1.50D+00
 TightC=F SS=  1.41D+00  RLast= 1.18D-01 DXNew= 1.6254D+00 3.5418D-01
 Trust test= 1.50D+00 RLast= 1.18D-01 DXMaxT set to 9.66D-01
 ITU=  1  0  1  1  1  1  1  1  1  1  0
 Use linear search instead of GDIIS.
     Eigenvalues ---    0.00136   0.00281   0.00388   0.01291   0.01460
     Eigenvalues ---    0.02298   0.04424   0.04880   0.05187   0.05326
     Eigenvalues ---    0.05414   0.05508   0.05773   0.05854   0.08166
     Eigenvalues ---    0.09670   0.10422   0.12769   0.12915   0.13171
     Eigenvalues ---    0.13549   0.15976   0.16001   0.16007   0.16050
     Eigenvalues ---    0.16372   0.16731   0.20436   0.21033   0.24353
     Eigenvalues ---    0.25153   0.25279   0.27755   0.28444   0.28530
     Eigenvalues ---    0.28713   0.29627   0.31839   0.31952   0.32019
     Eigenvalues ---    0.32041   0.32108   0.32156   0.32178   0.32196
     Eigenvalues ---    0.32573   0.33337   0.38124   0.40345   0.42975
     Eigenvalues ---    0.48573
 RFO step:  Lambda=-5.50377905D-04 EMin= 1.36229013D-03
 Quartic linear search produced a step of  1.22551.
 Iteration  1 RMS(Cart)=  0.05616018 RMS(Int)=  0.00147314
 Iteration  2 RMS(Cart)=  0.00190609 RMS(Int)=  0.00007099
 Iteration  3 RMS(Cart)=  0.00000258 RMS(Int)=  0.00007096
 Iteration  4 RMS(Cart)=  0.00000000 RMS(Int)=  0.00007096
 Variable       Old X    -DE/DX   Delta X   Delta X   Delta X     New X
                                 (Linear)    (Quad)   (Total)
    R1        2.60391  -0.00040   0.00107   0.00419   0.00525   2.60916
    R2        2.61260  -0.00021   0.00222   0.00316   0.00538   2.61798
    R3        2.60768  -0.00051   0.00276   0.00249   0.00526   2.61294
    R4        3.12745  -0.00473  -0.02804  -0.03650  -0.06454   3.06292
    R5        2.75449   0.00299   0.00862   0.00335   0.01196   2.76645
    R6        2.75264   0.00382   0.00851   0.00582   0.01433   2.76697
    R7        2.86178  -0.00066  -0.00251  -0.00163  -0.00414   2.85763
    R8        2.07482  -0.00044  -0.00131  -0.00089  -0.00220   2.07262
    R9        2.06072  -0.00048  -0.00105  -0.00055  -0.00160   2.05911
   R10        2.07501  -0.00042  -0.00060  -0.00100  -0.00160   2.07341
   R11        2.07298  -0.00035  -0.00013  -0.00061  -0.00074   2.07224
   R12        2.07384  -0.00043  -0.00027   0.00066   0.00039   2.07422
   R13        2.85770  -0.00071  -0.00224  -0.00195  -0.00419   2.85351
   R14        2.07446  -0.00050  -0.00064  -0.00119  -0.00183   2.07264
   R15        2.06930  -0.00073  -0.00081   0.00026  -0.00055   2.06875
   R16        2.07466  -0.00029  -0.00034  -0.00043  -0.00076   2.07390
   R17        2.07224  -0.00045  -0.00068  -0.00038  -0.00106   2.07117
   R18        2.06874  -0.00060  -0.00085  -0.00055  -0.00140   2.06734
    A1        1.99318  -0.00056  -0.00588  -0.00826  -0.01424   1.97894
    A2        1.96931  -0.00003  -0.00368  -0.00219  -0.00598   1.96333
    A3        1.82189   0.00106   0.00658   0.00696   0.01345   1.83535
    A4        1.98376  -0.00007  -0.00375  -0.00190  -0.00573   1.97804
    A5        1.83554   0.00046   0.00511   0.00564   0.01067   1.84621
    A6        1.83922  -0.00071   0.00470   0.00248   0.00710   1.84632
    A7        2.04928  -0.00012  -0.00289   0.01976   0.01669   2.06596
    A8        2.02386   0.00066   0.00344   0.00523   0.00840   2.03227
    A9        1.94920  -0.00026   0.00237  -0.00124   0.00079   1.94999
   A10        1.93439  -0.00029  -0.00100  -0.01286  -0.01388   1.92050
   A11        1.88139  -0.00029  -0.00531  -0.00335  -0.00871   1.87267
   A12        1.85352  -0.00063  -0.00150   0.00193   0.00052   1.85404
   A13        1.96360   0.00035  -0.00087   0.00284   0.00179   1.96539
   A14        1.92953   0.00076   0.00658   0.01175   0.01831   1.94785
   A15        1.89734   0.00003   0.00186  -0.00056   0.00121   1.89855
   A16        1.89154  -0.00042  -0.00181   0.00546   0.00365   1.89519
   A17        1.92715   0.00011   0.00190   0.00105   0.00292   1.93006
   A18        1.96882  -0.00028  -0.00401  -0.01122  -0.01524   1.95357
   A19        1.89335   0.00009  -0.00032   0.00297   0.00263   1.89598
   A20        1.87745   0.00042   0.00322   0.00661   0.00985   1.88730
   A21        1.90349   0.00010   0.00113  -0.00415  -0.00306   1.90043
   A22        1.95964   0.00073  -0.00007  -0.00304  -0.00309   1.95655
   A23        1.87948  -0.00073  -0.00393  -0.00547  -0.00940   1.87008
   A24        1.84886  -0.00081  -0.00538  -0.00440  -0.00976   1.83910
   A25        1.95322   0.00017   0.00214   0.00396   0.00604   1.95926
   A26        1.91748   0.00034   0.00293   0.00768   0.01055   1.92803
   A27        1.90134   0.00022   0.00398   0.00070   0.00454   1.90588
   A28        1.87706  -0.00077  -0.00412  -0.00073  -0.00485   1.87221
   A29        1.93797  -0.00007  -0.00007  -0.00165  -0.00173   1.93623
   A30        1.95898   0.00005   0.00023  -0.00280  -0.00257   1.95640
   A31        1.89357   0.00031   0.00094   0.00231   0.00324   1.89681
   A32        1.88777   0.00043   0.00240   0.00369   0.00609   1.89386
   A33        1.90656   0.00007   0.00067  -0.00049   0.00018   1.90673
    D1       -2.54883   0.00007  -0.01251   0.02518   0.01275  -2.53608
    D2        1.36637  -0.00017  -0.01718  -0.00350  -0.02077   1.34560
    D3        1.63066   0.00000  -0.01122   0.02871   0.01757   1.64823
    D4       -0.73732  -0.00024  -0.01589   0.00003  -0.01595  -0.75327
    D5       -0.47048   0.00020  -0.01160   0.02700   0.01549  -0.45498
    D6       -2.83846  -0.00004  -0.01627  -0.00168  -0.01802  -2.85648
    D7        2.42482  -0.00038   0.05311  -0.11534  -0.06230   2.36253
    D8       -1.70248  -0.00032   0.04781  -0.12224  -0.07439  -1.77687
    D9        0.32844  -0.00074   0.04663  -0.12353  -0.07692   0.25152
   D10       -1.45916   0.00024   0.05817  -0.08561  -0.02747  -1.48664
   D11        0.69672   0.00030   0.05287  -0.09251  -0.03957   0.65715
   D12        2.72764  -0.00013   0.05169  -0.09380  -0.04210   2.68554
   D13       -0.99411  -0.00011   0.01371  -0.04845  -0.03479  -1.02889
   D14        1.16377   0.00007   0.01360  -0.04930  -0.03575   1.12801
   D15       -3.08713  -0.00042   0.01361  -0.05330  -0.03971  -3.12684
   D16        2.87830  -0.00037   0.01163  -0.08441  -0.07275   2.80555
   D17       -1.24702  -0.00019   0.01152  -0.08526  -0.07371  -1.32073
   D18        0.78528  -0.00068   0.01153  -0.08925  -0.07767   0.70761
   D19       -3.08551   0.00007   0.00729  -0.06424  -0.05694   3.14074
   D20       -1.01396  -0.00001   0.00692  -0.05671  -0.04978  -1.06374
   D21        1.12080  -0.00001   0.00695  -0.06924  -0.06225   1.05855
   D22        1.08982   0.00040   0.01543  -0.05279  -0.03735   1.05248
   D23       -3.12182   0.00032   0.01505  -0.04526  -0.03019   3.13118
   D24       -0.98706   0.00033   0.01508  -0.05778  -0.04266  -1.02971
   D25       -1.03508  -0.00042   0.00892  -0.06250  -0.05364  -1.08872
   D26        1.03646  -0.00050   0.00855  -0.05497  -0.04648   0.98998
   D27       -3.11196  -0.00050   0.00858  -0.06750  -0.05895   3.11227
   D28       -3.02002   0.00008   0.00402   0.00121   0.00523  -3.01479
   D29       -0.95078  -0.00005   0.00260   0.00263   0.00523  -0.94555
   D30        1.18887   0.00002   0.00358  -0.00122   0.00236   1.19123
   D31        1.14708   0.00038   0.00763   0.00764   0.01530   1.16238
   D32       -3.06687   0.00025   0.00620   0.00906   0.01530  -3.05157
   D33       -0.92722   0.00032   0.00718   0.00521   0.01243  -0.91479
   D34       -0.96738  -0.00025  -0.00082  -0.00117  -0.00202  -0.96940
   D35        1.10186  -0.00038  -0.00224   0.00025  -0.00202   1.09983
   D36       -3.04167  -0.00031  -0.00126  -0.00360  -0.00490  -3.04657
         Item               Value     Threshold  Converged?
 Maximum Force            0.004729     0.000450     NO 
 RMS     Force            0.000833     0.000300     NO 
 Maximum Displacement     0.190772     0.001800     NO 
 RMS     Displacement     0.056636     0.001200     NO 
 Predicted change in Energy=-3.962033D-04
 GradGradGradGradGradGradGradGradGradGradGradGradGradGradGradGradGradGrad

                          Input orientation:                          
 ---------------------------------------------------------------------
 Center     Atomic      Atomic             Coordinates (Angstroms)
 Number     Number       Type             X           Y           Z
 ---------------------------------------------------------------------
      1          5           0       -1.795837    0.695839   -0.185262
      2          9           0       -1.600373    1.677235   -1.136586
      3          9           0       -2.079237    1.199266    1.073905
      4          9           0       -2.689617   -0.273643   -0.601364
      5          8           0       -0.364901   -0.053068   -0.048744
      6          6           0       -0.355746   -1.492962    0.215365
      7          6           0        0.657796   -2.176538   -0.674686
      8          6           0        0.665882    0.645803    0.721321
      9          6           0        0.986102    2.002774    0.141466
     10          1           0       -0.138833   -1.627464    1.282036
     11          1           0       -1.367271   -1.845587    0.015922
     12          1           0        0.645532   -3.251850   -0.456960
     13          1           0        0.403850   -2.030118   -1.731360
     14          1           0        1.675170   -1.803945   -0.498841
     15          1           0        0.308467    0.710105    1.756246
     16          1           0        1.546271   -0.003795    0.684208
     17          1           0        1.849371    2.397092    0.692551
     18          1           0        1.253100    1.922665   -0.918511
     19          1           0        0.153812    2.704171    0.251711
 ---------------------------------------------------------------------
                    Distance matrix (angstroms):
                    1          2          3          4          5
     1  B    0.000000
     2  F    1.380710   0.000000
     3  F    1.385373   2.311717   0.000000
     4  F    1.382707   2.297573   2.312694   0.000000
     5  O    1.620826   2.388251   2.401590   2.399656   0.000000
     6  C    2.650512   3.664289   3.309926   2.756944   1.463944
     7  C    3.809251   4.490462   4.684546   3.851177   2.438613
     8  C    2.623824   3.106699   2.822466   3.722130   1.464218
     9  C    3.090956   2.903315   3.303236   4.386887   2.467361
    10  H    3.208795   4.348203   3.434951   3.447685   2.073838
    11  H    2.585147   3.713877   3.301114   2.144912   2.054763
    12  H    4.649553   5.459108   5.438782   4.473677   3.379322
    13  H    3.828822   4.256187   4.946125   3.732510   2.707563
    14  H    4.288956   4.822294   5.058496   4.626414   2.725811
    15  H    2.863172   3.598262   2.531007   3.938857   2.072160
    16  H    3.523514   4.005312   3.839730   4.434892   2.047493
    17  H    4.117324   3.970474   4.124824   5.423048   3.384642
    18  H    3.367309   2.872299   3.949366   4.524309   2.697766
    19  H    2.832927   2.461530   2.815537   4.204783   2.821649
                    6          7          8          9         10
     6  C    0.000000
     7  C    1.512195   0.000000
     8  C    2.423640   3.148731   0.000000
     9  C    3.745155   4.270893   1.510014   0.000000
    10  H    1.096782   2.182856   2.475825   3.967997   0.000000
    11  H    1.089636   2.165033   3.292161   4.512649   1.777550
    12  H    2.132666   1.097201   4.071911   5.299544   2.505587
    13  H    2.157605   1.096580   3.639348   4.484496   3.088235
    14  H    2.175183   1.097632   2.916972   3.921214   2.548191
    15  H    2.769295   3.790009   1.096791   2.176626   2.426763
    16  H    2.460712   2.712341   1.094733   2.152830   2.415218
    17  H    4.496973   4.920089   2.113879   1.097459   4.527416
    18  H    3.942153   4.149374   2.159687   1.096018   4.402647
    19  H    4.228108   4.993348   2.172470   1.093992   4.462092
                   11         12         13         14         15
    11  H    0.000000
    12  H    2.500514   0.000000
    13  H    2.494778   1.781890   0.000000
    14  H    3.085963   1.777171   1.785081   0.000000
    15  H    3.516871   4.550712   4.436363   3.643315   0.000000
    16  H    3.511059   3.558575   3.353518   2.157953   1.786359
    17  H    5.367023   5.889070   5.250244   4.370180   2.520270
    18  H    4.683933   5.230466   4.123887   3.773843   3.084957
    19  H    4.803081   6.018154   5.138928   4.816738   2.502767
                   16         17         18         19
    16  H    0.000000
    17  H    2.419958   0.000000
    18  H    2.523075   1.782173   0.000000
    19  H    3.075561   1.778639   1.785666   0.000000
 Stoichiometry    C4H10BF3O
 Framework group  C1[X(C4H10BF3O)]
 Deg. of freedom    51
 Full point group                 C1      NOp   1
 Largest Abelian subgroup         C1      NOp   1
 Largest concise Abelian subgroup C1      NOp   1
                         Standard orientation:                         
 ---------------------------------------------------------------------
 Center     Atomic      Atomic             Coordinates (Angstroms)
 Number     Number       Type             X           Y           Z
 ---------------------------------------------------------------------
      1          5           0       -1.005447   -0.659753   -0.045700
      2          9           0       -1.656416   -0.140186   -1.146904
      3          9           0       -1.629844   -0.360227    1.154163
      4          9           0       -0.711925   -2.003229   -0.189906
      5          8           0        0.424682    0.101668   -0.000484
      6          6           0        1.595229   -0.643789    0.465611
      7          6           0        2.772502   -0.383285   -0.447022
      8          6           0        0.416942    1.473667    0.510879
      9          6           0       -0.483652    2.376382   -0.297932
     10          1           0        1.787524   -0.335230    1.500379
     11          1           0        1.308613   -1.695041    0.460552
     12          1           0        3.634851   -0.951372   -0.076237
     13          1           0        2.548752   -0.713071   -1.468621
     14          1           0        3.047120    0.679216   -0.468782
     15          1           0        0.117428    1.424260    1.564825
     16          1           0        1.455849    1.812904    0.447389
     17          1           0       -0.330451    3.400326    0.066050
     18          1           0       -0.222301    2.339186   -1.361684
     19          1           0       -1.540069    2.119174   -0.176911
 ---------------------------------------------------------------------
 Rotational constants (GHZ):           1.7788875           1.3973102           0.9978240
 Standard basis: Aug-CC-pVDZ (5D, 7F)
 There are   315 symmetry adapted cartesian basis functions of A   symmetry.
 There are   297 symmetry adapted basis functions of A   symmetry.
   297 basis functions,   497 primitive gaussians,   315 cartesian basis functions
    37 alpha electrons       37 beta electrons
       nuclear repulsion energy       523.8170369062 Hartrees.
 NAtoms=   19 NActive=   19 NUniq=   19 SFac= 1.00D+00 NAtFMM=   60 NAOKFM=F Big=F
 Integral buffers will be    131072 words long.
 Raffenetti 2 integral format.
 Two-electron integral symmetry is turned on.
 Nuclear repulsion after empirical dispersion term =      523.8050066573 Hartrees.
 Force PCM accuracy= 1.00D-12.
 ------------------------------------------------------------------------------
 Polarizable Continuum Model (PCM)
 =================================
 Model                : C-PCM.
 Atomic radii         : UFF (Universal Force Field).
 Polarization charges : Total charges.
 Charge compensation  : None.
 Solution method      : On-the-fly selection.
 Cavity type          : Scaled VdW (van der Waals Surface) (Alpha=1.100).
 Cavity algorithm     : GePol (No added spheres)
                        Default sphere list used, NSphG=   19.
                        Lebedev-Laikov grids with approx.  5.0 points / Ang**2.
                        Smoothing algorithm: York/Karplus (Gamma=1.0000).
                        Polarization charges: spherical gaussians, with
                                              point-specific exponents (IZeta= 3).
                        Self-potential: point-specific (ISelfS= 7).
                        Self-field    : sphere-specific E.n sum rule (ISelfD= 2).
 1st derivatives      : Analytical E(r).r(x)/FMM algorithm (CHGder, D1EAlg=3).
                        Cavity 1st derivative terms included.
 Solvent              : Chloroform, Eps=   4.711300 Eps(inf)=   2.090627
 ------------------------------------------------------------------------------
 Spheres list:
 ISph  on   Nord     Re0    Alpha      Xe            Ye            Ze
    1   B      1    2.0415  1.100     -1.005447     -0.659753     -0.045700
    2   F      2    1.6820  1.100     -1.656416     -0.140186     -1.146904
    3   F      3    1.6820  1.100     -1.629844     -0.360227      1.154163
    4   F      4    1.6820  1.100     -0.711925     -2.003229     -0.189906
    5   O      5    1.7500  1.100      0.424682      0.101668     -0.000484
    6   C      6    1.9255  1.100      1.595229     -0.643789      0.465611
    7   C      7    1.9255  1.100      2.772502     -0.383285     -0.447022
    8   C      8    1.9255  1.100      0.416942      1.473667      0.510879
    9   C      9    1.9255  1.100     -0.483652      2.376382     -0.297932
   10   H     10    1.4430  1.100      1.787524     -0.335230      1.500379
   11   H     11    1.4430  1.100      1.308613     -1.695041      0.460552
   12   H     12    1.4430  1.100      3.634851     -0.951372     -0.076237
   13   H     13    1.4430  1.100      2.548752     -0.713071     -1.468621
   14   H     14    1.4430  1.100      3.047120      0.679216     -0.468782
   15   H     15    1.4430  1.100      0.117428      1.424260      1.564825
   16   H     16    1.4430  1.100      1.455849      1.812904      0.447389
   17   H     17    1.4430  1.100     -0.330451      3.400326      0.066050
   18   H     18    1.4430  1.100     -0.222301      2.339186     -1.361684
   19   H     19    1.4430  1.100     -1.540069      2.119174     -0.176911
 ------------------------------------------------------------------------------
 One-electron integrals computed using PRISM.
 NBasis=   297 RedAO= T EigKep=  2.62D-05  NBF=   297
 NBsUse=   297 1.00D-06 EigRej= -1.00D+00 NBFU=   297
 Initial guess from the checkpoint file:  "/inspire/hdd/project/materialscienceresearch/lipenghui-253107030018/g16/00-B-DFT-Shift/04-output/BF3OEt2_CDCl3/BF3OEt2_CDCl3.chk"
 B after Tr=     0.000000    0.000000   -0.000000
         Rot=    0.999989   -0.001281    0.002921    0.003546 Ang=  -0.55 deg.
 ExpMin= 2.38D-02 ExpMax= 1.47D+04 ExpMxC= 5.03D+02 IAcc=3 IRadAn=         5 AccDes= 0.00D+00
 Harris functional with IExCor= 4639 and IRadAn=       5 diagonalized for initial guess.
 HarFok:  IExCor= 4639 AccDes= 0.00D+00 IRadAn=         5 IDoV= 1 UseB2=F ITyADJ=14
 ICtDFT=  3500011 ScaDFX=  1.000000  1.000000  1.000000  1.000000
 FoFCou: FMM=F IPFlag=           0 FMFlag=      100000 FMFlg1=           0
         NFxFlg=           0 DoJE=T BraDBF=F KetDBF=T FulRan=T
         wScrn=  0.000000 ICntrl=       500 IOpCl=  0 I1Cent=   200000004 NGrid=           0
         NMat0=    1 NMatS0=      1 NMatT0=    0 NMatD0=    1 NMtDS0=    0 NMtDT0=    0
 Petite list used in FoFCou.
 Requested convergence on RMS density matrix=1.00D-08 within 128 cycles.
 Requested convergence on MAX density matrix=1.00D-06.
 Requested convergence on             energy=1.00D-06.
 No special actions if energy rises.
 Inv3:  Mode=1 IEnd=     6894768.
 Iteration    1 A*A^-1 deviation from unit magnitude is 5.22D-15 for   1512.
 Iteration    1 A*A^-1 deviation from orthogonality  is 2.82D-15 for   1512    793.
 Iteration    1 A^-1*A deviation from unit magnitude is 5.22D-15 for   1512.
 Iteration    1 A^-1*A deviation from orthogonality  is 1.31D-15 for   1244     56.
 Error on total polarization charges =  0.00899
 SCF Done:  E(RwB97XD) =  -558.148987137     A.U. after   11 cycles
            NFock= 11  Conv=0.25D-08     -V/T= 2.0060
 D1PCM: C-PCM CHGder 1st derivatives, ID1Alg=3 FixD1E=F DoIter=F DoCFld=F I1PDM=0.
 Calling FoFJK, ICntrl=      2127 FMM=F ISym2X=0 I1Cent= 0 IOpClX= 0 NMat=1 NMatS=1 NMatT=0.
 ***** Axes restored to original set *****
 -------------------------------------------------------------------
 Center     Atomic                   Forces (Hartrees/Bohr)
 Number     Number              X              Y              Z
 -------------------------------------------------------------------
      1        5           0.001228140   -0.000782339   -0.000590993
      2        9          -0.000126945    0.000081504   -0.000237900
      3        9          -0.000241676    0.000041818    0.000489680
      4        9           0.000376767   -0.000154198    0.000128772
      5        8          -0.003191590    0.001054843   -0.000139288
      6        6           0.000764511   -0.002299463    0.000285477
      7        6           0.000078951    0.000749331   -0.000393764
      8        6           0.002014901    0.000630112    0.001065953
      9        6          -0.000153603    0.000022904   -0.000069878
     10        1           0.000074809    0.000303029    0.000021283
     11        1          -0.000177071    0.000625404   -0.000437056
     12        1           0.000110555    0.000009426    0.000096026
     13        1          -0.000172095   -0.000066319    0.000232235
     14        1          -0.000157023   -0.000967962   -0.000266773
     15        1          -0.000218315    0.000044460   -0.000269556
     16        1          -0.000662360    0.000582862    0.000000722
     17        1           0.000000637    0.000076413   -0.000049921
     18        1           0.000141452    0.000020389    0.000133408
     19        1           0.000309955    0.000027786    0.000001575
 -------------------------------------------------------------------
 Cartesian Forces:  Max     0.003191590 RMS     0.000719963

 GradGradGradGradGradGradGradGradGradGradGradGradGradGradGradGradGradGrad
 Berny optimization.
 Using GEDIIS/GDIIS optimizer.
 FormGI is forming the generalized inverse of G from B-inverse, IUseBI=4.
 Internal  Forces:  Max     0.002101357 RMS     0.000504266
 Search for a local minimum.
 Step number  12 out of a maximum of   97
 All quantities printed in internal units (Hartrees-Bohrs-Radians)
 Mixed Optimization -- En-DIIS/RFO-DIIS
 Swapping is turned off.
 Update second derivatives using D2CorX and points   10   11   12
 DE= -4.81D-04 DEPred=-3.96D-04 R= 1.21D+00
 TightC=F SS=  1.41D+00  RLast= 2.68D-01 DXNew= 1.6254D+00 8.0473D-01
 Trust test= 1.21D+00 RLast= 2.68D-01 DXMaxT set to 9.66D-01
 ITU=  1  1  0  1  1  1  1  1  1  1  1  0
     Eigenvalues ---    0.00131   0.00282   0.00391   0.01246   0.01460
     Eigenvalues ---    0.02142   0.04483   0.04967   0.05133   0.05317
     Eigenvalues ---    0.05409   0.05658   0.05786   0.05880   0.07267
     Eigenvalues ---    0.09651   0.10427   0.12709   0.12920   0.13011
     Eigenvalues ---    0.13423   0.16000   0.16002   0.16015   0.16050
     Eigenvalues ---    0.16444   0.17194   0.20851   0.21314   0.25072
     Eigenvalues ---    0.25147   0.25251   0.27348   0.28402   0.28507
     Eigenvalues ---    0.28712   0.29968   0.31845   0.31954   0.32014
     Eigenvalues ---    0.32048   0.32108   0.32157   0.32187   0.32200
     Eigenvalues ---    0.32726   0.33531   0.38148   0.40432   0.41590
     Eigenvalues ---    0.48454
 En-DIIS/RFO-DIIS/Sim-DIIS IScMMF=       -3 using points:    12   11
 RFO step:  Lambda=-2.40084604D-04.
 DidBck=F Rises=F RFO-DIIS coefs:    1.86393   -0.86393
 Iteration  1 RMS(Cart)=  0.05983318 RMS(Int)=  0.00144094
 Iteration  2 RMS(Cart)=  0.00193063 RMS(Int)=  0.00009424
 Iteration  3 RMS(Cart)=  0.00000191 RMS(Int)=  0.00009423
 Iteration  4 RMS(Cart)=  0.00000000 RMS(Int)=  0.00009423
 Variable       Old X    -DE/DX   Delta X   Delta X   Delta X     New X
                                 (Linear)    (Quad)   (Total)
    R1        2.60916   0.00020   0.00454  -0.00117   0.00337   2.61253
    R2        2.61798   0.00051   0.00465  -0.00066   0.00399   2.62196
    R3        2.61294  -0.00017   0.00454  -0.00198   0.00257   2.61550
    R4        3.06292  -0.00145  -0.05576   0.02800  -0.02775   3.03516
    R5        2.76645   0.00154   0.01034  -0.00425   0.00608   2.77254
    R6        2.76697   0.00210   0.01238  -0.00404   0.00834   2.77531
    R7        2.85763   0.00023  -0.00358   0.00194  -0.00164   2.85600
    R8        2.07262  -0.00000  -0.00190   0.00036  -0.00154   2.07108
    R9        2.05911   0.00004  -0.00138   0.00154   0.00015   2.05926
   R10        2.07341   0.00001  -0.00138   0.00111  -0.00027   2.07314
   R11        2.07224  -0.00019  -0.00064   0.00004  -0.00060   2.07164
   R12        2.07422  -0.00052   0.00033  -0.00041  -0.00008   2.07414
   R13        2.85351   0.00019  -0.00362   0.00293  -0.00070   2.85282
   R14        2.07264  -0.00018  -0.00158   0.00062  -0.00096   2.07168
   R15        2.06875  -0.00088  -0.00048  -0.00061  -0.00108   2.06766
   R16        2.07390   0.00000  -0.00066   0.00045  -0.00021   2.07368
   R17        2.07117  -0.00009  -0.00092   0.00072  -0.00020   2.07098
   R18        2.06734  -0.00022  -0.00121   0.00052  -0.00069   2.06666
    A1        1.97894   0.00010  -0.01230   0.00714  -0.00525   1.97369
    A2        1.96333   0.00011  -0.00516   0.00320  -0.00204   1.96129
    A3        1.83535   0.00041   0.01162  -0.00576   0.00579   1.84113
    A4        1.97804   0.00005  -0.00495   0.00286  -0.00215   1.97588
    A5        1.84621   0.00021   0.00922  -0.00375   0.00541   1.85162
    A6        1.84632  -0.00093   0.00614  -0.00615  -0.00008   1.84624
    A7        2.06596  -0.00096   0.01442  -0.00448   0.00960   2.07557
    A8        2.03227   0.00030   0.00726   0.00025   0.00708   2.03935
    A9        1.94999   0.00073   0.00068   0.00461   0.00479   1.95478
   A10        1.92050   0.00142  -0.01199   0.00508  -0.00693   1.91358
   A11        1.87267  -0.00052  -0.00753   0.00400  -0.00357   1.86911
   A12        1.85404  -0.00097   0.00045  -0.00189  -0.00135   1.85269
   A13        1.96539   0.00011   0.00154   0.00277   0.00414   1.96953
   A14        1.94785  -0.00049   0.01582  -0.01005   0.00574   1.95358
   A15        1.89855   0.00036   0.00105   0.00033   0.00128   1.89983
   A16        1.89519  -0.00022   0.00315  -0.00097   0.00219   1.89738
   A17        1.93006  -0.00038   0.00252  -0.00303  -0.00054   1.92952
   A18        1.95357   0.00117  -0.01317   0.01009  -0.00309   1.95049
   A19        1.89598   0.00010   0.00228  -0.00115   0.00111   1.89709
   A20        1.88730  -0.00055   0.00851  -0.00684   0.00170   1.88900
   A21        1.90043  -0.00015  -0.00264   0.00149  -0.00119   1.89924
   A22        1.95655   0.00064  -0.00267   0.00115  -0.00150   1.95505
   A23        1.87008  -0.00040  -0.00812   0.00455  -0.00357   1.86650
   A24        1.83910  -0.00008  -0.00843   0.00481  -0.00361   1.83549
   A25        1.95926  -0.00000   0.00522  -0.00176   0.00340   1.96266
   A26        1.92803  -0.00034   0.00912  -0.00640   0.00267   1.93070
   A27        1.90588   0.00017   0.00392  -0.00172   0.00207   1.90795
   A28        1.87221   0.00005  -0.00419   0.00394  -0.00025   1.87196
   A29        1.93623  -0.00001  -0.00150   0.00050  -0.00100   1.93524
   A30        1.95640   0.00028  -0.00222   0.00258   0.00035   1.95675
   A31        1.89681  -0.00011   0.00280  -0.00269   0.00010   1.89691
   A32        1.89386  -0.00017   0.00526  -0.00461   0.00065   1.89451
   A33        1.90673  -0.00005   0.00015   0.00002   0.00017   1.90690
    D1       -2.53608   0.00040   0.01102   0.01283   0.02395  -2.51213
    D2        1.34560  -0.00001  -0.01794   0.01039  -0.00766   1.33795
    D3        1.64823  -0.00001   0.01518   0.00925   0.02452   1.67275
    D4       -0.75327  -0.00043  -0.01378   0.00681  -0.00708  -0.76036
    D5       -0.45498   0.00028   0.01339   0.01086   0.02435  -0.43063
    D6       -2.85648  -0.00013  -0.01557   0.00841  -0.00725  -2.86374
    D7        2.36253  -0.00078  -0.05382  -0.03937  -0.09325   2.26928
    D8       -1.77687  -0.00011  -0.06427  -0.03035  -0.09460  -1.87147
    D9        0.25152  -0.00041  -0.06645  -0.02899  -0.09548   0.15604
   D10       -1.48664  -0.00052  -0.02373  -0.03854  -0.06229  -1.54892
   D11        0.65715   0.00016  -0.03419  -0.02953  -0.06363   0.59351
   D12        2.68554  -0.00015  -0.03637  -0.02816  -0.06452   2.62102
   D13       -1.02889  -0.00039  -0.03005  -0.00325  -0.03335  -1.06225
   D14        1.12801  -0.00026  -0.03089  -0.00158  -0.03252   1.09549
   D15       -3.12684  -0.00028  -0.03431   0.00084  -0.03350   3.12285
   D16        2.80555  -0.00009  -0.06285  -0.00194  -0.06475   2.74080
   D17       -1.32073   0.00004  -0.06368  -0.00027  -0.06391  -1.38464
   D18        0.70761   0.00002  -0.06710   0.00215  -0.06489   0.64271
   D19        3.14074   0.00041  -0.04919   0.01840  -0.03078   3.10996
   D20       -1.06374   0.00017  -0.04301   0.01460  -0.02839  -1.09214
   D21        1.05855   0.00052  -0.05378   0.02133  -0.03241   1.02614
   D22        1.05248   0.00001  -0.03226   0.00802  -0.02422   1.02825
   D23        3.13118  -0.00023  -0.02608   0.00422  -0.02184   3.10934
   D24       -1.02971   0.00013  -0.03685   0.01095  -0.02585  -1.05557
   D25       -1.08872  -0.00018  -0.04634   0.01306  -0.03335  -1.12207
   D26        0.98998  -0.00043  -0.04016   0.00926  -0.03096   0.95902
   D27        3.11227  -0.00007  -0.05093   0.01599  -0.03498   3.07730
   D28       -3.01479  -0.00003   0.00452  -0.00310   0.00142  -3.01337
   D29       -0.94555  -0.00014   0.00452  -0.00369   0.00083  -0.94472
   D30        1.19123  -0.00001   0.00204  -0.00146   0.00058   1.19181
   D31        1.16238   0.00003   0.01322  -0.00855   0.00470   1.16708
   D32       -3.05157  -0.00008   0.01322  -0.00914   0.00411  -3.04746
   D33       -0.91479   0.00005   0.01074  -0.00691   0.00386  -0.91093
   D34       -0.96940   0.00005  -0.00175  -0.00051  -0.00229  -0.97170
   D35        1.09983  -0.00005  -0.00175  -0.00110  -0.00288   1.09695
   D36       -3.04657   0.00008  -0.00423   0.00113  -0.00313  -3.04970
         Item               Value     Threshold  Converged?
 Maximum Force            0.002101     0.000450     NO 
 RMS     Force            0.000504     0.000300     NO 
 Maximum Displacement     0.213889     0.001800     NO 
 RMS     Displacement     0.060116     0.001200     NO 
 Predicted change in Energy=-1.272794D-04
 GradGradGradGradGradGradGradGradGradGradGradGradGradGradGradGradGradGrad

                          Input orientation:                          
 ---------------------------------------------------------------------
 Center     Atomic      Atomic             Coordinates (Angstroms)
 Number     Number       Type             X           Y           Z
 ---------------------------------------------------------------------
      1          5           0       -1.787977    0.674189   -0.198506
      2          9           0       -1.582896    1.649366   -1.156764
      3          9           0       -2.117436    1.194139    1.044965
      4          9           0       -2.661595   -0.310082   -0.627036
      5          8           0       -0.367357   -0.052347   -0.015012
      6          6           0       -0.336771   -1.497253    0.237724
      7          6           0        0.631309   -2.159285   -0.715508
      8          6           0        0.648128    0.664600    0.767075
      9          6           0        1.008827    1.991856    0.144727
     10          1           0       -0.059653   -1.634549    1.289150
     11          1           0       -1.356978   -1.851923    0.093264
     12          1           0        0.666638   -3.232768   -0.492080
     13          1           0        0.301548   -2.026876   -1.752580
     14          1           0        1.645839   -1.753424   -0.612026
     15          1           0        0.251206    0.772734    1.783244
     16          1           0        1.516667   -0.000566    0.786631
     17          1           0        1.858139    2.396243    0.709798
     18          1           0        1.311766    1.863640   -0.900651
     19          1           0        0.184134    2.708286    0.196000
 ---------------------------------------------------------------------
                    Distance matrix (angstroms):
                    1          2          3          4          5
     1  B    0.000000
     2  F    1.382493   0.000000
     3  F    1.387484   2.310969   0.000000
     4  F    1.384065   2.298617   2.313953   0.000000
     5  O    1.606140   2.382637   2.395841   2.388416   0.000000
     6  C    2.647915   3.660414   3.326560   2.749907   1.467162
     7  C    3.761490   4.427554   4.679777   3.777644   2.434588
     8  C    2.620504   3.106186   2.829483   3.721265   1.468632
     9  C    3.110653   2.920309   3.349671   4.400742   2.469445
    10  H    3.245072   4.368852   3.506504   3.492289   2.073375
    11  H    2.579173   3.724598   3.280629   2.144326   2.056587
    12  H    4.623379   5.416405   5.450788   4.431416   3.378139
    13  H    3.751935   4.173833   4.904354   3.604781   2.713917
    14  H    4.225564   4.722334   5.059247   4.542845   2.702414
    15  H    2.845226   3.574362   2.516565   3.932728   2.072946
    16  H    3.513753   4.013271   3.834157   4.421778   2.048135
    17  H    4.133358   3.985298   4.166844   5.435008   3.387296
    18  H    3.393553   2.913859   3.999134   4.537348   2.697186
    19  H    2.860490   2.464483   2.882812   4.229196   2.823076
                    6          7          8          9         10
     6  C    0.000000
     7  C    1.511329   0.000000
     8  C    2.433895   3.189461   0.000000
     9  C    3.740743   4.256112   1.509646   0.000000
    10  H    1.095967   2.184360   2.461625   3.949957   0.000000
    11  H    1.089716   2.168379   3.287454   4.513791   1.777764
    12  H    2.133415   1.097057   4.095765   5.274402   2.500917
    13  H    2.156214   1.096263   3.703083   4.500025   3.088124
    14  H    2.172197   1.097590   2.957057   3.873703   2.556815
    15  H    2.808415   3.871044   1.096284   2.178299   2.477050
    16  H    2.444710   2.774950   1.094161   2.153993   2.325341
    17  H    4.494419   4.928433   2.113291   1.097345   4.501207
    18  H    3.912693   4.084266   2.158570   1.095913   4.348947
    19  H    4.237882   4.972330   2.172112   1.093627   4.484933
                   11         12         13         14         15
    11  H    0.000000
    12  H    2.518806   0.000000
    13  H    2.487661   1.782225   0.000000
    14  H    3.086105   1.778112   1.784028   0.000000
    15  H    3.511568   4.625337   4.510256   3.750173   0.000000
    16  H    3.487996   3.578377   3.468435   2.246205   1.786791
    17  H    5.363208   5.877921   5.296250   4.360278   2.523946
    18  H    4.681396   5.153300   4.108824   3.643907   3.085151
    19  H    4.814674   6.000199   5.121768   4.764068   2.504037
                   16         17         18         19
    16  H    0.000000
    17  H    2.422230   0.000000
    18  H    2.522730   1.782060   0.000000
    19  H    3.076096   1.778666   1.785392   0.000000
 Stoichiometry    C4H10BF3O
 Framework group  C1[X(C4H10BF3O)]
 Deg. of freedom    51
 Full point group                 C1      NOp   1
 Largest Abelian subgroup         C1      NOp   1
 Largest concise Abelian subgroup C1      NOp   1
                         Standard orientation:                         
 ---------------------------------------------------------------------
 Center     Atomic      Atomic             Coordinates (Angstroms)
 Number     Number       Type             X           Y           Z
 ---------------------------------------------------------------------
      1          5           0       -0.983521   -0.672860   -0.048464
      2          9           0       -1.625053   -0.169181   -1.164722
      3          9           0       -1.652566   -0.395453    1.134978
      4          9           0       -0.654333   -2.009898   -0.188455
      5          8           0        0.413824    0.114632    0.035024
      6          6           0        1.606128   -0.603141    0.499544
      7          6           0        2.742745   -0.381945   -0.471686
      8          6           0        0.369318    1.492673    0.540891
      9          6           0       -0.487336    2.385587   -0.323909
     10          1           0        1.830446   -0.236482    1.507703
     11          1           0        1.322570   -1.653472    0.561845
     12          1           0        3.634172   -0.897617   -0.093565
     13          1           0        2.491827   -0.790898   -1.457378
     14          1           0        2.982853    0.683460   -0.581069
     15          1           0        0.009860    1.441811    1.575320
     16          1           0        1.409075    1.833350    0.535361
     17          1           0       -0.360394    3.412253    0.042163
     18          1           0       -0.163636    2.343321   -1.370072
     19          1           0       -1.547313    2.123268   -0.263438
 ---------------------------------------------------------------------
 Rotational constants (GHZ):           1.7572041           1.4107990           1.0040387
 Standard basis: Aug-CC-pVDZ (5D, 7F)
 There are   315 symmetry adapted cartesian basis functions of A   symmetry.
 There are   297 symmetry adapted basis functions of A   symmetry.
   297 basis functions,   497 primitive gaussians,   315 cartesian basis functions
    37 alpha electrons       37 beta electrons
       nuclear repulsion energy       523.8643299050 Hartrees.
 NAtoms=   19 NActive=   19 NUniq=   19 SFac= 1.00D+00 NAtFMM=   60 NAOKFM=F Big=F
 Integral buffers will be    131072 words long.
 Raffenetti 2 integral format.
 Two-electron integral symmetry is turned on.
 Nuclear repulsion after empirical dispersion term =      523.8522840792 Hartrees.
 Force PCM accuracy= 1.00D-12.
 ------------------------------------------------------------------------------
 Polarizable Continuum Model (PCM)
 =================================
 Model                : C-PCM.
 Atomic radii         : UFF (Universal Force Field).
 Polarization charges : Total charges.
 Charge compensation  : None.
 Solution method      : On-the-fly selection.
 Cavity type          : Scaled VdW (van der Waals Surface) (Alpha=1.100).
 Cavity algorithm     : GePol (No added spheres)
                        Default sphere list used, NSphG=   19.
                        Lebedev-Laikov grids with approx.  5.0 points / Ang**2.
                        Smoothing algorithm: York/Karplus (Gamma=1.0000).
                        Polarization charges: spherical gaussians, with
                                              point-specific exponents (IZeta= 3).
                        Self-potential: point-specific (ISelfS= 7).
                        Self-field    : sphere-specific E.n sum rule (ISelfD= 2).
 1st derivatives      : Analytical E(r).r(x)/FMM algorithm (CHGder, D1EAlg=3).
                        Cavity 1st derivative terms included.
 Solvent              : Chloroform, Eps=   4.711300 Eps(inf)=   2.090627
 ------------------------------------------------------------------------------
 Spheres list:
 ISph  on   Nord     Re0    Alpha      Xe            Ye            Ze
    1   B      1    2.0415  1.100     -0.983521     -0.672860     -0.048464
    2   F      2    1.6820  1.100     -1.625053     -0.169181     -1.164722
    3   F      3    1.6820  1.100     -1.652566     -0.395453      1.134978
    4   F      4    1.6820  1.100     -0.654333     -2.009898     -0.188455
    5   O      5    1.7500  1.100      0.413824      0.114632      0.035024
    6   C      6    1.9255  1.100      1.606128     -0.603141      0.499544
    7   C      7    1.9255  1.100      2.742745     -0.381945     -0.471686
    8   C      8    1.9255  1.100      0.369318      1.492673      0.540891
    9   C      9    1.9255  1.100     -0.487336      2.385587     -0.323909
   10   H     10    1.4430  1.100      1.830446     -0.236482      1.507703
   11   H     11    1.4430  1.100      1.322570     -1.653472      0.561845
   12   H     12    1.4430  1.100      3.634172     -0.897617     -0.093565
   13   H     13    1.4430  1.100      2.491827     -0.790898     -1.457378
   14   H     14    1.4430  1.100      2.982853      0.683460     -0.581069
   15   H     15    1.4430  1.100      0.009860      1.441811      1.575320
   16   H     16    1.4430  1.100      1.409075      1.833350      0.535361
   17   H     17    1.4430  1.100     -0.360394      3.412253      0.042163
   18   H     18    1.4430  1.100     -0.163636      2.343321     -1.370072
   19   H     19    1.4430  1.100     -1.547313      2.123268     -0.263438
 ------------------------------------------------------------------------------
 One-electron integrals computed using PRISM.
 NBasis=   297 RedAO= T EigKep=  2.71D-05  NBF=   297
 NBsUse=   297 1.00D-06 EigRej= -1.00D+00 NBFU=   297
 Initial guess from the checkpoint file:  "/inspire/hdd/project/materialscienceresearch/lipenghui-253107030018/g16/00-B-DFT-Shift/04-output/BF3OEt2_CDCl3/BF3OEt2_CDCl3.chk"
 B after Tr=    -0.000000   -0.000000    0.000000
         Rot=    0.999969    0.002614    0.003906   -0.006341 Ang=   0.90 deg.
 ExpMin= 2.38D-02 ExpMax= 1.47D+04 ExpMxC= 5.03D+02 IAcc=3 IRadAn=         5 AccDes= 0.00D+00
 Harris functional with IExCor= 4639 and IRadAn=       5 diagonalized for initial guess.
 HarFok:  IExCor= 4639 AccDes= 0.00D+00 IRadAn=         5 IDoV= 1 UseB2=F ITyADJ=14
 ICtDFT=  3500011 ScaDFX=  1.000000  1.000000  1.000000  1.000000
 FoFCou: FMM=F IPFlag=           0 FMFlag=      100000 FMFlg1=           0
         NFxFlg=           0 DoJE=T BraDBF=F KetDBF=T FulRan=T
         wScrn=  0.000000 ICntrl=       500 IOpCl=  0 I1Cent=   200000004 NGrid=           0
         NMat0=    1 NMatS0=      1 NMatT0=    0 NMatD0=    1 NMtDS0=    0 NMtDT0=    0
 Petite list used in FoFCou.
 Requested convergence on RMS density matrix=1.00D-08 within 128 cycles.
 Requested convergence on MAX density matrix=1.00D-06.
 Requested convergence on             energy=1.00D-06.
 No special actions if energy rises.
 Inv3:  Mode=1 IEnd=     6967728.
 Iteration    1 A*A^-1 deviation from unit magnitude is 3.66D-15 for   1493.
 Iteration    1 A*A^-1 deviation from orthogonality  is 3.01D-15 for   1519    800.
 Iteration    1 A^-1*A deviation from unit magnitude is 4.11D-15 for   1493.
 Iteration    1 A^-1*A deviation from orthogonality  is 1.34D-15 for   1501   1142.
 Error on total polarization charges =  0.00900
 SCF Done:  E(RwB97XD) =  -558.149112666     A.U. after   11 cycles
            NFock= 11  Conv=0.29D-08     -V/T= 2.0060
 D1PCM: C-PCM CHGder 1st derivatives, ID1Alg=3 FixD1E=F DoIter=F DoCFld=F I1PDM=0.
 Calling FoFJK, ICntrl=      2127 FMM=F ISym2X=0 I1Cent= 0 IOpClX= 0 NMat=1 NMatS=1 NMatT=0.
 ***** Axes restored to original set *****
 -------------------------------------------------------------------
 Center     Atomic                   Forces (Hartrees/Bohr)
 Number     Number              X              Y              Z
 -------------------------------------------------------------------
      1        5          -0.000174936   -0.000019223   -0.000473738
      2        9          -0.000025815   -0.000019524   -0.000067456
      3        9          -0.000065039   -0.000096829    0.000131595
      4        9           0.000069509    0.000030684    0.000046567
      5        8          -0.000290649    0.000428795    0.000906894
      6        6           0.000198862   -0.000555924   -0.000125105
      7        6          -0.000043519    0.000563835   -0.000167034
      8        6           0.000347087   -0.000236231    0.000049312
      9        6          -0.000199874   -0.000255638   -0.000029695
     10        1           0.000128041    0.000086490    0.000093013
     11        1           0.000002387    0.000140259   -0.000308574
     12        1           0.000105328   -0.000140566    0.000009530
     13        1          -0.000161769   -0.000029339    0.000067039
     14        1          -0.000013302   -0.000663859    0.000084340
     15        1          -0.000015148    0.000048145   -0.000077137
     16        1          -0.000135484    0.000381706   -0.000215633
     17        1           0.000062711    0.000185707   -0.000008001
     18        1           0.000127054    0.000008480    0.000035133
     19        1           0.000084554    0.000143031    0.000048951
 -------------------------------------------------------------------
 Cartesian Forces:  Max     0.000906894 RMS     0.000242443

 GradGradGradGradGradGradGradGradGradGradGradGradGradGradGradGradGradGrad
 Berny optimization.
 Using GEDIIS/GDIIS optimizer.
 FormGI is forming the generalized inverse of G from B-inverse, IUseBI=4.
 Internal  Forces:  Max     0.000976006 RMS     0.000223163
 Search for a local minimum.
 Step number  13 out of a maximum of   97
 All quantities printed in internal units (Hartrees-Bohrs-Radians)
 Mixed Optimization -- En-DIIS/RFO-DIIS
 Swapping is turned off.
 Update second derivatives using D2CorX and points   10   11   12   13
 DE= -1.26D-04 DEPred=-1.27D-04 R= 9.86D-01
 TightC=F SS=  1.41D+00  RLast= 2.57D-01 DXNew= 1.6254D+00 7.6981D-01
 Trust test= 9.86D-01 RLast= 2.57D-01 DXMaxT set to 9.66D-01
 ITU=  1  1  1  0  1  1  1  1  1  1  1  1  0
     Eigenvalues ---    0.00181   0.00282   0.00366   0.01240   0.01461
     Eigenvalues ---    0.01924   0.04502   0.04694   0.05151   0.05317
     Eigenvalues ---    0.05407   0.05676   0.05755   0.05880   0.07504
     Eigenvalues ---    0.09639   0.10431   0.12663   0.12903   0.12968
     Eigenvalues ---    0.13349   0.15999   0.16002   0.16023   0.16048
     Eigenvalues ---    0.16439   0.16983   0.21141   0.21612   0.25068
     Eigenvalues ---    0.25162   0.25498   0.26617   0.28362   0.28504
     Eigenvalues ---    0.28711   0.29667   0.31819   0.31949   0.31990
     Eigenvalues ---    0.32048   0.32108   0.32157   0.32183   0.32200
     Eigenvalues ---    0.32598   0.32996   0.37863   0.40368   0.40985
     Eigenvalues ---    0.48574
 En-DIIS/RFO-DIIS/Sim-DIIS IScMMF=       -3 using points:    13   12   11
 RFO step:  Lambda=-4.98863399D-05.
 DidBck=T Rises=F RFO-DIIS coefs:    0.63390    0.69227   -0.32617
 Iteration  1 RMS(Cart)=  0.00710221 RMS(Int)=  0.00006784
 Iteration  2 RMS(Cart)=  0.00005639 RMS(Int)=  0.00004099
 Iteration  3 RMS(Cart)=  0.00000000 RMS(Int)=  0.00004099
 Variable       Old X    -DE/DX   Delta X   Delta X   Delta X     New X
                                 (Linear)    (Quad)   (Total)
    R1        2.61253   0.00003   0.00048   0.00037   0.00086   2.61339
    R2        2.62196   0.00009   0.00029   0.00095   0.00124   2.62321
    R3        2.61550  -0.00008   0.00078  -0.00014   0.00064   2.61614
    R4        3.03516   0.00017  -0.01089   0.00563  -0.00526   3.02991
    R5        2.77254   0.00054   0.00168   0.00086   0.00254   2.77507
    R6        2.77531   0.00021   0.00162   0.00095   0.00256   2.77788
    R7        2.85600   0.00005  -0.00075   0.00033  -0.00042   2.85558
    R8        2.07108   0.00011  -0.00015   0.00012  -0.00003   2.07104
    R9        2.05926  -0.00001  -0.00058   0.00045  -0.00012   2.05914
   R10        2.07314   0.00014  -0.00042   0.00061   0.00019   2.07332
   R11        2.07164  -0.00002  -0.00002  -0.00008  -0.00011   2.07153
   R12        2.07414  -0.00025   0.00016  -0.00067  -0.00051   2.07363
   R13        2.85282   0.00007  -0.00111   0.00106  -0.00005   2.85277
   R14        2.07168  -0.00006  -0.00024  -0.00003  -0.00028   2.07140
   R15        2.06766  -0.00034   0.00022  -0.00102  -0.00080   2.06686
   R16        2.07368   0.00011  -0.00017   0.00035   0.00018   2.07386
   R17        2.07098   0.00000  -0.00027   0.00018  -0.00009   2.07089
   R18        2.06666   0.00003  -0.00020   0.00004  -0.00016   2.06649
    A1        1.97369   0.00011  -0.00272   0.00231  -0.00046   1.97324
    A2        1.96129  -0.00001  -0.00120   0.00043  -0.00082   1.96048
    A3        1.84113   0.00008   0.00227  -0.00040   0.00183   1.84297
    A4        1.97588  -0.00004  -0.00108   0.00009  -0.00102   1.97486
    A5        1.85162  -0.00004   0.00150  -0.00059   0.00088   1.85251
    A6        1.84624  -0.00011   0.00234  -0.00233  -0.00002   1.84622
    A7        2.07557  -0.00064   0.00193  -0.00270  -0.00090   2.07467
    A8        2.03935   0.00020   0.00015   0.00315   0.00313   2.04248
    A9        1.95478   0.00052  -0.00149   0.00371   0.00200   1.95678
   A10        1.91358   0.00098  -0.00199   0.00332   0.00132   1.91490
   A11        1.86911  -0.00025  -0.00154   0.00099  -0.00057   1.86853
   A12        1.85269  -0.00050   0.00066  -0.00454  -0.00382   1.84887
   A13        1.96953  -0.00013  -0.00093   0.00252   0.00150   1.97103
   A14        1.95358  -0.00038   0.00387  -0.00451  -0.00065   1.95293
   A15        1.89983   0.00027  -0.00007   0.00201   0.00189   1.90172
   A16        1.89738  -0.00002   0.00039  -0.00168  -0.00129   1.89609
   A17        1.92952  -0.00024   0.00115  -0.00150  -0.00037   1.92916
   A18        1.95049   0.00055  -0.00384   0.00613   0.00228   1.95276
   A19        1.89709   0.00002   0.00045  -0.00111  -0.00067   1.89643
   A20        1.88900  -0.00038   0.00259  -0.00430  -0.00170   1.88730
   A21        1.89924   0.00005  -0.00056   0.00221   0.00163   1.90086
   A22        1.95505   0.00010  -0.00046   0.00109   0.00064   1.95569
   A23        1.86650  -0.00004  -0.00176   0.00065  -0.00111   1.86539
   A24        1.83549   0.00008  -0.00186   0.00066  -0.00120   1.83430
   A25        1.96266  -0.00004   0.00073  -0.00023   0.00047   1.96312
   A26        1.93070  -0.00021   0.00246  -0.00291  -0.00047   1.93023
   A27        1.90795   0.00013   0.00072   0.00093   0.00159   1.90953
   A28        1.87196   0.00017  -0.00149   0.00113  -0.00036   1.87160
   A29        1.93524  -0.00001  -0.00020   0.00035   0.00015   1.93538
   A30        1.95675   0.00016  -0.00097   0.00193   0.00096   1.95772
   A31        1.89691  -0.00012   0.00102  -0.00173  -0.00071   1.89620
   A32        1.89451  -0.00019   0.00175  -0.00241  -0.00066   1.89385
   A33        1.90690  -0.00002  -0.00001   0.00054   0.00053   1.90743
    D1       -2.51213   0.00020  -0.00461   0.00593   0.00137  -2.51076
    D2        1.33795  -0.00013  -0.00397  -0.00153  -0.00555   1.33240
    D3        1.67275   0.00006  -0.00325   0.00375   0.00055   1.67330
    D4       -0.76036  -0.00028  -0.00261  -0.00370  -0.00637  -0.76672
    D5       -0.43063   0.00018  -0.00386   0.00511   0.00130  -0.42932
    D6       -2.86374  -0.00016  -0.00322  -0.00234  -0.00561  -2.86935
    D7        2.26928  -0.00033   0.01382  -0.01763  -0.00384   2.26544
    D8       -1.87147  -0.00006   0.01037  -0.01197  -0.00158  -1.87305
    D9        0.15604  -0.00011   0.00987  -0.01138  -0.00153   0.15451
   D10       -1.54892  -0.00010   0.01384  -0.01057   0.00326  -1.54566
   D11        0.59351   0.00017   0.01039  -0.00490   0.00552   0.59903
   D12        2.62102   0.00011   0.00989  -0.00432   0.00557   2.62659
   D13       -1.06225  -0.00007   0.00086   0.00164   0.00247  -1.05977
   D14        1.09549  -0.00008   0.00024   0.00248   0.00270   1.09819
   D15        3.12285   0.00009  -0.00069   0.00415   0.00344   3.12629
   D16        2.74080   0.00007  -0.00002  -0.00281  -0.00281   2.73799
   D17       -1.38464   0.00005  -0.00064  -0.00196  -0.00258  -1.38723
   D18        0.64271   0.00022  -0.00158  -0.00030  -0.00184   0.64087
   D19        3.10996   0.00023  -0.00730   0.02441   0.01712   3.12708
   D20       -1.09214   0.00010  -0.00584   0.02112   0.01529  -1.07685
   D21        1.02614   0.00038  -0.00844   0.02708   0.01867   1.04481
   D22        1.02825  -0.00004  -0.00331   0.01927   0.01597   1.04422
   D23        3.10934  -0.00017  -0.00185   0.01598   0.01414   3.12348
   D24       -1.05557   0.00012  -0.00445   0.02194   0.01751  -1.03805
   D25       -1.12207   0.00000  -0.00529   0.01815   0.01283  -1.10924
   D26        0.95902  -0.00013  -0.00383   0.01486   0.01100   0.97002
   D27        3.07730   0.00015  -0.00642   0.02082   0.01438   3.09167
   D28       -3.01337  -0.00002   0.00119  -0.00268  -0.00149  -3.01486
   D29       -0.94472  -0.00007   0.00140  -0.00389  -0.00249  -0.94721
   D30        1.19181   0.00001   0.00056  -0.00157  -0.00101   1.19080
   D31        1.16708  -0.00001   0.00327  -0.00413  -0.00084   1.16624
   D32       -3.04746  -0.00006   0.00349  -0.00534  -0.00184  -3.04930
   D33       -0.91093   0.00002   0.00264  -0.00302  -0.00036  -0.91129
   D34       -0.97170   0.00001   0.00018  -0.00305  -0.00288  -0.97458
   D35        1.09695  -0.00004   0.00040  -0.00426  -0.00388   1.09307
   D36       -3.04970   0.00004  -0.00045  -0.00194  -0.00240  -3.05211
         Item               Value     Threshold  Converged?
 Maximum Force            0.000976     0.000450     NO 
 RMS     Force            0.000223     0.000300     YES
 Maximum Displacement     0.028638     0.001800     NO 
 RMS     Displacement     0.007104     0.001200     NO 
 Predicted change in Energy=-1.971859D-05
 GradGradGradGradGradGradGradGradGradGradGradGradGradGradGradGradGradGrad

                          Input orientation:                          
 ---------------------------------------------------------------------
 Center     Atomic      Atomic             Coordinates (Angstroms)
 Number     Number       Type             X           Y           Z
 ---------------------------------------------------------------------
      1          5           0       -1.787737    0.670744   -0.197312
      2          9           0       -1.584965    1.647923   -1.154675
      3          9           0       -2.122929    1.189011    1.046062
      4          9           0       -2.658350   -0.315457   -0.628603
      5          8           0       -0.368403   -0.051496   -0.011264
      6          6           0       -0.336414   -1.498136    0.239176
      7          6           0        0.630998   -2.159394   -0.714918
      8          6           0        0.649985    0.667635    0.767585
      9          6           0        1.009211    1.994140    0.142851
     10          1           0       -0.060703   -1.636343    1.290835
     11          1           0       -1.357110   -1.849894    0.091586
     12          1           0        0.652209   -3.235646   -0.502830
     13          1           0        0.308688   -2.012690   -1.752350
     14          1           0        1.649950   -1.768578   -0.600422
     15          1           0        0.254986    0.776474    1.784269
     16          1           0        1.518113    0.002551    0.784219
     17          1           0        1.859031    2.399549    0.706605
     18          1           0        1.311971    1.864578   -0.902363
     19          1           0        0.185006    2.711011    0.193965
 ---------------------------------------------------------------------
                    Distance matrix (angstroms):
                    1          2          3          4          5
     1  B    0.000000
     2  F    1.382946   0.000000
     3  F    1.388141   2.311547   0.000000
     4  F    1.384403   2.298645   2.314002   0.000000
     5  O    1.603357   2.382318   2.394819   2.386344   0.000000
     6  C    2.645922   3.660518   3.326179   2.746481   1.468506
     7  C    3.758706   4.427137   4.679421   3.771917   2.436630
     8  C    2.621741   3.106614   2.835213   3.723022   1.469990
     9  C    3.112877   2.921162   3.357726   4.402315   2.471072
    10  H    3.243436   4.369244   3.506468   3.489520   2.074098
    11  H    2.573425   3.720189   3.276042   2.136912   2.054837
    12  H    4.615903   5.411016   5.447756   4.416234   3.379659
    13  H    3.743522   4.164520   4.898445   3.598155   2.708526
    14  H    4.234440   4.737547   5.068813   4.546845   2.714632
    15  H    2.847905   3.575225   2.523810   3.937232   2.073183
    16  H    3.512624   4.011939   3.838417   4.420412   2.048086
    17  H    4.135789   3.986278   4.175720   5.436981   3.388867
    18  H    3.395663   2.915962   4.006406   4.537724   2.699825
    19  H    2.864875   2.466127   2.892943   4.233297   2.824859
                    6          7          8          9         10
     6  C    0.000000
     7  C    1.511107   0.000000
     8  C    2.437778   3.192221   0.000000
     9  C    3.743791   4.258011   1.509619   0.000000
    10  H    1.095948   2.185195   2.467222   3.955122   0.000000
    11  H    1.089650   2.167674   3.289887   4.514277   1.778896
    12  H    2.132343   1.097155   4.104822   5.281572   2.506640
    13  H    2.155713   1.096207   3.694685   4.487449   3.088537
    14  H    2.173408   1.097320   2.967576   3.888579   2.553560
    15  H    2.812635   3.873841   1.096137   2.178490   2.482907
    16  H    2.447121   2.776399   1.093737   2.153314   2.331372
    17  H    4.497823   4.930796   2.113063   1.097438   4.507231
    18  H    3.915116   4.085488   2.158616   1.095866   4.353252
    19  H    4.241562   4.974518   2.172701   1.093540   4.490322
                   11         12         13         14         15
    11  H    0.000000
    12  H    2.512171   0.000000
    13  H    2.490279   1.781833   0.000000
    14  H    3.086729   1.776878   1.784800   0.000000
    15  H    3.515941   4.635268   4.504442   3.756323   0.000000
    16  H    3.489728   3.590571   3.458046   2.252001   1.787330
    17  H    5.364660   5.888511   5.283736   4.373250   2.523627
    18  H    4.680730   5.158216   4.094174   3.661315   3.085317
    19  H    4.815648   6.005542   5.110459   4.779522   2.505274
                   16         17         18         19
    16  H    0.000000
    17  H    2.422364   0.000000
    18  H    2.520754   1.781641   0.000000
    19  H    3.075928   1.778249   1.785618   0.000000
 Stoichiometry    C4H10BF3O
 Framework group  C1[X(C4H10BF3O)]
 Deg. of freedom    51
 Full point group                 C1      NOp   1
 Largest Abelian subgroup         C1      NOp   1
 Largest concise Abelian subgroup C1      NOp   1
                         Standard orientation:                         
 ---------------------------------------------------------------------
 Center     Atomic      Atomic             Coordinates (Angstroms)
 Number     Number       Type             X           Y           Z
 ---------------------------------------------------------------------
      1          5           0       -0.980421   -0.674669   -0.048618
      2          9           0       -1.625323   -0.171134   -1.163558
      3          9           0       -1.651943   -0.404978    1.135975
      4          9           0       -0.646141   -2.010343   -0.192848
      5          8           0        0.411562    0.116292    0.038075
      6          6           0        1.606969   -0.600815    0.499888
      7          6           0        2.742551   -0.377444   -0.471710
      8          6           0        0.365249    1.496602    0.541530
      9          6           0       -0.492426    2.387318   -0.324478
     10          1           0        1.830551   -0.236585    1.509071
     11          1           0        1.322158   -1.651004    0.557532
     12          1           0        3.629278   -0.907728   -0.102572
     13          1           0        2.484864   -0.771806   -1.461531
     14          1           0        2.995756    0.685963   -0.567434
     15          1           0        0.006117    1.446208    1.575939
     16          1           0        1.404418    1.837673    0.533798
     17          1           0       -0.367319    3.414436    0.041235
     18          1           0       -0.167446    2.345753   -1.370223
     19          1           0       -1.552171    2.124234   -0.264828
 ---------------------------------------------------------------------
 Rotational constants (GHZ):           1.7544423           1.4115707           1.0036983
 Standard basis: Aug-CC-pVDZ (5D, 7F)
 There are   315 symmetry adapted cartesian basis functions of A   symmetry.
 There are   297 symmetry adapted basis functions of A   symmetry.
   297 basis functions,   497 primitive gaussians,   315 cartesian basis functions
    37 alpha electrons       37 beta electrons
       nuclear repulsion energy       523.7658313758 Hartrees.
 NAtoms=   19 NActive=   19 NUniq=   19 SFac= 1.00D+00 NAtFMM=   60 NAOKFM=F Big=F
 Integral buffers will be    131072 words long.
 Raffenetti 2 integral format.
 Two-electron integral symmetry is turned on.
 Nuclear repulsion after empirical dispersion term =      523.7537884606 Hartrees.
 Force PCM accuracy= 1.00D-12.
 ------------------------------------------------------------------------------
 Polarizable Continuum Model (PCM)
 =================================
 Model                : C-PCM.
 Atomic radii         : UFF (Universal Force Field).
 Polarization charges : Total charges.
 Charge compensation  : None.
 Solution method      : On-the-fly selection.
 Cavity type          : Scaled VdW (van der Waals Surface) (Alpha=1.100).
 Cavity algorithm     : GePol (No added spheres)
                        Default sphere list used, NSphG=   19.
                        Lebedev-Laikov grids with approx.  5.0 points / Ang**2.
                        Smoothing algorithm: York/Karplus (Gamma=1.0000).
                        Polarization charges: spherical gaussians, with
                                              point-specific exponents (IZeta= 3).
                        Self-potential: point-specific (ISelfS= 7).
                        Self-field    : sphere-specific E.n sum rule (ISelfD= 2).
 1st derivatives      : Analytical E(r).r(x)/FMM algorithm (CHGder, D1EAlg=3).
                        Cavity 1st derivative terms included.
 Solvent              : Chloroform, Eps=   4.711300 Eps(inf)=   2.090627
 ------------------------------------------------------------------------------
 Spheres list:
 ISph  on   Nord     Re0    Alpha      Xe            Ye            Ze
    1   B      1    2.0415  1.100     -0.980421     -0.674669     -0.048618
    2   F      2    1.6820  1.100     -1.625323     -0.171134     -1.163558
    3   F      3    1.6820  1.100     -1.651943     -0.404978      1.135975
    4   F      4    1.6820  1.100     -0.646141     -2.010343     -0.192848
    5   O      5    1.7500  1.100      0.411562      0.116292      0.038075
    6   C      6    1.9255  1.100      1.606969     -0.600815      0.499888
    7   C      7    1.9255  1.100      2.742551     -0.377444     -0.471710
    8   C      8    1.9255  1.100      0.365249      1.496602      0.541530
    9   C      9    1.9255  1.100     -0.492426      2.387318     -0.324478
   10   H     10    1.4430  1.100      1.830551     -0.236585      1.509071
   11   H     11    1.4430  1.100      1.322158     -1.651004      0.557532
   12   H     12    1.4430  1.100      3.629278     -0.907728     -0.102572
   13   H     13    1.4430  1.100      2.484864     -0.771806     -1.461531
   14   H     14    1.4430  1.100      2.995756      0.685963     -0.567434
   15   H     15    1.4430  1.100      0.006117      1.446208      1.575939
   16   H     16    1.4430  1.100      1.404418      1.837673      0.533798
   17   H     17    1.4430  1.100     -0.367319      3.414436      0.041235
   18   H     18    1.4430  1.100     -0.167446      2.345753     -1.370223
   19   H     19    1.4430  1.100     -1.552171      2.124234     -0.264828
 ------------------------------------------------------------------------------
 One-electron integrals computed using PRISM.
 NBasis=   297 RedAO= T EigKep=  2.72D-05  NBF=   297
 NBsUse=   297 1.00D-06 EigRej= -1.00D+00 NBFU=   297
 Initial guess from the checkpoint file:  "/inspire/hdd/project/materialscienceresearch/lipenghui-253107030018/g16/00-B-DFT-Shift/04-output/BF3OEt2_CDCl3/BF3OEt2_CDCl3.chk"
 B after Tr=    -0.000000   -0.000000   -0.000000
         Rot=    0.999999   -0.000573    0.000028   -0.001106 Ang=  -0.14 deg.
 ExpMin= 2.38D-02 ExpMax= 1.47D+04 ExpMxC= 5.03D+02 IAcc=3 IRadAn=         5 AccDes= 0.00D+00
 Harris functional with IExCor= 4639 and IRadAn=       5 diagonalized for initial guess.
 HarFok:  IExCor= 4639 AccDes= 0.00D+00 IRadAn=         5 IDoV= 1 UseB2=F ITyADJ=14
 ICtDFT=  3500011 ScaDFX=  1.000000  1.000000  1.000000  1.000000
 FoFCou: FMM=F IPFlag=           0 FMFlag=      100000 FMFlg1=           0
         NFxFlg=           0 DoJE=T BraDBF=F KetDBF=T FulRan=T
         wScrn=  0.000000 ICntrl=       500 IOpCl=  0 I1Cent=   200000004 NGrid=           0
         NMat0=    1 NMatS0=      1 NMatT0=    0 NMatD0=    1 NMtDS0=    0 NMtDT0=    0
 Petite list used in FoFCou.
 Requested convergence on RMS density matrix=1.00D-08 within 128 cycles.
 Requested convergence on MAX density matrix=1.00D-06.
 Requested convergence on             energy=1.00D-06.
 No special actions if energy rises.
 Inv3:  Mode=1 IEnd=     7031883.
 Iteration    1 A*A^-1 deviation from unit magnitude is 4.66D-15 for   1504.
 Iteration    1 A*A^-1 deviation from orthogonality  is 2.09D-15 for   1502   1028.
 Iteration    1 A^-1*A deviation from unit magnitude is 4.66D-15 for   1504.
 Iteration    1 A^-1*A deviation from orthogonality  is 1.41D-15 for   1520    785.
 Error on total polarization charges =  0.00900
 SCF Done:  E(RwB97XD) =  -558.149130784     A.U. after    9 cycles
            NFock=  9  Conv=0.58D-08     -V/T= 2.0060
 D1PCM: C-PCM CHGder 1st derivatives, ID1Alg=3 FixD1E=F DoIter=F DoCFld=F I1PDM=0.
 Calling FoFJK, ICntrl=      2127 FMM=F ISym2X=0 I1Cent= 0 IOpClX= 0 NMat=1 NMatS=1 NMatT=0.
 ***** Axes restored to original set *****
 -------------------------------------------------------------------
 Center     Atomic                   Forces (Hartrees/Bohr)
 Number     Number              X              Y              Z
 -------------------------------------------------------------------
      1        5          -0.000451899    0.000238592   -0.000319485
      2        9           0.000013171   -0.000107529    0.000081991
      3        9           0.000066769   -0.000106782   -0.000057504
      4        9          -0.000050209    0.000138206   -0.000014786
      5        8           0.000568023    0.000157214    0.000901453
      6        6           0.000007988    0.000204427   -0.000222205
      7        6          -0.000055594    0.000343188   -0.000043701
      8        6          -0.000347343   -0.000485185   -0.000303140
      9        6          -0.000114287   -0.000246439   -0.000009797
     10        1           0.000125963    0.000032510    0.000063928
     11        1           0.000110535   -0.000125199   -0.000128484
     12        1           0.000068184   -0.000126211    0.000024083
     13        1          -0.000137674   -0.000014676    0.000033666
     14        1           0.000050965   -0.000391493    0.000034270
     15        1           0.000020562    0.000053224    0.000011629
     16        1           0.000036245    0.000189818   -0.000087329
     17        1           0.000041531    0.000131336    0.000004507
     18        1           0.000068236    0.000005572   -0.000007084
     19        1          -0.000021164    0.000109428    0.000037987
 -------------------------------------------------------------------
 Cartesian Forces:  Max     0.000901453 RMS     0.000216364

 GradGradGradGradGradGradGradGradGradGradGradGradGradGradGradGradGradGrad
 Berny optimization.
 Using GEDIIS/GDIIS optimizer.
 FormGI is forming the generalized inverse of G from B-inverse, IUseBI=4.
 Internal  Forces:  Max     0.000568371 RMS     0.000145078
 Search for a local minimum.
 Step number  14 out of a maximum of   97
 All quantities printed in internal units (Hartrees-Bohrs-Radians)
 Mixed Optimization -- En-DIIS/RFO-DIIS
 Swapping is turned off.
 Update second derivatives using D2CorX and points   10   11   12   13   14
 DE= -1.81D-05 DEPred=-1.97D-05 R= 9.19D-01
 TightC=F SS=  1.41D+00  RLast= 5.02D-02 DXNew= 1.6254D+00 1.5068D-01
 Trust test= 9.19D-01 RLast= 5.02D-02 DXMaxT set to 9.66D-01
 ITU=  1  1  1  1  0  1  1  1  1  1  1  1  1  0
     Eigenvalues ---    0.00203   0.00279   0.00289   0.01319   0.01421
     Eigenvalues ---    0.01940   0.04498   0.04960   0.05173   0.05329
     Eigenvalues ---    0.05415   0.05503   0.05744   0.05887   0.08316
     Eigenvalues ---    0.09662   0.10463   0.12699   0.12896   0.12975
     Eigenvalues ---    0.13430   0.15899   0.16002   0.16016   0.16044
     Eigenvalues ---    0.16367   0.16504   0.21097   0.21926   0.24312
     Eigenvalues ---    0.25163   0.25358   0.27901   0.28380   0.28568
     Eigenvalues ---    0.28709   0.30145   0.31803   0.31943   0.32039
     Eigenvalues ---    0.32059   0.32107   0.32159   0.32179   0.32201
     Eigenvalues ---    0.32705   0.33431   0.37951   0.40329   0.41782
     Eigenvalues ---    0.50029
 En-DIIS/RFO-DIIS/Sim-DIIS IScMMF=       -3 using points:    14   13   12   11
 RFO step:  Lambda=-2.06491308D-05.
 DidBck=F Rises=F RFO-DIIS coefs:    1.76631   -0.61435   -0.36801    0.21605
 Iteration  1 RMS(Cart)=  0.00849104 RMS(Int)=  0.00007236
 Iteration  2 RMS(Cart)=  0.00006808 RMS(Int)=  0.00003004
 Iteration  3 RMS(Cart)=  0.00000000 RMS(Int)=  0.00003004
 Variable       Old X    -DE/DX   Delta X   Delta X   Delta X     New X
                                 (Linear)    (Quad)   (Total)
    R1        2.61339  -0.00013   0.00003  -0.00103  -0.00100   2.61239
    R2        2.62321  -0.00011   0.00040  -0.00130  -0.00091   2.62230
    R3        2.61614  -0.00006  -0.00026  -0.00053  -0.00079   2.61535
    R4        3.02991   0.00048   0.00570   0.00293   0.00863   3.03853
    R5        2.77507   0.00004   0.00029  -0.00084  -0.00055   2.77452
    R6        2.77788  -0.00053   0.00014  -0.00212  -0.00198   2.77590
    R7        2.85558   0.00000   0.00032  -0.00051  -0.00019   2.85539
    R8        2.07104   0.00009   0.00021   0.00013   0.00035   2.07139
    R9        2.05914  -0.00005   0.00027  -0.00034  -0.00006   2.05908
   R10        2.07332   0.00013   0.00045   0.00013   0.00057   2.07390
   R11        2.07153   0.00000  -0.00001   0.00004   0.00003   2.07156
   R12        2.07363  -0.00009  -0.00049   0.00019  -0.00030   2.07333
   R13        2.85277  -0.00001   0.00076  -0.00060   0.00016   2.85292
   R14        2.07140   0.00001   0.00004   0.00004   0.00008   2.07148
   R15        2.06686  -0.00009  -0.00066   0.00053  -0.00013   2.06673
   R16        2.07386   0.00008   0.00027   0.00008   0.00035   2.07421
   R17        2.07089   0.00003   0.00013  -0.00005   0.00008   2.07097
   R18        2.06649   0.00009   0.00007   0.00018   0.00025   2.06674
    A1        1.97324   0.00008   0.00193  -0.00017   0.00179   1.97503
    A2        1.96048  -0.00007   0.00036   0.00011   0.00049   1.96097
    A3        1.84297  -0.00009  -0.00062  -0.00064  -0.00124   1.84173
    A4        1.97486  -0.00004   0.00013   0.00046   0.00061   1.97547
    A5        1.85251  -0.00017  -0.00081  -0.00124  -0.00203   1.85048
    A6        1.84622   0.00029  -0.00156   0.00143  -0.00011   1.84611
    A7        2.07467  -0.00000  -0.00283   0.00259  -0.00017   2.07450
    A8        2.04248  -0.00008   0.00166   0.00021   0.00200   2.04448
    A9        1.95678   0.00014   0.00209  -0.00113   0.00111   1.95790
   A10        1.91490   0.00057   0.00296  -0.00030   0.00266   1.91756
   A11        1.86853  -0.00019   0.00090  -0.00101  -0.00010   1.86844
   A12        1.84887  -0.00010  -0.00325   0.00282  -0.00046   1.84841
   A13        1.97103  -0.00009   0.00139  -0.00146  -0.00001   1.97102
   A14        1.95293  -0.00035  -0.00358   0.00029  -0.00328   1.94966
   A15        1.90172   0.00016   0.00138  -0.00013   0.00129   1.90301
   A16        1.89609  -0.00002  -0.00144  -0.00008  -0.00152   1.89457
   A17        1.92916  -0.00019  -0.00099  -0.00011  -0.00109   1.92806
   A18        1.95276   0.00038   0.00457  -0.00077   0.00380   1.95656
   A19        1.89643   0.00003  -0.00091   0.00005  -0.00086   1.89557
   A20        1.88730  -0.00024  -0.00317   0.00035  -0.00283   1.88447
   A21        1.90086   0.00004   0.00173   0.00059   0.00232   1.90318
   A22        1.95569  -0.00015   0.00093  -0.00069   0.00023   1.95592
   A23        1.86539   0.00007   0.00064   0.00006   0.00069   1.86609
   A24        1.83430   0.00015   0.00064  -0.00012   0.00051   1.83481
   A25        1.96312  -0.00002  -0.00043  -0.00037  -0.00078   1.96234
   A26        1.93023  -0.00008  -0.00223   0.00080  -0.00141   1.92882
   A27        1.90953   0.00004   0.00055   0.00033   0.00093   1.91046
   A28        1.87160   0.00013   0.00073  -0.00004   0.00069   1.87228
   A29        1.93538   0.00000   0.00034  -0.00003   0.00031   1.93569
   A30        1.95772   0.00004   0.00135  -0.00058   0.00077   1.95849
   A31        1.89620  -0.00007  -0.00123   0.00036  -0.00087   1.89533
   A32        1.89385  -0.00011  -0.00172   0.00027  -0.00145   1.89240
   A33        1.90743  -0.00000   0.00039   0.00006   0.00046   1.90789
    D1       -2.51076   0.00002   0.00193  -0.00062   0.00127  -2.50949
    D2        1.33240  -0.00011  -0.00093  -0.00258  -0.00347   1.32893
    D3        1.67330   0.00006   0.00035   0.00050   0.00082   1.67412
    D4       -0.76672  -0.00007  -0.00251  -0.00145  -0.00392  -0.77064
    D5       -0.42932   0.00003   0.00135  -0.00012   0.00119  -0.42814
    D6       -2.86935  -0.00009  -0.00151  -0.00208  -0.00355  -2.87290
    D7        2.26544  -0.00017  -0.00365  -0.00035  -0.00398   2.26146
    D8       -1.87305  -0.00005   0.00049  -0.00294  -0.00246  -1.87552
    D9        0.15451  -0.00001   0.00094  -0.00220  -0.00125   0.15326
   D10       -1.54566  -0.00012  -0.00103   0.00193   0.00091  -1.54475
   D11        0.59903  -0.00001   0.00311  -0.00065   0.00243   0.60146
   D12        2.62659   0.00004   0.00356   0.00009   0.00364   2.63023
   D13       -1.05977   0.00008   0.00434   0.00457   0.00894  -1.05083
   D14        1.09819   0.00002   0.00485   0.00371   0.00859   1.10678
   D15        3.12629   0.00016   0.00612   0.00405   0.01020   3.13649
   D16        2.73799   0.00001   0.00373   0.00133   0.00504   2.74303
   D17       -1.38723  -0.00006   0.00423   0.00047   0.00468  -1.38254
   D18        0.64087   0.00009   0.00551   0.00082   0.00630   0.64716
   D19        3.12708   0.00006   0.02074  -0.00208   0.01866  -3.13745
   D20       -1.07685  -0.00003   0.01816  -0.00212   0.01603  -1.06082
   D21        1.04481   0.00015   0.02283  -0.00198   0.02084   1.06565
   D22        1.04422  -0.00004   0.01662   0.00035   0.01696   1.06118
   D23        3.12348  -0.00013   0.01404   0.00030   0.01433   3.13781
   D24       -1.03805   0.00005   0.01871   0.00045   0.01914  -1.01891
   D25       -1.10924   0.00009   0.01635   0.00141   0.01778  -1.09146
   D26        0.97002  -0.00000   0.01377   0.00136   0.01515   0.98517
   D27        3.09167   0.00017   0.01844   0.00150   0.01996   3.11163
   D28       -3.01486  -0.00004  -0.00206  -0.00058  -0.00264  -3.01750
   D29       -0.94721  -0.00004  -0.00291  -0.00020  -0.00311  -0.95031
   D30        1.19080  -0.00001  -0.00119  -0.00055  -0.00175   1.18906
   D31        1.16624  -0.00002  -0.00324   0.00010  -0.00315   1.16309
   D32       -3.04930  -0.00002  -0.00409   0.00049  -0.00361  -3.05291
   D33       -0.91129   0.00001  -0.00238   0.00014  -0.00225  -0.91354
   D34       -0.97458   0.00001  -0.00212  -0.00065  -0.00276  -0.97735
   D35        1.09307  -0.00000  -0.00298  -0.00027  -0.00323   1.08984
   D36       -3.05211   0.00003  -0.00126  -0.00062  -0.00187  -3.05398
         Item               Value     Threshold  Converged?
 Maximum Force            0.000568     0.000450     NO 
 RMS     Force            0.000145     0.000300     YES
 Maximum Displacement     0.043154     0.001800     NO 
 RMS     Displacement     0.008489     0.001200     NO 
 Predicted change in Energy=-9.221099D-06
 GradGradGradGradGradGradGradGradGradGradGradGradGradGradGradGradGradGrad

                          Input orientation:                          
 ---------------------------------------------------------------------
 Center     Atomic      Atomic             Coordinates (Angstroms)
 Number     Number       Type             X           Y           Z
 ---------------------------------------------------------------------
      1          5           0       -1.789495    0.671960   -0.199078
      2          9           0       -1.583863    1.647554   -1.156684
      3          9           0       -2.124959    1.189459    1.044007
      4          9           0       -2.658464   -0.314802   -0.631060
      5          8           0       -0.366128   -0.051514   -0.009268
      6          6           0       -0.334105   -1.497915    0.240835
      7          6           0        0.630829   -2.162769   -0.713112
      8          6           0        0.653170    0.668012    0.766044
      9          6           0        1.005401    1.997573    0.143627
     10          1           0       -0.058339   -1.636240    1.292653
     11          1           0       -1.354656   -1.849403    0.091843
     12          1           0        0.634630   -3.241369   -0.510568
     13          1           0        0.315525   -2.002817   -1.750757
     14          1           0        1.655755   -1.791415   -0.589092
     15          1           0        0.263373    0.773360    1.785146
     16          1           0        1.524105    0.006582    0.775603
     17          1           0        1.855151    2.405743    0.705853
     18          1           0        1.306518    1.872079   -0.902604
     19          1           0        0.179091    2.711902    0.199026
 ---------------------------------------------------------------------
                    Distance matrix (angstroms):
                    1          2          3          4          5
     1  B    0.000000
     2  F    1.382417   0.000000
     3  F    1.387660   2.312072   0.000000
     4  F    1.383984   2.298236   2.313715   0.000000
     5  O    1.607923   2.384591   2.396432   2.389718   0.000000
     6  C    2.649536   3.661821   3.327795   2.750019   1.468214
     7  C    3.762697   4.429467   4.681801   3.773746   2.438589
     8  C    2.626421   3.108167   2.840276   3.726223   1.468943
     9  C    3.112257   2.918494   3.356022   4.401263   2.470470
    10  H    3.248069   4.371473   3.509603   3.493926   2.073906
    11  H    2.575071   3.720224   3.276379   2.139510   2.054219
    12  H    4.613844   5.407471   5.446491   4.407242   3.380531
    13  H    3.740755   4.157621   4.894618   3.598295   2.702780
    14  H    4.253243   4.758550   5.083937   4.560113   2.729737
    15  H    2.856868   3.582019   2.535065   3.944525   2.072826
    16  H    3.517482   4.010734   3.845374   4.424463   2.047530
    17  H    4.136224   3.983806   4.175520   5.437041   3.388744
    18  H    3.394191   2.910201   4.003785   4.536217   2.701112
    19  H    2.862723   2.465521   2.887987   4.231039   2.824379
                    6          7          8          9         10
     6  C    0.000000
     7  C    1.511007   0.000000
     8  C    2.437580   3.194014   0.000000
     9  C    3.744617   4.264124   1.509702   0.000000
    10  H    1.096131   2.185241   2.468428   3.956816   0.000000
    11  H    1.089618   2.165248   3.289877   4.513509   1.779837
    12  H    2.131357   1.097458   4.112583   5.292631   2.511623
    13  H    2.154851   1.096225   3.685325   4.479703   3.088122
    14  H    2.175882   1.097160   2.981669   3.913599   2.550130
    15  H    2.810795   3.872618   1.096179   2.178047   2.480367
    16  H    2.449986   2.778543   1.093668   2.152323   2.338874
    17  H    4.499736   4.937988   2.113786   1.097623   4.510366
    18  H    3.918667   4.095420   2.158941   1.095910   4.357785
    19  H    4.241188   4.979807   2.173417   1.093674   4.489847
                   11         12         13         14         15
    11  H    0.000000
    12  H    2.501545   0.000000
    13  H    2.491629   1.781546   0.000000
    14  H    3.087007   1.775170   1.786162   0.000000
    15  H    3.516273   4.639632   4.495830   3.762154   0.000000
    16  H    3.492774   3.604800   3.446860   2.261087   1.787896
    17  H    5.365271   5.904170   5.276436   4.396905   2.522559
    18  H    4.681901   5.172279   4.088551   3.693432   3.085342
    19  H    4.813457   6.012692   5.103807   4.804324   2.506156
                   16         17         18         19
    16  H    0.000000
    17  H    2.422897   0.000000
    18  H    2.518691   1.781271   0.000000
    19  H    3.075753   1.777578   1.786053   0.000000
 Stoichiometry    C4H10BF3O
 Framework group  C1[X(C4H10BF3O)]
 Deg. of freedom    51
 Full point group                 C1      NOp   1
 Largest Abelian subgroup         C1      NOp   1
 Largest concise Abelian subgroup C1      NOp   1
                         Standard orientation:                         
 ---------------------------------------------------------------------
 Center     Atomic      Atomic             Coordinates (Angstroms)
 Number     Number       Type             X           Y           Z
 ---------------------------------------------------------------------
      1          5           0       -0.981090   -0.677719   -0.048211
      2          9           0       -1.625285   -0.174697   -1.163136
      3          9           0       -1.651218   -0.409176    1.136868
      4          9           0       -0.643115   -2.011992   -0.192787
      5          8           0        0.412684    0.119213    0.039600
      6          6           0        1.609779   -0.595316    0.500104
      7          6           0        2.745355   -0.374458   -0.471919
      8          6           0        0.364785    1.499990    0.538552
      9          6           0       -0.502114    2.385049   -0.324211
     10          1           0        1.834003   -0.229999    1.508951
     11          1           0        1.326877   -1.646009    0.557341
     12          1           0        3.625962   -0.920252   -0.109903
     13          1           0        2.480308   -0.757051   -1.464432
     14          1           0        3.015484    0.685500   -0.557235
     15          1           0        0.012677    1.452426    1.575551
     16          1           0        1.402213    1.845768    0.521490
     17          1           0       -0.380699    3.413774    0.038776
     18          1           0       -0.182522    2.344075   -1.371684
     19          1           0       -1.560594    2.117856   -0.258255
 ---------------------------------------------------------------------
 Rotational constants (GHZ):           1.7538390           1.4098812           1.0025253
 Standard basis: Aug-CC-pVDZ (5D, 7F)
 There are   315 symmetry adapted cartesian basis functions of A   symmetry.
 There are   297 symmetry adapted basis functions of A   symmetry.
   297 basis functions,   497 primitive gaussians,   315 cartesian basis functions
    37 alpha electrons       37 beta electrons
       nuclear repulsion energy       523.5813890520 Hartrees.
 NAtoms=   19 NActive=   19 NUniq=   19 SFac= 1.00D+00 NAtFMM=   60 NAOKFM=F Big=F
 Integral buffers will be    131072 words long.
 Raffenetti 2 integral format.
 Two-electron integral symmetry is turned on.
 Nuclear repulsion after empirical dispersion term =      523.5693466972 Hartrees.
 Force PCM accuracy= 1.00D-12.
 ------------------------------------------------------------------------------
 Polarizable Continuum Model (PCM)
 =================================
 Model                : C-PCM.
 Atomic radii         : UFF (Universal Force Field).
 Polarization charges : Total charges.
 Charge compensation  : None.
 Solution method      : On-the-fly selection.
 Cavity type          : Scaled VdW (van der Waals Surface) (Alpha=1.100).
 Cavity algorithm     : GePol (No added spheres)
                        Default sphere list used, NSphG=   19.
                        Lebedev-Laikov grids with approx.  5.0 points / Ang**2.
                        Smoothing algorithm: York/Karplus (Gamma=1.0000).
                        Polarization charges: spherical gaussians, with
                                              point-specific exponents (IZeta= 3).
                        Self-potential: point-specific (ISelfS= 7).
                        Self-field    : sphere-specific E.n sum rule (ISelfD= 2).
 1st derivatives      : Analytical E(r).r(x)/FMM algorithm (CHGder, D1EAlg=3).
                        Cavity 1st derivative terms included.
 Solvent              : Chloroform, Eps=   4.711300 Eps(inf)=   2.090627
 ------------------------------------------------------------------------------
 Spheres list:
 ISph  on   Nord     Re0    Alpha      Xe            Ye            Ze
    1   B      1    2.0415  1.100     -0.981090     -0.677719     -0.048211
    2   F      2    1.6820  1.100     -1.625285     -0.174697     -1.163136
    3   F      3    1.6820  1.100     -1.651218     -0.409176      1.136868
    4   F      4    1.6820  1.100     -0.643115     -2.011992     -0.192787
    5   O      5    1.7500  1.100      0.412684      0.119213      0.039600
    6   C      6    1.9255  1.100      1.609779     -0.595316      0.500104
    7   C      7    1.9255  1.100      2.745355     -0.374458     -0.471919
    8   C      8    1.9255  1.100      0.364785      1.499990      0.538552
    9   C      9    1.9255  1.100     -0.502114      2.385049     -0.324211
   10   H     10    1.4430  1.100      1.834003     -0.229999      1.508951
   11   H     11    1.4430  1.100      1.326877     -1.646009      0.557341
   12   H     12    1.4430  1.100      3.625962     -0.920252     -0.109903
   13   H     13    1.4430  1.100      2.480308     -0.757051     -1.464432
   14   H     14    1.4430  1.100      3.015484      0.685500     -0.557235
   15   H     15    1.4430  1.100      0.012677      1.452426      1.575551
   16   H     16    1.4430  1.100      1.402213      1.845768      0.521490
   17   H     17    1.4430  1.100     -0.380699      3.413774      0.038776
   18   H     18    1.4430  1.100     -0.182522      2.344075     -1.371684
   19   H     19    1.4430  1.100     -1.560594      2.117856     -0.258255
 ------------------------------------------------------------------------------
 One-electron integrals computed using PRISM.
 NBasis=   297 RedAO= T EigKep=  2.71D-05  NBF=   297
 NBsUse=   297 1.00D-06 EigRej= -1.00D+00 NBFU=   297
 Initial guess from the checkpoint file:  "/inspire/hdd/project/materialscienceresearch/lipenghui-253107030018/g16/00-B-DFT-Shift/04-output/BF3OEt2_CDCl3/BF3OEt2_CDCl3.chk"
 B after Tr=     0.000000    0.000000    0.000000
         Rot=    0.999999    0.000204   -0.000279   -0.001047 Ang=   0.13 deg.
 ExpMin= 2.38D-02 ExpMax= 1.47D+04 ExpMxC= 5.03D+02 IAcc=3 IRadAn=         5 AccDes= 0.00D+00
 Harris functional with IExCor= 4639 and IRadAn=       5 diagonalized for initial guess.
 HarFok:  IExCor= 4639 AccDes= 0.00D+00 IRadAn=         5 IDoV= 1 UseB2=F ITyADJ=14
 ICtDFT=  3500011 ScaDFX=  1.000000  1.000000  1.000000  1.000000
 FoFCou: FMM=F IPFlag=           0 FMFlag=      100000 FMFlg1=           0
         NFxFlg=           0 DoJE=T BraDBF=F KetDBF=T FulRan=T
         wScrn=  0.000000 ICntrl=       500 IOpCl=  0 I1Cent=   200000004 NGrid=           0
         NMat0=    1 NMatS0=      1 NMatT0=    0 NMatD0=    1 NMtDS0=    0 NMtDT0=    0
 Petite list used in FoFCou.
 Requested convergence on RMS density matrix=1.00D-08 within 128 cycles.
 Requested convergence on MAX density matrix=1.00D-06.
 Requested convergence on             energy=1.00D-06.
 No special actions if energy rises.
 Inv3:  Mode=1 IEnd=     7068675.
 Iteration    1 A*A^-1 deviation from unit magnitude is 4.22D-15 for   1521.
 Iteration    1 A*A^-1 deviation from orthogonality  is 3.50D-15 for   1519   1267.
 Iteration    1 A^-1*A deviation from unit magnitude is 4.00D-15 for   1521.
 Iteration    1 A^-1*A deviation from orthogonality  is 3.16D-15 for   1511   1148.
 Error on total polarization charges =  0.00901
 SCF Done:  E(RwB97XD) =  -558.149143015     A.U. after    9 cycles
            NFock=  9  Conv=0.75D-08     -V/T= 2.0060
 D1PCM: C-PCM CHGder 1st derivatives, ID1Alg=3 FixD1E=F DoIter=F DoCFld=F I1PDM=0.
 Calling FoFJK, ICntrl=      2127 FMM=F ISym2X=0 I1Cent= 0 IOpClX= 0 NMat=1 NMatS=1 NMatT=0.
 ***** Axes restored to original set *****
 -------------------------------------------------------------------
 Center     Atomic                   Forces (Hartrees/Bohr)
 Number     Number              X              Y              Z
 -------------------------------------------------------------------
      1        5           0.000167249   -0.000055067   -0.000120060
      2        9          -0.000001211   -0.000059897    0.000077764
      3        9           0.000092908   -0.000029610   -0.000055097
      4        9           0.000099861    0.000024578    0.000029383
      5        8          -0.000108877    0.000166830    0.000340758
      6        6           0.000007087    0.000289620   -0.000084043
      7        6           0.000017823   -0.000043786   -0.000021004
      8        6          -0.000284346   -0.000251326   -0.000279706
      9        6           0.000019432    0.000018571    0.000030264
     10        1           0.000007060   -0.000022905   -0.000021964
     11        1          -0.000007962   -0.000044984    0.000040026
     12        1          -0.000020514   -0.000006104   -0.000003702
     13        1          -0.000012421   -0.000015338    0.000001780
     14        1          -0.000002650    0.000001092   -0.000014422
     15        1           0.000031318    0.000005622    0.000047853
     16        1           0.000043266    0.000050475    0.000025157
     17        1          -0.000016775   -0.000017535    0.000006848
     18        1          -0.000021516    0.000003141    0.000004263
     19        1          -0.000009732   -0.000013376   -0.000004098
 -------------------------------------------------------------------
 Cartesian Forces:  Max     0.000340758 RMS     0.000099824

 GradGradGradGradGradGradGradGradGradGradGradGradGradGradGradGradGradGrad
 Berny optimization.
 Using GEDIIS/GDIIS optimizer.
 FormGI is forming the generalized inverse of G from B-inverse, IUseBI=4.
 Internal  Forces:  Max     0.000363970 RMS     0.000068186
 Search for a local minimum.
 Step number  15 out of a maximum of   97
 All quantities printed in internal units (Hartrees-Bohrs-Radians)
 Mixed Optimization -- En-DIIS/RFO-DIIS
 Swapping is turned off.
 Update second derivatives using D2CorX and points   10   11   12   13   14
                                                     15
 DE= -1.22D-05 DEPred=-9.22D-06 R= 1.33D+00
 TightC=F SS=  1.41D+00  RLast= 5.92D-02 DXNew= 1.6254D+00 1.7750D-01
 Trust test= 1.33D+00 RLast= 5.92D-02 DXMaxT set to 9.66D-01
 ITU=  1  1  1  1  1  0  1  1  1  1  1  1  1  1  0
     Eigenvalues ---    0.00232   0.00279   0.00297   0.01192   0.01389
     Eigenvalues ---    0.01813   0.04507   0.05013   0.05203   0.05211
     Eigenvalues ---    0.05372   0.05569   0.05756   0.05883   0.07984
     Eigenvalues ---    0.09663   0.10527   0.12682   0.12901   0.12984
     Eigenvalues ---    0.13438   0.15924   0.16002   0.16021   0.16047
     Eigenvalues ---    0.16445   0.16622   0.20800   0.22006   0.24012
     Eigenvalues ---    0.25182   0.25514   0.27586   0.28384   0.28537
     Eigenvalues ---    0.28708   0.30034   0.31870   0.31998   0.32042
     Eigenvalues ---    0.32093   0.32118   0.32159   0.32181   0.32202
     Eigenvalues ---    0.32495   0.33395   0.38162   0.40623   0.43327
     Eigenvalues ---    0.49425
 En-DIIS/RFO-DIIS/Sim-DIIS IScMMF=       -3 using points:    15   14   13   12   11
 RFO step:  Lambda=-3.36302922D-06.
 DidBck=F Rises=F RFO-DIIS coefs:    1.06434   -0.08629    0.13137   -0.16494    0.05553
 Iteration  1 RMS(Cart)=  0.00366988 RMS(Int)=  0.00000708
 Iteration  2 RMS(Cart)=  0.00000743 RMS(Int)=  0.00000474
 Iteration  3 RMS(Cart)=  0.00000000 RMS(Int)=  0.00000474
 Variable       Old X    -DE/DX   Delta X   Delta X   Delta X     New X
                                 (Linear)    (Quad)   (Total)
    R1        2.61239  -0.00010  -0.00001  -0.00006  -0.00007   2.61232
    R2        2.62230  -0.00009   0.00005  -0.00011  -0.00005   2.62224
    R3        2.61535  -0.00009  -0.00008  -0.00003  -0.00010   2.61525
    R4        3.03853  -0.00036   0.00122  -0.00246  -0.00125   3.03729
    R5        2.77452  -0.00017  -0.00009  -0.00023  -0.00032   2.77420
    R6        2.77590  -0.00036  -0.00007  -0.00065  -0.00072   2.77518
    R7        2.85539   0.00004   0.00005  -0.00006  -0.00001   2.85538
    R8        2.07139  -0.00002  -0.00002  -0.00004  -0.00006   2.07132
    R9        2.05908   0.00002   0.00010   0.00000   0.00011   2.05918
   R10        2.07390   0.00001   0.00009   0.00001   0.00010   2.07399
   R11        2.07156  -0.00000  -0.00002   0.00002   0.00000   2.07157
   R12        2.07333  -0.00000  -0.00004   0.00005   0.00001   2.07334
   R13        2.85292  -0.00003   0.00017  -0.00022  -0.00005   2.85287
   R14        2.07148   0.00003   0.00001   0.00007   0.00008   2.07156
   R15        2.06673   0.00000  -0.00008   0.00012   0.00004   2.06678
   R16        2.07421  -0.00002   0.00004  -0.00002   0.00001   2.07422
   R17        2.07097  -0.00001   0.00004  -0.00005  -0.00001   2.07096
   R18        2.06674  -0.00000   0.00002  -0.00001   0.00001   2.06675
    A1        1.97503   0.00003   0.00034  -0.00032   0.00003   1.97506
    A2        1.96097   0.00005   0.00016  -0.00004   0.00013   1.96110
    A3        1.84173   0.00001  -0.00023   0.00051   0.00028   1.84201
    A4        1.97547   0.00009   0.00014   0.00007   0.00022   1.97568
    A5        1.85048  -0.00012  -0.00015  -0.00019  -0.00033   1.85014
    A6        1.84611  -0.00010  -0.00041   0.00002  -0.00039   1.84572
    A7        2.07450   0.00002   0.00013   0.00046   0.00059   2.07510
    A8        2.04448  -0.00002   0.00037   0.00062   0.00100   2.04548
    A9        1.95790   0.00001   0.00051   0.00003   0.00055   1.95845
   A10        1.91756   0.00010   0.00016   0.00006   0.00021   1.91777
   A11        1.86844  -0.00003   0.00010  -0.00018  -0.00007   1.86836
   A12        1.84841   0.00000  -0.00012   0.00047   0.00034   1.84876
   A13        1.97102  -0.00002   0.00032  -0.00039  -0.00005   1.97096
   A14        1.94966  -0.00005  -0.00059   0.00033  -0.00026   1.94940
   A15        1.90301   0.00000   0.00011  -0.00026  -0.00014   1.90287
   A16        1.89457  -0.00002  -0.00003  -0.00002  -0.00005   1.89451
   A17        1.92806  -0.00000  -0.00028   0.00017  -0.00011   1.92795
   A18        1.95656   0.00002   0.00070  -0.00062   0.00008   1.95664
   A19        1.89557  -0.00000  -0.00007  -0.00008  -0.00015   1.89542
   A20        1.88447   0.00001  -0.00051   0.00046  -0.00004   1.88443
   A21        1.90318  -0.00000   0.00015   0.00011   0.00027   1.90345
   A22        1.95592  -0.00005   0.00001   0.00003   0.00004   1.95596
   A23        1.86609   0.00003   0.00020   0.00001   0.00021   1.86630
   A24        1.83481   0.00006   0.00021   0.00021   0.00042   1.83523
   A25        1.96234  -0.00002  -0.00002  -0.00033  -0.00035   1.96199
   A26        1.92882  -0.00001  -0.00037   0.00016  -0.00021   1.92861
   A27        1.91046  -0.00001  -0.00000  -0.00006  -0.00005   1.91041
   A28        1.87228  -0.00002   0.00029  -0.00023   0.00007   1.87235
   A29        1.93569   0.00001   0.00000  -0.00001  -0.00000   1.93568
   A30        1.95849  -0.00002   0.00021  -0.00021  -0.00000   1.95848
   A31        1.89533   0.00002  -0.00021   0.00028   0.00007   1.89541
   A32        1.89240   0.00002  -0.00035   0.00024  -0.00010   1.89229
   A33        1.90789  -0.00000   0.00003  -0.00005  -0.00003   1.90786
    D1       -2.50949   0.00000   0.00196   0.00072   0.00268  -2.50681
    D2        1.32893  -0.00002   0.00021  -0.00092  -0.00070   1.32823
    D3        1.67412   0.00002   0.00175   0.00093   0.00267   1.67679
    D4       -0.77064   0.00000  -0.00000  -0.00072  -0.00071  -0.77136
    D5       -0.42814   0.00002   0.00185   0.00093   0.00277  -0.42536
    D6       -2.87290   0.00000   0.00010  -0.00071  -0.00061  -2.87351
    D7        2.26146  -0.00005  -0.00692  -0.00081  -0.00773   2.25373
    D8       -1.87552  -0.00003  -0.00634  -0.00137  -0.00771  -1.88323
    D9        0.15326  -0.00004  -0.00622  -0.00152  -0.00774   0.14552
   D10       -1.54475  -0.00004  -0.00530   0.00097  -0.00433  -1.54909
   D11        0.60146  -0.00002  -0.00473   0.00041  -0.00432   0.59714
   D12        2.63023  -0.00003  -0.00461   0.00026  -0.00435   2.62589
   D13       -1.05083   0.00006  -0.00120   0.00333   0.00214  -1.04869
   D14        1.10678   0.00002  -0.00108   0.00295   0.00188   1.10866
   D15        3.13649   0.00005  -0.00088   0.00298   0.00211   3.13860
   D16        2.74303   0.00003  -0.00266   0.00164  -0.00102   2.74201
   D17       -1.38254  -0.00000  -0.00254   0.00126  -0.00129  -1.38383
   D18        0.64716   0.00003  -0.00234   0.00130  -0.00105   0.64611
   D19       -3.13745   0.00000   0.00062  -0.00099  -0.00038  -3.13782
   D20       -1.06082  -0.00002   0.00035  -0.00101  -0.00065  -1.06147
   D21        1.06565  -0.00001   0.00084  -0.00117  -0.00033   1.06531
   D22        1.06118  -0.00002   0.00016  -0.00055  -0.00039   1.06079
   D23        3.13781  -0.00003  -0.00010  -0.00057  -0.00067   3.13714
   D24       -1.01891  -0.00003   0.00039  -0.00073  -0.00035  -1.01926
   D25       -1.09146   0.00003   0.00019  -0.00017   0.00003  -1.09143
   D26        0.98517   0.00002  -0.00007  -0.00018  -0.00025   0.98492
   D27        3.11163   0.00003   0.00042  -0.00035   0.00007   3.11170
   D28       -3.01750  -0.00002  -0.00027  -0.00018  -0.00045  -3.01795
   D29       -0.95031  -0.00001  -0.00034   0.00002  -0.00033  -0.95064
   D30        1.18906  -0.00002  -0.00016  -0.00021  -0.00037   1.18869
   D31        1.16309  -0.00002  -0.00052   0.00001  -0.00051   1.16258
   D32       -3.05291  -0.00000  -0.00059   0.00021  -0.00038  -3.05329
   D33       -0.91354  -0.00002  -0.00040  -0.00002  -0.00042  -0.91397
   D34       -0.97735   0.00002  -0.00025   0.00021  -0.00004  -0.97739
   D35        1.08984   0.00004  -0.00033   0.00041   0.00009   1.08993
   D36       -3.05398   0.00002  -0.00014   0.00018   0.00005  -3.05393
         Item               Value     Threshold  Converged?
 Maximum Force            0.000364     0.000450     YES
 RMS     Force            0.000068     0.000300     YES
 Maximum Displacement     0.013858     0.001800     NO 
 RMS     Displacement     0.003671     0.001200     NO 
 Predicted change in Energy=-1.598769D-06
 GradGradGradGradGradGradGradGradGradGradGradGradGradGradGradGradGradGrad

                          Input orientation:                          
 ---------------------------------------------------------------------
 Center     Atomic      Atomic             Coordinates (Angstroms)
 Number     Number       Type             X           Y           Z
 ---------------------------------------------------------------------
      1          5           0       -1.787838    0.670984   -0.201358
      2          9           0       -1.580560    1.644866   -1.160300
      3          9           0       -2.125927    1.190603    1.040098
      4          9           0       -2.655179   -0.317143   -0.633317
      5          8           0       -0.365346   -0.051514   -0.006909
      6          6           0       -0.332561   -1.497816    0.242664
      7          6           0        0.628193   -2.162894   -0.715328
      8          6           0        0.652964    0.668816    0.768234
      9          6           0        1.005005    1.998062    0.145103
     10          1           0       -0.052459   -1.636373    1.293270
     11          1           0       -1.353737   -1.849438    0.097922
     12          1           0        0.632728   -3.241508   -0.512594
     13          1           0        0.308192   -2.003240   -1.751582
     14          1           0        1.653718   -1.791699   -0.595809
     15          1           0        0.262635    0.775092    1.787080
     16          1           0        1.524410    0.008040    0.779017
     17          1           0        1.853982    2.407244    0.707776
     18          1           0        1.307072    1.871922   -0.900773
     19          1           0        0.178246    2.711978    0.199221
 ---------------------------------------------------------------------
                    Distance matrix (angstroms):
                    1          2          3          4          5
     1  B    0.000000
     2  F    1.382383   0.000000
     3  F    1.387631   2.312041   0.000000
     4  F    1.383931   2.298260   2.313811   0.000000
     5  O    1.607265   2.384274   2.395563   2.388782   0.000000
     6  C    2.649279   3.660909   3.328612   2.748797   1.468042
     7  C    3.759287   4.424435   4.681094   3.767500   2.438627
     8  C    2.626334   3.108142   2.840495   3.725624   1.468563
     9  C    3.111454   2.917871   3.354958   4.400347   2.470168
    10  H    3.251054   4.372829   3.514991   3.496607   2.073678
    11  H    2.574983   3.720851   3.275030   2.139250   2.054370
    12  H    4.611248   5.403223   5.446525   4.401910   3.380522
    13  H    3.734704   4.150383   4.890710   3.588176   2.703104
    14  H    4.250260   4.752808   5.084882   4.554373   2.729774
    15  H    2.858175   3.583424   2.536900   3.945242   2.072687
    16  H    3.517331   4.010111   3.845982   4.423731   2.047536
    17  H    4.135696   3.983342   4.174965   5.436299   3.388463
    18  H    3.392625   2.908148   4.002082   4.534641   2.701033
    19  H    2.862098   2.465852   2.886325   4.230483   2.823981
                    6          7          8          9         10
     6  C    0.000000
     7  C    1.511001   0.000000
     8  C    2.437576   3.196897   0.000000
     9  C    3.744297   4.265663   1.509675   0.000000
    10  H    1.096097   2.185172   2.467221   3.955456   0.000000
    11  H    1.089674   2.165104   3.289038   4.513219   1.779769
    12  H    2.131352   1.097511   4.114798   5.293794   2.511391
    13  H    2.154770   1.096227   3.688932   4.482564   3.088007
    14  H    2.175938   1.097166   2.986009   3.915618   2.550252
    15  H    2.811688   3.876524   1.096220   2.177810   2.481591
    16  H    2.450228   2.783744   1.093690   2.152165   2.335609
    17  H    4.499643   4.941047   2.113819   1.097631   4.508676
    18  H    3.918032   4.095730   2.158913   1.095907   4.355489
    19  H    4.240892   4.980284   2.173394   1.093679   4.489802
                   11         12         13         14         15
    11  H    0.000000
    12  H    2.501326   0.000000
    13  H    2.491251   1.781494   0.000000
    14  H    3.086970   1.775188   1.786337   0.000000
    15  H    3.514836   4.643118   4.499259   3.768512   0.000000
    16  H    3.492541   3.608729   3.453747   2.268464   1.787914
    17  H    5.364767   5.906705   5.281124   4.401199   2.522142
    18  H    4.682501   5.172290   4.091273   3.692598   3.085196
    19  H    4.812873   6.013088   5.104488   4.805433   2.505981
                   16         17         18         19
    16  H    0.000000
    17  H    2.422781   0.000000
    18  H    2.518528   1.781323   0.000000
    19  H    3.075646   1.777521   1.786037   0.000000
 Stoichiometry    C4H10BF3O
 Framework group  C1[X(C4H10BF3O)]
 Deg. of freedom    51
 Full point group                 C1      NOp   1
 Largest Abelian subgroup         C1      NOp   1
 Largest concise Abelian subgroup C1      NOp   1
                         Standard orientation:                         
 ---------------------------------------------------------------------
 Center     Atomic      Atomic             Coordinates (Angstroms)
 Number     Number       Type             X           Y           Z
 ---------------------------------------------------------------------
      1          5           0       -0.977256   -0.681575   -0.048184
      2          9           0       -1.621634   -0.182830   -1.164881
      3          9           0       -1.651024   -0.415138    1.135272
      4          9           0       -0.631933   -2.014122   -0.190785
      5          8           0        0.411835    0.121897    0.042144
      6          6           0        1.612403   -0.586491    0.502549
      7          6           0        2.744599   -0.366991   -0.473708
      8          6           0        0.357407    1.502875    0.538747
      9          6           0       -0.513304    2.382559   -0.325625
     10          1           0        1.838346   -0.215497    1.508900
     11          1           0        1.333341   -1.637919    0.565892
     12          1           0        3.627998   -0.908016   -0.111178
     13          1           0        2.478137   -0.755945   -1.463367
     14          1           0        3.011075    0.693371   -0.565336
     15          1           0        0.004959    1.455588    1.575686
     16          1           0        1.393117    1.853830    0.521619
     17          1           0       -0.397146    3.412367    0.036034
     18          1           0       -0.193021    2.341674   -1.372888
     19          1           0       -1.570520    2.110351   -0.259823
 ---------------------------------------------------------------------
 Rotational constants (GHZ):           1.7529506           1.4112030           1.0032237
 Standard basis: Aug-CC-pVDZ (5D, 7F)
 There are   315 symmetry adapted cartesian basis functions of A   symmetry.
 There are   297 symmetry adapted basis functions of A   symmetry.
   297 basis functions,   497 primitive gaussians,   315 cartesian basis functions
    37 alpha electrons       37 beta electrons
       nuclear repulsion energy       523.6442452534 Hartrees.
 NAtoms=   19 NActive=   19 NUniq=   19 SFac= 1.00D+00 NAtFMM=   60 NAOKFM=F Big=F
 Integral buffers will be    131072 words long.
 Raffenetti 2 integral format.
 Two-electron integral symmetry is turned on.
 Nuclear repulsion after empirical dispersion term =      523.6322000921 Hartrees.
 Force PCM accuracy= 1.00D-12.
 ------------------------------------------------------------------------------
 Polarizable Continuum Model (PCM)
 =================================
 Model                : C-PCM.
 Atomic radii         : UFF (Universal Force Field).
 Polarization charges : Total charges.
 Charge compensation  : None.
 Solution method      : On-the-fly selection.
 Cavity type          : Scaled VdW (van der Waals Surface) (Alpha=1.100).
 Cavity algorithm     : GePol (No added spheres)
                        Default sphere list used, NSphG=   19.
                        Lebedev-Laikov grids with approx.  5.0 points / Ang**2.
                        Smoothing algorithm: York/Karplus (Gamma=1.0000).
                        Polarization charges: spherical gaussians, with
                                              point-specific exponents (IZeta= 3).
                        Self-potential: point-specific (ISelfS= 7).
                        Self-field    : sphere-specific E.n sum rule (ISelfD= 2).
 1st derivatives      : Analytical E(r).r(x)/FMM algorithm (CHGder, D1EAlg=3).
                        Cavity 1st derivative terms included.
 Solvent              : Chloroform, Eps=   4.711300 Eps(inf)=   2.090627
 ------------------------------------------------------------------------------
 Spheres list:
 ISph  on   Nord     Re0    Alpha      Xe            Ye            Ze
    1   B      1    2.0415  1.100     -0.977256     -0.681575     -0.048184
    2   F      2    1.6820  1.100     -1.621634     -0.182830     -1.164881
    3   F      3    1.6820  1.100     -1.651024     -0.415138      1.135272
    4   F      4    1.6820  1.100     -0.631933     -2.014122     -0.190785
    5   O      5    1.7500  1.100      0.411835      0.121897      0.042144
    6   C      6    1.9255  1.100      1.612403     -0.586491      0.502549
    7   C      7    1.9255  1.100      2.744599     -0.366991     -0.473708
    8   C      8    1.9255  1.100      0.357407      1.502875      0.538747
    9   C      9    1.9255  1.100     -0.513304      2.382559     -0.325625
   10   H     10    1.4430  1.100      1.838346     -0.215497      1.508900
   11   H     11    1.4430  1.100      1.333341     -1.637919      0.565892
   12   H     12    1.4430  1.100      3.627998     -0.908016     -0.111178
   13   H     13    1.4430  1.100      2.478137     -0.755945     -1.463367
   14   H     14    1.4430  1.100      3.011075      0.693371     -0.565336
   15   H     15    1.4430  1.100      0.004959      1.455588      1.575686
   16   H     16    1.4430  1.100      1.393117      1.853830      0.521619
   17   H     17    1.4430  1.100     -0.397146      3.412367      0.036034
   18   H     18    1.4430  1.100     -0.193021      2.341674     -1.372888
   19   H     19    1.4430  1.100     -1.570520      2.110351     -0.259823
 ------------------------------------------------------------------------------
 One-electron integrals computed using PRISM.
 NBasis=   297 RedAO= T EigKep=  2.72D-05  NBF=   297
 NBsUse=   297 1.00D-06 EigRej= -1.00D+00 NBFU=   297
 Initial guess from the checkpoint file:  "/inspire/hdd/project/materialscienceresearch/lipenghui-253107030018/g16/00-B-DFT-Shift/04-output/BF3OEt2_CDCl3/BF3OEt2_CDCl3.chk"
 B after Tr=    -0.000000   -0.000000    0.000000
         Rot=    0.999998    0.000510    0.000170   -0.002132 Ang=   0.25 deg.
 Requested convergence on RMS density matrix=1.00D-08 within 128 cycles.
 Requested convergence on MAX density matrix=1.00D-06.
 Requested convergence on             energy=1.00D-06.
 No special actions if energy rises.
 Inv3:  Mode=1 IEnd=     7013523.
 Iteration    1 A*A^-1 deviation from unit magnitude is 5.44D-15 for   1529.
 Iteration    1 A*A^-1 deviation from orthogonality  is 2.03D-15 for   1512   1084.
 Iteration    1 A^-1*A deviation from unit magnitude is 5.44D-15 for   1529.
 Iteration    1 A^-1*A deviation from orthogonality  is 2.03D-15 for   1505   1144.
 Error on total polarization charges =  0.00901
 SCF Done:  E(RwB97XD) =  -558.149144748     A.U. after    8 cycles
            NFock=  8  Conv=0.55D-08     -V/T= 2.0060
 D1PCM: C-PCM CHGder 1st derivatives, ID1Alg=3 FixD1E=F DoIter=F DoCFld=F I1PDM=0.
 Calling FoFJK, ICntrl=      2127 FMM=F ISym2X=0 I1Cent= 0 IOpClX= 0 NMat=1 NMatS=1 NMatT=0.
 ***** Axes restored to original set *****
 -------------------------------------------------------------------
 Center     Atomic                   Forces (Hartrees/Bohr)
 Number     Number              X              Y              Z
 -------------------------------------------------------------------
      1        5           0.000176889   -0.000056897   -0.000080659
      2        9          -0.000032111   -0.000033528    0.000044180
      3        9           0.000027668    0.000013548   -0.000026036
      4        9           0.000004132    0.000033699   -0.000002109
      5        8          -0.000009807    0.000059852    0.000221515
      6        6          -0.000038618    0.000164209   -0.000058462
      7        6           0.000015767   -0.000076524   -0.000011786
      8        6          -0.000199429   -0.000144014   -0.000163244
      9        6           0.000035578    0.000061630    0.000019527
     10        1           0.000010887   -0.000016685   -0.000015457
     11        1           0.000023923   -0.000016732    0.000062940
     12        1          -0.000022700    0.000021284   -0.000006356
     13        1           0.000011530   -0.000002173   -0.000002960
     14        1          -0.000011136    0.000042930   -0.000006330
     15        1           0.000031426   -0.000020956    0.000033709
     16        1           0.000021539    0.000006136   -0.000007344
     17        1          -0.000018241   -0.000028308    0.000001570
     18        1          -0.000017480    0.000007666    0.000004186
     19        1          -0.000009816   -0.000015135   -0.000006886
 -------------------------------------------------------------------
 Cartesian Forces:  Max     0.000221515 RMS     0.000065563

 GradGradGradGradGradGradGradGradGradGradGradGradGradGradGradGradGradGrad
 Berny optimization.
 Using GEDIIS/GDIIS optimizer.
 FormGI is forming the generalized inverse of G from B-inverse, IUseBI=4.
 Internal  Forces:  Max     0.000239761 RMS     0.000040998
 Search for a local minimum.
 Step number  16 out of a maximum of   97
 All quantities printed in internal units (Hartrees-Bohrs-Radians)
 Mixed Optimization -- En-DIIS/RFO-DIIS
 Swapping is turned off.
 Update second derivatives using D2CorX and points   10   11   12   13   14
                                                     15   16
 DE= -1.73D-06 DEPred=-1.60D-06 R= 1.08D+00
 TightC=F SS=  1.41D+00  RLast= 1.68D-02 DXNew= 1.6254D+00 5.0439D-02
 Trust test= 1.08D+00 RLast= 1.68D-02 DXMaxT set to 9.66D-01
 ITU=  1  1  1  1  1  1  0  1  1  1  1  1  1  1  1  0
     Eigenvalues ---    0.00203   0.00259   0.00286   0.00753   0.01411
     Eigenvalues ---    0.01843   0.04515   0.04983   0.05171   0.05285
     Eigenvalues ---    0.05394   0.05667   0.05813   0.05880   0.07890
     Eigenvalues ---    0.09674   0.10195   0.12820   0.12945   0.13035
     Eigenvalues ---    0.13432   0.15988   0.16007   0.16020   0.16087
     Eigenvalues ---    0.16436   0.16991   0.21091   0.22035   0.24110
     Eigenvalues ---    0.25099   0.25569   0.28232   0.28384   0.28685
     Eigenvalues ---    0.28807   0.30975   0.31850   0.31919   0.32029
     Eigenvalues ---    0.32108   0.32145   0.32177   0.32191   0.32324
     Eigenvalues ---    0.32944   0.33973   0.38857   0.40198   0.41275
     Eigenvalues ---    0.49247
 En-DIIS/RFO-DIIS/Sim-DIIS IScMMF=       -3 using points:    16   15   14   13   12   11
 RFO step:  Lambda=-3.95991554D-06.
 DidBck=F Rises=F RFO-DIIS coefs:    2.92163   -2.00000    0.09967   -0.06163    0.03168
                  RFO-DIIS coefs:    0.00864
 Iteration  1 RMS(Cart)=  0.00763022 RMS(Int)=  0.00002219
 Iteration  2 RMS(Cart)=  0.00003084 RMS(Int)=  0.00000194
 Iteration  3 RMS(Cart)=  0.00000000 RMS(Int)=  0.00000194
 Variable       Old X    -DE/DX   Delta X   Delta X   Delta X     New X
                                 (Linear)    (Quad)   (Total)
    R1        2.61232  -0.00006  -0.00021   0.00014  -0.00007   2.61226
    R2        2.62224  -0.00003  -0.00022   0.00039   0.00018   2.62242
    R3        2.61525  -0.00002  -0.00027   0.00032   0.00005   2.61530
    R4        3.03729  -0.00017  -0.00150  -0.00053  -0.00203   3.03526
    R5        2.77420  -0.00012  -0.00087   0.00008  -0.00080   2.77340
    R6        2.77518  -0.00024  -0.00163  -0.00008  -0.00171   2.77347
    R7        2.85538   0.00002   0.00009  -0.00002   0.00007   2.85545
    R8        2.07132  -0.00001  -0.00007   0.00000  -0.00007   2.07126
    R9        2.05918  -0.00003   0.00021  -0.00025  -0.00004   2.05915
   R10        2.07399  -0.00002   0.00017  -0.00016   0.00002   2.07401
   R11        2.07157  -0.00000   0.00003  -0.00004  -0.00001   2.07156
   R12        2.07334   0.00001   0.00003  -0.00003   0.00000   2.07334
   R13        2.85287   0.00001  -0.00005   0.00027   0.00023   2.85310
   R14        2.07156   0.00002   0.00019  -0.00004   0.00015   2.07171
   R15        2.06678   0.00001   0.00012  -0.00006   0.00006   2.06683
   R16        2.07422  -0.00002   0.00002  -0.00009  -0.00007   2.07415
   R17        2.07096  -0.00001  -0.00000  -0.00003  -0.00003   2.07093
   R18        2.06675  -0.00000   0.00003  -0.00000   0.00003   2.06678
    A1        1.97506  -0.00003   0.00024  -0.00059  -0.00035   1.97471
    A2        1.96110  -0.00003   0.00032  -0.00068  -0.00036   1.96074
    A3        1.84201   0.00004   0.00033   0.00043   0.00076   1.84278
    A4        1.97568   0.00001   0.00049  -0.00033   0.00016   1.97584
    A5        1.85014  -0.00002  -0.00077   0.00059  -0.00018   1.84996
    A6        1.84572   0.00004  -0.00079   0.00086   0.00007   1.84579
    A7        2.07510   0.00007   0.00061   0.00113   0.00175   2.07684
    A8        2.04548   0.00000   0.00148   0.00060   0.00209   2.04757
    A9        1.95845  -0.00006   0.00082  -0.00012   0.00071   1.95916
   A10        1.91777  -0.00001   0.00063  -0.00041   0.00022   1.91799
   A11        1.86836   0.00000   0.00007  -0.00028  -0.00021   1.86816
   A12        1.84876   0.00003   0.00067   0.00020   0.00086   1.84962
   A13        1.97096  -0.00001  -0.00025  -0.00014  -0.00039   1.97057
   A14        1.94940   0.00001  -0.00064   0.00069   0.00005   1.94944
   A15        1.90287  -0.00002  -0.00038  -0.00008  -0.00046   1.90241
   A16        1.89451  -0.00001  -0.00013   0.00011  -0.00002   1.89449
   A17        1.92795   0.00003  -0.00013   0.00021   0.00008   1.92803
   A18        1.95664  -0.00004   0.00016  -0.00057  -0.00041   1.95623
   A19        1.89542  -0.00000  -0.00030   0.00020  -0.00010   1.89532
   A20        1.88443   0.00004  -0.00005   0.00031   0.00026   1.88469
   A21        1.90345  -0.00000   0.00044  -0.00024   0.00020   1.90365
   A22        1.95596   0.00001   0.00016   0.00040   0.00056   1.95652
   A23        1.86630   0.00001   0.00056  -0.00012   0.00044   1.86674
   A24        1.83523  -0.00000   0.00097  -0.00075   0.00022   1.83545
   A25        1.96199  -0.00002  -0.00079   0.00020  -0.00059   1.96140
   A26        1.92861   0.00001  -0.00050   0.00017  -0.00032   1.92829
   A27        1.91041  -0.00001  -0.00027   0.00002  -0.00024   1.91017
   A28        1.87235  -0.00003   0.00012  -0.00020  -0.00008   1.87227
   A29        1.93568   0.00001   0.00003   0.00012   0.00014   1.93583
   A30        1.95848  -0.00002  -0.00004  -0.00002  -0.00006   1.95843
   A31        1.89541   0.00001   0.00016   0.00002   0.00018   1.89559
   A32        1.89229   0.00002  -0.00018   0.00015  -0.00003   1.89226
   A33        1.90786  -0.00000  -0.00009  -0.00006  -0.00015   1.90771
    D1       -2.50681  -0.00000   0.00400   0.00216   0.00616  -2.50065
    D2        1.32823   0.00000  -0.00071  -0.00017  -0.00087   1.32736
    D3        1.67679   0.00002   0.00393   0.00234   0.00627   1.68306
    D4       -0.77136   0.00003  -0.00078   0.00001  -0.00076  -0.77212
    D5       -0.42536  -0.00000   0.00415   0.00200   0.00615  -0.41921
    D6       -2.87351   0.00001  -0.00056  -0.00033  -0.00089  -2.87439
    D7        2.25373  -0.00001  -0.01032  -0.00515  -0.01546   2.23827
    D8       -1.88323  -0.00003  -0.01020  -0.00573  -0.01594  -1.89916
    D9        0.14552  -0.00004  -0.01029  -0.00586  -0.01615   0.12937
   D10       -1.54909  -0.00000  -0.00558  -0.00269  -0.00827  -1.55736
   D11        0.59714  -0.00002  -0.00547  -0.00328  -0.00875   0.58839
   D12        2.62589  -0.00002  -0.00555  -0.00341  -0.00896   2.61693
   D13       -1.04869   0.00006   0.00511   0.00275   0.00787  -1.04082
   D14        1.10866   0.00005   0.00461   0.00317   0.00779   1.11645
   D15        3.13860   0.00005   0.00502   0.00279   0.00782  -3.13677
   D16        2.74201   0.00002   0.00082   0.00012   0.00094   2.74294
   D17       -1.38383   0.00001   0.00032   0.00054   0.00086  -1.38297
   D18        0.64611   0.00001   0.00073   0.00016   0.00089   0.64700
   D19       -3.13782  -0.00002  -0.00009  -0.00087  -0.00096  -3.13878
   D20       -1.06147  -0.00001  -0.00061  -0.00044  -0.00105  -1.06252
   D21        1.06531  -0.00003  -0.00003  -0.00099  -0.00102   1.06429
   D22        1.06079  -0.00001  -0.00044  -0.00015  -0.00060   1.06019
   D23        3.13714  -0.00000  -0.00097   0.00028  -0.00068   3.13645
   D24       -1.01926  -0.00002  -0.00039  -0.00027  -0.00065  -1.01992
   D25       -1.09143   0.00002   0.00074  -0.00047   0.00027  -1.09116
   D26        0.98492   0.00002   0.00022  -0.00003   0.00019   0.98510
   D27        3.11170   0.00001   0.00080  -0.00058   0.00022   3.11192
   D28       -3.01795  -0.00000  -0.00080  -0.00046  -0.00126  -3.01921
   D29       -0.95064   0.00000  -0.00051  -0.00049  -0.00101  -0.95164
   D30        1.18869  -0.00000  -0.00063  -0.00050  -0.00114   1.18756
   D31        1.16258  -0.00001  -0.00107  -0.00073  -0.00181   1.16077
   D32       -3.05329  -0.00000  -0.00079  -0.00077  -0.00156  -3.05485
   D33       -0.91397  -0.00001  -0.00091  -0.00078  -0.00169  -0.91565
   D34       -0.97739   0.00001   0.00019  -0.00103  -0.00085  -0.97823
   D35        1.08993   0.00002   0.00047  -0.00107  -0.00060   1.08933
   D36       -3.05393   0.00001   0.00035  -0.00108  -0.00072  -3.05465
         Item               Value     Threshold  Converged?
 Maximum Force            0.000240     0.000450     YES
 RMS     Force            0.000041     0.000300     YES
 Maximum Displacement     0.027092     0.001800     NO 
 RMS     Displacement     0.007635     0.001200     NO 
 Predicted change in Energy=-1.963123D-06
 GradGradGradGradGradGradGradGradGradGradGradGradGradGradGradGradGradGrad

                          Input orientation:                          
 ---------------------------------------------------------------------
 Center     Atomic      Atomic             Coordinates (Angstroms)
 Number     Number       Type             X           Y           Z
 ---------------------------------------------------------------------
      1          5           0       -1.783885    0.669586   -0.207005
      2          9           0       -1.572901    1.638751   -1.169861
      3          9           0       -2.127025    1.195726    1.030417
      4          9           0       -2.649812   -0.320310   -0.637840
      5          8           0       -0.363553   -0.052037   -0.002659
      6          6           0       -0.329551   -1.497922    0.246678
      7          6           0        0.622800   -2.163945   -0.719074
      8          6           0        0.653318    0.669506    0.771531
      9          6           0        1.003053    1.999836    0.149126
     10          1           0       -0.040353   -1.636347    1.294798
     11          1           0       -1.351935   -1.849714    0.111329
     12          1           0        0.628959   -3.242393   -0.515450
     13          1           0        0.293855   -2.005256   -1.752668
     14          1           0        1.649219   -1.792450   -0.608487
     15          1           0        0.263819    0.775072    1.790856
     16          1           0        1.526120    0.010462    0.781704
     17          1           0        1.850770    2.410461    0.712573
     18          1           0        1.305865    1.874932   -0.896665
     19          1           0        0.174776    2.712021    0.203110
 ---------------------------------------------------------------------
                    Distance matrix (angstroms):
                    1          2          3          4          5
     1  B    0.000000
     2  F    1.382348   0.000000
     3  F    1.387725   2.311827   0.000000
     4  F    1.383959   2.297978   2.314034   0.000000
     5  O    1.606188   2.384040   2.394576   2.387971   0.000000
     6  C    2.649341   3.659402   3.331801   2.748227   1.467621
     7  C    3.752765   4.414160   4.680774   3.757070   2.438503
     8  C    2.626307   3.108776   2.841521   3.725148   1.467658
     9  C    3.108604   2.916445   3.349725   4.398388   2.469986
    10  H    3.257705   4.376016   3.527710   3.503758   2.073136
    11  H    2.575808   3.722857   3.274170   2.141218   2.054638
    12  H    4.606575   5.394628   5.448123   4.393619   3.380296
    13  H    3.723017   4.135606   4.883903   3.570303   2.703661
    14  H    4.243703   4.740289   5.086769   4.544197   2.728977
    15  H    2.862807   3.589613   2.543885   3.948122   2.072293
    16  H    3.516835   4.007976   3.848660   4.423000   2.046948
    17  H    4.133640   3.982539   4.171266   5.434700   3.388020
    18  H    3.387483   2.901329   3.994959   4.531386   2.701742
    19  H    2.859386   2.468063   2.877825   4.228537   2.823501
                    6          7          8          9         10
     6  C    0.000000
     7  C    1.511038   0.000000
     8  C    2.437057   3.201761   0.000000
     9  C    3.744284   4.270296   1.509795   0.000000
    10  H    1.096062   2.184905   2.464132   3.952605   0.000000
    11  H    1.089654   2.165153   3.286849   4.512918   1.779430
    12  H    2.131375   1.097520   4.118235   5.297411   2.510848
    13  H    2.154857   1.096222   3.695286   4.490049   3.087853
    14  H    2.175681   1.097166   2.992907   3.920834   2.549807
    15  H    2.811241   3.881550   1.096302   2.177565   2.480633
    16  H    2.450509   2.792197   1.093721   2.152060   2.330039
    17  H    4.499591   4.948001   2.113834   1.097592   4.504663
    18  H    3.918924   4.100078   2.159108   1.095890   4.352458
    19  H    4.240268   4.982589   2.173471   1.093694   4.488471
                   11         12         13         14         15
    11  H    0.000000
    12  H    2.501270   0.000000
    13  H    2.491446   1.781435   0.000000
    14  H    3.086801   1.775365   1.786462   0.000000
    15  H    3.510124   4.646762   4.504185   3.777347   0.000000
    16  H    3.491828   3.615047   3.464771   2.279973   1.787854
    17  H    5.363572   5.912327   5.291498   4.410247   2.521032
    18  H    4.685397   5.175958   4.100337   3.694676   3.085177
    19  H    4.811310   6.014787   5.108028   4.808631   2.506120
                   16         17         18         19
    16  H    0.000000
    17  H    2.422844   0.000000
    18  H    2.518270   1.781392   0.000000
    19  H    3.075602   1.777483   1.785941   0.000000
 Stoichiometry    C4H10BF3O
 Framework group  C1[X(C4H10BF3O)]
 Deg. of freedom    51
 Full point group                 C1      NOp   1
 Largest Abelian subgroup         C1      NOp   1
 Largest concise Abelian subgroup C1      NOp   1
                         Standard orientation:                         
 ---------------------------------------------------------------------
 Center     Atomic      Atomic             Coordinates (Angstroms)
 Number     Number       Type             X           Y           Z
 ---------------------------------------------------------------------
      1          5           0       -0.969164   -0.689216   -0.047864
      2          9           0       -1.613393   -0.200532   -1.169043
      3          9           0       -1.651325   -0.425509    1.131499
      4          9           0       -0.610549   -2.018869   -0.184838
      5          8           0        0.410823    0.127162    0.047021
      6          6           0        1.618446   -0.568084    0.507664
      7          6           0        2.743625   -0.351689   -0.477415
      8          6           0        0.343685    1.508773    0.537593
      9          6           0       -0.538065    2.376598   -0.327783
     10          1           0        1.847895   -0.184395    1.508407
     11          1           0        1.347486   -1.620688    0.584813
     12          1           0        3.632896   -0.882207   -0.113686
     13          1           0        2.474606   -0.753904   -1.461059
     14          1           0        3.001575    0.709545   -0.582384
     15          1           0       -0.005662    1.462825    1.575727
     16          1           0        1.375691    1.870355    0.516385
     17          1           0       -0.432022    3.408627    0.030517
     18          1           0       -0.219735    2.335755   -1.375626
     19          1           0       -1.592227    2.093473   -0.258865
 ---------------------------------------------------------------------
 Rotational constants (GHZ):           1.7515848           1.4133101           1.0043505
 Standard basis: Aug-CC-pVDZ (5D, 7F)
 There are   315 symmetry adapted cartesian basis functions of A   symmetry.
 There are   297 symmetry adapted basis functions of A   symmetry.
   297 basis functions,   497 primitive gaussians,   315 cartesian basis functions
    37 alpha electrons       37 beta electrons
       nuclear repulsion energy       523.7370774854 Hartrees.
 NAtoms=   19 NActive=   19 NUniq=   19 SFac= 1.00D+00 NAtFMM=   60 NAOKFM=F Big=F
 Integral buffers will be    131072 words long.
 Raffenetti 2 integral format.
 Two-electron integral symmetry is turned on.
 Nuclear repulsion after empirical dispersion term =      523.7250252894 Hartrees.
 Force PCM accuracy= 1.00D-12.
 ------------------------------------------------------------------------------
 Polarizable Continuum Model (PCM)
 =================================
 Model                : C-PCM.
 Atomic radii         : UFF (Universal Force Field).
 Polarization charges : Total charges.
 Charge compensation  : None.
 Solution method      : On-the-fly selection.
 Cavity type          : Scaled VdW (van der Waals Surface) (Alpha=1.100).
 Cavity algorithm     : GePol (No added spheres)
                        Default sphere list used, NSphG=   19.
                        Lebedev-Laikov grids with approx.  5.0 points / Ang**2.
                        Smoothing algorithm: York/Karplus (Gamma=1.0000).
                        Polarization charges: spherical gaussians, with
                                              point-specific exponents (IZeta= 3).
                        Self-potential: point-specific (ISelfS= 7).
                        Self-field    : sphere-specific E.n sum rule (ISelfD= 2).
 1st derivatives      : Analytical E(r).r(x)/FMM algorithm (CHGder, D1EAlg=3).
                        Cavity 1st derivative terms included.
 Solvent              : Chloroform, Eps=   4.711300 Eps(inf)=   2.090627
 ------------------------------------------------------------------------------
 Spheres list:
 ISph  on   Nord     Re0    Alpha      Xe            Ye            Ze
    1   B      1    2.0415  1.100     -0.969164     -0.689216     -0.047864
    2   F      2    1.6820  1.100     -1.613393     -0.200532     -1.169043
    3   F      3    1.6820  1.100     -1.651325     -0.425509      1.131499
    4   F      4    1.6820  1.100     -0.610549     -2.018869     -0.184838
    5   O      5    1.7500  1.100      0.410823      0.127162      0.047021
    6   C      6    1.9255  1.100      1.618446     -0.568084      0.507664
    7   C      7    1.9255  1.100      2.743625     -0.351689     -0.477415
    8   C      8    1.9255  1.100      0.343685      1.508773      0.537593
    9   C      9    1.9255  1.100     -0.538065      2.376598     -0.327783
   10   H     10    1.4430  1.100      1.847895     -0.184395      1.508407
   11   H     11    1.4430  1.100      1.347486     -1.620688      0.584813
   12   H     12    1.4430  1.100      3.632896     -0.882207     -0.113686
   13   H     13    1.4430  1.100      2.474606     -0.753904     -1.461059
   14   H     14    1.4430  1.100      3.001575      0.709545     -0.582384
   15   H     15    1.4430  1.100     -0.005662      1.462825      1.575727
   16   H     16    1.4430  1.100      1.375691      1.870355      0.516385
   17   H     17    1.4430  1.100     -0.432022      3.408627      0.030517
   18   H     18    1.4430  1.100     -0.219735      2.335755     -1.375626
   19   H     19    1.4430  1.100     -1.592227      2.093473     -0.258865
 ------------------------------------------------------------------------------
 One-electron integrals computed using PRISM.
 NBasis=   297 RedAO= T EigKep=  2.72D-05  NBF=   297
 NBsUse=   297 1.00D-06 EigRej= -1.00D+00 NBFU=   297
 Initial guess from the checkpoint file:  "/inspire/hdd/project/materialscienceresearch/lipenghui-253107030018/g16/00-B-DFT-Shift/04-output/BF3OEt2_CDCl3/BF3OEt2_CDCl3.chk"
 B after Tr=    -0.000000   -0.000000   -0.000000
         Rot=    0.999990    0.001287    0.000276   -0.004377 Ang=   0.52 deg.
 ExpMin= 2.38D-02 ExpMax= 1.47D+04 ExpMxC= 5.03D+02 IAcc=3 IRadAn=         5 AccDes= 0.00D+00
 Harris functional with IExCor= 4639 and IRadAn=       5 diagonalized for initial guess.
 HarFok:  IExCor= 4639 AccDes= 0.00D+00 IRadAn=         5 IDoV= 1 UseB2=F ITyADJ=14
 ICtDFT=  3500011 ScaDFX=  1.000000  1.000000  1.000000  1.000000
 FoFCou: FMM=F IPFlag=           0 FMFlag=      100000 FMFlg1=           0
         NFxFlg=           0 DoJE=T BraDBF=F KetDBF=T FulRan=T
         wScrn=  0.000000 ICntrl=       500 IOpCl=  0 I1Cent=   200000004 NGrid=           0
         NMat0=    1 NMatS0=      1 NMatT0=    0 NMatD0=    1 NMtDS0=    0 NMtDT0=    0
 Petite list used in FoFCou.
 Requested convergence on RMS density matrix=1.00D-08 within 128 cycles.
 Requested convergence on MAX density matrix=1.00D-06.
 Requested convergence on             energy=1.00D-06.
 No special actions if energy rises.
 Inv3:  Mode=1 IEnd=     6995187.
 Iteration    1 A*A^-1 deviation from unit magnitude is 4.11D-15 for   1518.
 Iteration    1 A*A^-1 deviation from orthogonality  is 3.81D-15 for   1522    803.
 Iteration    1 A^-1*A deviation from unit magnitude is 4.11D-15 for   1518.
 Iteration    1 A^-1*A deviation from orthogonality  is 1.91D-15 for   1502    976.
 Error on total polarization charges =  0.00901
 SCF Done:  E(RwB97XD) =  -558.149147255     A.U. after    9 cycles
            NFock=  9  Conv=0.74D-08     -V/T= 2.0060
 D1PCM: C-PCM CHGder 1st derivatives, ID1Alg=3 FixD1E=F DoIter=F DoCFld=F I1PDM=0.
 Calling FoFJK, ICntrl=      2127 FMM=F ISym2X=0 I1Cent= 0 IOpClX= 0 NMat=1 NMatS=1 NMatT=0.
 ***** Axes restored to original set *****
 -------------------------------------------------------------------
 Center     Atomic                   Forces (Hartrees/Bohr)
 Number     Number              X              Y              Z
 -------------------------------------------------------------------
      1        5           0.000018437    0.000011569   -0.000011496
      2        9           0.000002080    0.000005962   -0.000016316
      3        9           0.000003339    0.000003092   -0.000013494
      4        9          -0.000003102   -0.000011391    0.000020929
      5        8          -0.000019754   -0.000042872   -0.000058052
      6        6          -0.000051237   -0.000076518    0.000002296
      7        6          -0.000013604   -0.000059735    0.000010484
      8        6           0.000052208    0.000115112    0.000060098
      9        6          -0.000002569    0.000033045    0.000012628
     10        1           0.000007917   -0.000003440   -0.000015317
     11        1          -0.000023151    0.000014830    0.000046470
     12        1          -0.000008565    0.000025171   -0.000006197
     13        1           0.000021740    0.000014999   -0.000007037
     14        1          -0.000003622    0.000072711    0.000003781
     15        1           0.000019245   -0.000035975    0.000006966
     16        1           0.000028687   -0.000027695   -0.000038818
     17        1          -0.000003467   -0.000027652    0.000006613
     18        1          -0.000005676    0.000000938    0.000005747
     19        1          -0.000018906   -0.000012151   -0.000009287
 -------------------------------------------------------------------
 Cartesian Forces:  Max     0.000115112 RMS     0.000031569

 GradGradGradGradGradGradGradGradGradGradGradGradGradGradGradGradGradGrad
 Berny optimization.
 Using GEDIIS/GDIIS optimizer.
 FormGI is forming the generalized inverse of G from B-inverse, IUseBI=4.
 Internal  Forces:  Max     0.000124467 RMS     0.000028196
 Search for a local minimum.
 Step number  17 out of a maximum of   97
 All quantities printed in internal units (Hartrees-Bohrs-Radians)
 Mixed Optimization -- En-DIIS/RFO-DIIS
 Swapping is turned off.
 Update second derivatives using D2CorX and points   10   11   12   13   14
                                                     15   16   17
 DE= -2.51D-06 DEPred=-1.96D-06 R= 1.28D+00
 TightC=F SS=  1.41D+00  RLast= 3.63D-02 DXNew= 1.6254D+00 1.0900D-01
 Trust test= 1.28D+00 RLast= 3.63D-02 DXMaxT set to 9.66D-01
 ITU=  1  1  1  1  1  1  1  0  1  1  1  1  1  1  1  1  0
     Eigenvalues ---    0.00161   0.00250   0.00294   0.00535   0.01439
     Eigenvalues ---    0.01852   0.04504   0.04941   0.05159   0.05324
     Eigenvalues ---    0.05422   0.05652   0.05861   0.05905   0.07981
     Eigenvalues ---    0.09670   0.10383   0.12876   0.12977   0.13008
     Eigenvalues ---    0.13503   0.15972   0.16011   0.16014   0.16068
     Eigenvalues ---    0.16407   0.16745   0.21292   0.22100   0.24838
     Eigenvalues ---    0.25367   0.25745   0.28133   0.28360   0.28708
     Eigenvalues ---    0.28818   0.30853   0.31884   0.31937   0.32041
     Eigenvalues ---    0.32110   0.32149   0.32176   0.32191   0.32413
     Eigenvalues ---    0.33219   0.34291   0.37167   0.40528   0.42578
     Eigenvalues ---    0.52540
 En-DIIS/RFO-DIIS/Sim-DIIS IScMMF=       -3 using points:    17   16   15   14   13   12   11
 RFO step:  Lambda=-1.73993467D-06.
 DIIS inversion failure, remove point   7.
 DIIS inversion failure, remove point   6.
 RFO-DIIS uses    5 points instead of    7
 DidBck=F Rises=F RFO-DIIS coefs:    1.24824    0.21637   -0.20341   -0.52368    0.26248
                  RFO-DIIS coefs:    0.00000    0.00000
 Iteration  1 RMS(Cart)=  0.00430450 RMS(Int)=  0.00000544
 Iteration  2 RMS(Cart)=  0.00000738 RMS(Int)=  0.00000131
 Iteration  3 RMS(Cart)=  0.00000000 RMS(Int)=  0.00000131
 Variable       Old X    -DE/DX   Delta X   Delta X   Delta X     New X
                                 (Linear)    (Quad)   (Total)
    R1        2.61226   0.00002  -0.00053   0.00044  -0.00010   2.61216
    R2        2.62242  -0.00001  -0.00054   0.00042  -0.00012   2.62230
    R3        2.61530   0.00000  -0.00041   0.00029  -0.00012   2.61518
    R4        3.03526  -0.00001   0.00255  -0.00326  -0.00071   3.03455
    R5        2.77340   0.00002  -0.00116   0.00067  -0.00049   2.77292
    R6        2.77347   0.00009  -0.00195   0.00109  -0.00086   2.77261
    R7        2.85545  -0.00003   0.00007  -0.00006   0.00002   2.85546
    R8        2.07126  -0.00001   0.00005  -0.00009  -0.00004   2.07122
    R9        2.05915   0.00001   0.00006   0.00002   0.00007   2.05922
   R10        2.07401  -0.00003   0.00015  -0.00015  -0.00000   2.07401
   R11        2.07156   0.00000   0.00004  -0.00003   0.00000   2.07156
   R12        2.07334   0.00002   0.00006  -0.00003   0.00003   2.07338
   R13        2.85310  -0.00002   0.00009  -0.00010  -0.00001   2.85309
   R14        2.07171  -0.00000   0.00017  -0.00006   0.00010   2.07181
   R15        2.06683   0.00004   0.00021  -0.00010   0.00011   2.06694
   R16        2.07415  -0.00001   0.00003  -0.00007  -0.00003   2.07411
   R17        2.07093  -0.00001   0.00003  -0.00007  -0.00004   2.07090
   R18        2.06678   0.00001   0.00012  -0.00009   0.00003   2.06682
    A1        1.97471  -0.00000   0.00052  -0.00041   0.00011   1.97482
    A2        1.96074   0.00001   0.00031  -0.00022   0.00009   1.96083
    A3        1.84278  -0.00001  -0.00048   0.00068   0.00020   1.84297
    A4        1.97584  -0.00000   0.00057  -0.00037   0.00020   1.97604
    A5        1.84996   0.00001  -0.00096   0.00062  -0.00034   1.84962
    A6        1.84579  -0.00002  -0.00019  -0.00013  -0.00032   1.84547
    A7        2.07684   0.00001   0.00090  -0.00034   0.00057   2.07741
    A8        2.04757   0.00002   0.00069   0.00033   0.00101   2.04858
    A9        1.95916  -0.00002   0.00020   0.00022   0.00041   1.95958
   A10        1.91799  -0.00012   0.00050  -0.00042   0.00009   1.91808
   A11        1.86816   0.00004   0.00004  -0.00010  -0.00006   1.86810
   A12        1.84962   0.00003   0.00126  -0.00080   0.00046   1.85008
   A13        1.97057   0.00001  -0.00052   0.00021  -0.00031   1.97027
   A14        1.94944   0.00008  -0.00079   0.00093   0.00013   1.94958
   A15        1.90241  -0.00003  -0.00034   0.00006  -0.00028   1.90213
   A16        1.89449   0.00001  -0.00009   0.00011   0.00002   1.89451
   A17        1.92803   0.00003  -0.00022   0.00026   0.00004   1.92807
   A18        1.95623  -0.00008   0.00033  -0.00064  -0.00031   1.95592
   A19        1.89532   0.00000  -0.00014   0.00014  -0.00000   1.89532
   A20        1.88469   0.00004  -0.00025   0.00047   0.00022   1.88491
   A21        1.90365   0.00000   0.00035  -0.00031   0.00004   1.90369
   A22        1.95652   0.00002   0.00005   0.00029   0.00034   1.95686
   A23        1.86674  -0.00001   0.00068  -0.00043   0.00025   1.86699
   A24        1.83545  -0.00002   0.00070  -0.00037   0.00033   1.83578
   A25        1.96140  -0.00000  -0.00063   0.00016  -0.00047   1.96093
   A26        1.92829   0.00001  -0.00042   0.00019  -0.00023   1.92805
   A27        1.91017   0.00000  -0.00026   0.00010  -0.00016   1.91001
   A28        1.87227  -0.00003   0.00029  -0.00046  -0.00017   1.87210
   A29        1.93583   0.00001   0.00007  -0.00000   0.00007   1.93590
   A30        1.95843  -0.00001  -0.00007  -0.00001  -0.00007   1.95835
   A31        1.89559   0.00001   0.00004   0.00011   0.00015   1.89574
   A32        1.89226   0.00003  -0.00026   0.00036   0.00010   1.89237
   A33        1.90771   0.00000  -0.00007   0.00000  -0.00007   1.90765
    D1       -2.50065   0.00001   0.00275   0.00084   0.00359  -2.49706
    D2        1.32736   0.00002   0.00001   0.00043   0.00044   1.32780
    D3        1.68306   0.00001   0.00287   0.00067   0.00354   1.68660
    D4       -0.77212   0.00001   0.00013   0.00026   0.00039  -0.77173
    D5       -0.41921   0.00002   0.00278   0.00085   0.00364  -0.41558
    D6       -2.87439   0.00002   0.00004   0.00045   0.00049  -2.87391
    D7        2.23827   0.00002  -0.00746   0.00109  -0.00637   2.23190
    D8       -1.89916  -0.00002  -0.00777   0.00104  -0.00673  -1.90590
    D9        0.12937  -0.00002  -0.00753   0.00068  -0.00685   0.12252
   D10       -1.55736   0.00003  -0.00469   0.00153  -0.00316  -1.56052
   D11        0.58839  -0.00001  -0.00499   0.00148  -0.00352   0.58487
   D12        2.61693  -0.00001  -0.00475   0.00112  -0.00364   2.61329
   D13       -1.04082   0.00004   0.00463   0.00205   0.00668  -1.03415
   D14        1.11645   0.00004   0.00434   0.00214   0.00648   1.12292
   D15       -3.13677   0.00003   0.00468   0.00188   0.00656  -3.13021
   D16        2.74294   0.00003   0.00181   0.00188   0.00369   2.74664
   D17       -1.38297   0.00004   0.00152   0.00197   0.00349  -1.37948
   D18        0.64700   0.00002   0.00186   0.00172   0.00358   0.65058
   D19       -3.13878  -0.00002  -0.00003  -0.00061  -0.00064  -3.13942
   D20       -1.06252   0.00000  -0.00039  -0.00022  -0.00061  -1.06314
   D21        1.06429  -0.00003   0.00014  -0.00088  -0.00074   1.06355
   D22        1.06019   0.00001  -0.00009  -0.00034  -0.00043   1.05976
   D23        3.13645   0.00003  -0.00045   0.00005  -0.00040   3.13605
   D24       -1.01992  -0.00000   0.00008  -0.00061  -0.00053  -1.02045
   D25       -1.09116  -0.00001   0.00136  -0.00129   0.00007  -1.09109
   D26        0.98510   0.00001   0.00100  -0.00090   0.00010   0.98520
   D27        3.11192  -0.00003   0.00153  -0.00156  -0.00003   3.11189
   D28       -3.01921   0.00000  -0.00082  -0.00075  -0.00157  -3.02077
   D29       -0.95164   0.00000  -0.00056  -0.00089  -0.00145  -0.95309
   D30        1.18756  -0.00000  -0.00064  -0.00089  -0.00154   1.18602
   D31        1.16077   0.00000  -0.00129  -0.00051  -0.00180   1.15897
   D32       -3.05485  -0.00000  -0.00103  -0.00065  -0.00168  -3.05653
   D33       -0.91565  -0.00000  -0.00111  -0.00066  -0.00177  -0.91742
   D34       -0.97823  -0.00001  -0.00019  -0.00089  -0.00109  -0.97932
   D35        1.08933  -0.00001   0.00007  -0.00104  -0.00097   1.08836
   D36       -3.05465  -0.00001  -0.00002  -0.00104  -0.00106  -3.05571
         Item               Value     Threshold  Converged?
 Maximum Force            0.000124     0.000450     YES
 RMS     Force            0.000028     0.000300     YES
 Maximum Displacement     0.011841     0.001800     NO 
 RMS     Displacement     0.004305     0.001200     NO 
 Predicted change in Energy=-7.818051D-07
 GradGradGradGradGradGradGradGradGradGradGradGradGradGradGradGradGradGrad

                          Input orientation:                          
 ---------------------------------------------------------------------
 Center     Atomic      Atomic             Coordinates (Angstroms)
 Number     Number       Type             X           Y           Z
 ---------------------------------------------------------------------
      1          5           0       -1.781259    0.669457   -0.210318
      2          9           0       -1.568260    1.635217   -1.176074
      3          9           0       -2.125500    1.199815    1.024922
      4          9           0       -2.646973   -0.321454   -0.639035
      5          8           0       -0.362166   -0.052454   -0.001373
      6          6           0       -0.328640   -1.498017    0.248386
      7          6           0        0.620000   -2.165378   -0.720104
      8          6           0        0.654527    0.669289    0.771998
      9          6           0        1.000832    2.001590    0.151913
     10          1           0       -0.035839   -1.636228    1.295513
     11          1           0       -1.351741   -1.849364    0.117049
     12          1           0        0.626317   -3.243654   -0.515584
     13          1           0        0.287589   -2.007407   -1.752700
     14          1           0        1.646888   -1.794042   -0.613234
     15          1           0        0.266947    0.772426    1.792361
     16          1           0        1.528794    0.012056    0.779461
     17          1           0        1.847802    2.413021    0.715859
     18          1           0        1.303377    1.879437   -0.894260
     19          1           0        0.170841    2.711671    0.207637
 ---------------------------------------------------------------------
                    Distance matrix (angstroms):
                    1          2          3          4          5
     1  B    0.000000
     2  F    1.382297   0.000000
     3  F    1.387660   2.311811   0.000000
     4  F    1.383894   2.297954   2.314076   0.000000
     5  O    1.605814   2.383867   2.393910   2.387324   0.000000
     6  C    2.649237   3.658265   3.333169   2.747086   1.467364
     7  C    3.749962   4.409185   4.680535   3.752297   2.438375
     8  C    2.626404   3.109467   2.841475   3.724579   1.467201
     9  C    3.105772   2.915135   3.343492   4.396432   2.469890
    10  H    3.260399   4.377146   3.533135   3.505585   2.072858
    11  H    2.576065   3.723083   3.274206   2.140980   2.054791
    12  H    4.604568   5.390344   5.448860   4.389638   3.380129
    13  H    3.718154   4.128605   4.881030   3.562911   2.703917
    14  H    4.240679   4.734319   5.087007   4.539429   2.728332
    15  H    2.866440   3.594996   2.548613   3.949582   2.072123
    16  H    3.516858   4.006309   3.850310   4.422712   2.046849
    17  H    4.131332   3.981691   4.165875   5.432871   3.387764
    18  H    3.383313   2.895749   3.987774   4.529274   2.702496
    19  H    2.855875   2.469389   2.868248   4.225728   2.822795
                    6          7          8          9         10
     6  C    0.000000
     7  C    1.511046   0.000000
     8  C    2.436802   3.203576   0.000000
     9  C    3.744871   4.274233   1.509788   0.000000
    10  H    1.096043   2.184682   2.462942   3.951737   0.000000
    11  H    1.089692   2.165284   3.285983   4.512833   1.779270
    12  H    2.131394   1.097519   4.119440   5.300793   2.510447
    13  H    2.154892   1.096223   3.697762   4.495366   3.087715
    14  H    2.175484   1.097183   2.995270   3.925514   2.549468
    15  H    2.809537   3.881729   1.096356   2.177269   2.477933
    16  H    2.452024   2.795679   1.093779   2.151931   2.330499
    17  H    4.500184   4.952900   2.113683   1.097574   4.503390
    18  H    3.921265   4.105833   2.159139   1.095871   4.352988
    19  H    4.239413   4.984783   2.173426   1.093712   4.486693
                   11         12         13         14         15
    11  H    0.000000
    12  H    2.501397   0.000000
    13  H    2.491655   1.781432   0.000000
    14  H    3.086770   1.775522   1.786505   0.000000
    15  H    3.507222   4.645930   4.505037   3.778609   0.000000
    16  H    3.493015   3.618184   3.468523   2.283754   1.787844
    17  H    5.363168   5.916625   5.297945   4.416586   2.519823
    18  H    4.687894   5.181493   4.108077   3.700192   3.085060
    19  H    4.809314   6.016345   5.111384   4.811860   2.506244
                   16         17         18         19
    16  H    0.000000
    17  H    2.422900   0.000000
    18  H    2.517790   1.781458   0.000000
    19  H    3.075539   1.777549   1.785898   0.000000
 Stoichiometry    C4H10BF3O
 Framework group  C1[X(C4H10BF3O)]
 Deg. of freedom    51
 Full point group                 C1      NOp   1
 Largest Abelian subgroup         C1      NOp   1
 Largest concise Abelian subgroup C1      NOp   1
                         Standard orientation:                         
 ---------------------------------------------------------------------
 Center     Atomic      Atomic             Coordinates (Angstroms)
 Number     Number       Type             X           Y           Z
 ---------------------------------------------------------------------
      1          5           0       -0.963938   -0.694495   -0.047594
      2          9           0       -1.608420   -0.212955   -1.171653
      3          9           0       -1.650377   -0.431679    1.129406
      4          9           0       -0.596357   -2.022091   -0.180013
      5          8           0        0.410411    0.130450    0.048680
      6          6           0        1.622317   -0.556440    0.509792
      7          6           0        2.744174   -0.339469   -0.478955
      8          6           0        0.335031    1.512432    0.535632
      9          6           0       -0.556738    2.371669   -0.328034
     10          1           0        1.852393   -0.166373    1.507902
     11          1           0        1.357051   -1.610038    0.593424
     12          1           0        3.637052   -0.863275   -0.114338
     13          1           0        2.475159   -0.748424   -1.459818
     14          1           0        2.995957    0.722632   -0.590127
     15          1           0       -0.009780    1.467003    1.575363
     16          1           0        1.364162    1.881957    0.509303
     17          1           0       -0.457799    3.405010    0.028458
     18          1           0       -0.241802    2.331762   -1.376916
     19          1           0       -1.608307    2.079995   -0.254995
 ---------------------------------------------------------------------
 Rotational constants (GHZ):           1.7514533           1.4144719           1.0049851
 Standard basis: Aug-CC-pVDZ (5D, 7F)
 There are   315 symmetry adapted cartesian basis functions of A   symmetry.
 There are   297 symmetry adapted basis functions of A   symmetry.
   297 basis functions,   497 primitive gaussians,   315 cartesian basis functions
    37 alpha electrons       37 beta electrons
       nuclear repulsion energy       523.8134333122 Hartrees.
 NAtoms=   19 NActive=   19 NUniq=   19 SFac= 1.00D+00 NAtFMM=   60 NAOKFM=F Big=F
 Integral buffers will be    131072 words long.
 Raffenetti 2 integral format.
 Two-electron integral symmetry is turned on.
 Nuclear repulsion after empirical dispersion term =      523.8013766126 Hartrees.
 Force PCM accuracy= 1.00D-12.
 ------------------------------------------------------------------------------
 Polarizable Continuum Model (PCM)
 =================================
 Model                : C-PCM.
 Atomic radii         : UFF (Universal Force Field).
 Polarization charges : Total charges.
 Charge compensation  : None.
 Solution method      : On-the-fly selection.
 Cavity type          : Scaled VdW (van der Waals Surface) (Alpha=1.100).
 Cavity algorithm     : GePol (No added spheres)
                        Default sphere list used, NSphG=   19.
                        Lebedev-Laikov grids with approx.  5.0 points / Ang**2.
                        Smoothing algorithm: York/Karplus (Gamma=1.0000).
                        Polarization charges: spherical gaussians, with
                                              point-specific exponents (IZeta= 3).
                        Self-potential: point-specific (ISelfS= 7).
                        Self-field    : sphere-specific E.n sum rule (ISelfD= 2).
 1st derivatives      : Analytical E(r).r(x)/FMM algorithm (CHGder, D1EAlg=3).
                        Cavity 1st derivative terms included.
 Solvent              : Chloroform, Eps=   4.711300 Eps(inf)=   2.090627
 ------------------------------------------------------------------------------
 Spheres list:
 ISph  on   Nord     Re0    Alpha      Xe            Ye            Ze
    1   B      1    2.0415  1.100     -0.963938     -0.694495     -0.047594
    2   F      2    1.6820  1.100     -1.608420     -0.212955     -1.171653
    3   F      3    1.6820  1.100     -1.650377     -0.431679      1.129406
    4   F      4    1.6820  1.100     -0.596357     -2.022091     -0.180013
    5   O      5    1.7500  1.100      0.410411      0.130450      0.048680
    6   C      6    1.9255  1.100      1.622317     -0.556440      0.509792
    7   C      7    1.9255  1.100      2.744174     -0.339469     -0.478955
    8   C      8    1.9255  1.100      0.335031      1.512432      0.535632
    9   C      9    1.9255  1.100     -0.556738      2.371669     -0.328034
   10   H     10    1.4430  1.100      1.852393     -0.166373      1.507902
   11   H     11    1.4430  1.100      1.357051     -1.610038      0.593424
   12   H     12    1.4430  1.100      3.637052     -0.863275     -0.114338
   13   H     13    1.4430  1.100      2.475159     -0.748424     -1.459818
   14   H     14    1.4430  1.100      2.995957      0.722632     -0.590127
   15   H     15    1.4430  1.100     -0.009780      1.467003      1.575363
   16   H     16    1.4430  1.100      1.364162      1.881957      0.509303
   17   H     17    1.4430  1.100     -0.457799      3.405010      0.028458
   18   H     18    1.4430  1.100     -0.241802      2.331762     -1.376916
   19   H     19    1.4430  1.100     -1.608307      2.079995     -0.254995
 ------------------------------------------------------------------------------
 One-electron integrals computed using PRISM.
 NBasis=   297 RedAO= T EigKep=  2.72D-05  NBF=   297
 NBsUse=   297 1.00D-06 EigRej= -1.00D+00 NBFU=   297
 Initial guess from the checkpoint file:  "/inspire/hdd/project/materialscienceresearch/lipenghui-253107030018/g16/00-B-DFT-Shift/04-output/BF3OEt2_CDCl3/BF3OEt2_CDCl3.chk"
 B after Tr=     0.000000    0.000000   -0.000000
         Rot=    0.999995    0.000831    0.000063   -0.003097 Ang=   0.37 deg.
 Requested convergence on RMS density matrix=1.00D-08 within 128 cycles.
 Requested convergence on MAX density matrix=1.00D-06.
 Requested convergence on             energy=1.00D-06.
 No special actions if energy rises.
 Inv3:  Mode=1 IEnd=     7068675.
 Iteration    1 A*A^-1 deviation from unit magnitude is 4.66D-15 for   1534.
 Iteration    1 A*A^-1 deviation from orthogonality  is 1.51D-15 for   1474   1052.
 Iteration    1 A^-1*A deviation from unit magnitude is 4.66D-15 for   1534.
 Iteration    1 A^-1*A deviation from orthogonality  is 2.50D-15 for   1510   1151.
 Error on total polarization charges =  0.00902
 SCF Done:  E(RwB97XD) =  -558.149148267     A.U. after    8 cycles
            NFock=  8  Conv=0.84D-08     -V/T= 2.0060
 D1PCM: C-PCM CHGder 1st derivatives, ID1Alg=3 FixD1E=F DoIter=F DoCFld=F I1PDM=0.
 Calling FoFJK, ICntrl=      2127 FMM=F ISym2X=0 I1Cent= 0 IOpClX= 0 NMat=1 NMatS=1 NMatT=0.
 ***** Axes restored to original set *****
 -------------------------------------------------------------------
 Center     Atomic                   Forces (Hartrees/Bohr)
 Number     Number              X              Y              Z
 -------------------------------------------------------------------
      1        5           0.000038045    0.000004466    0.000021001
      2        9          -0.000007287    0.000034939   -0.000045166
      3        9          -0.000056485    0.000039072    0.000024899
      4        9          -0.000080926   -0.000010214   -0.000006667
      5        8          -0.000025807   -0.000086112   -0.000197817
      6        6          -0.000037019   -0.000211317    0.000050241
      7        6          -0.000022025   -0.000043293    0.000010529
      8        6           0.000171734    0.000198429    0.000207364
      9        6          -0.000016706    0.000032255   -0.000009790
     10        1           0.000014669    0.000010074   -0.000001993
     11        1          -0.000000177    0.000043644    0.000036675
     12        1           0.000004733    0.000026385   -0.000007969
     13        1           0.000025370    0.000018166   -0.000009285
     14        1          -0.000004840    0.000061587    0.000001788
     15        1           0.000006482   -0.000047905   -0.000011266
     16        1          -0.000004792   -0.000050404   -0.000057323
     17        1           0.000000750   -0.000018294    0.000000994
     18        1           0.000005609    0.000005976    0.000001153
     19        1          -0.000011329   -0.000007453   -0.000007369
 -------------------------------------------------------------------
 Cartesian Forces:  Max     0.000211317 RMS     0.000065823

 GradGradGradGradGradGradGradGradGradGradGradGradGradGradGradGradGradGrad
 Berny optimization.
 Using GEDIIS/GDIIS optimizer.
 FormGI is forming the generalized inverse of G from B-inverse, IUseBI=4.
 Internal  Forces:  Max     0.000226754 RMS     0.000046795
 Search for a local minimum.
 Step number  18 out of a maximum of   97
 All quantities printed in internal units (Hartrees-Bohrs-Radians)
 Mixed Optimization -- En-DIIS/RFO-DIIS
 Swapping is turned off.
 Update second derivatives using D2CorX and points   10   11   12   13   14
                                                     15   16   17   18
 DE= -1.01D-06 DEPred=-7.82D-07 R= 1.29D+00
 TightC=F SS=  1.41D+00  RLast= 2.00D-02 DXNew= 1.6254D+00 6.0131D-02
 Trust test= 1.29D+00 RLast= 2.00D-02 DXMaxT set to 9.66D-01
 ITU=  1  1  1  1  1  1  1  1  0  1  1  1  1  1  1  1  1  0
     Eigenvalues ---    0.00129   0.00254   0.00293   0.00421   0.01404
     Eigenvalues ---    0.01848   0.04511   0.04995   0.05152   0.05343
     Eigenvalues ---    0.05444   0.05589   0.05849   0.05910   0.07788
     Eigenvalues ---    0.09675   0.10640   0.12870   0.12927   0.13023
     Eigenvalues ---    0.13540   0.15850   0.15996   0.16023   0.16078
     Eigenvalues ---    0.16320   0.16514   0.21130   0.22197   0.24379
     Eigenvalues ---    0.25399   0.25647   0.28337   0.28376   0.28710
     Eigenvalues ---    0.29109   0.31141   0.31913   0.31953   0.32050
     Eigenvalues ---    0.32111   0.32152   0.32178   0.32203   0.32465
     Eigenvalues ---    0.33429   0.35410   0.38036   0.40695   0.45780
     Eigenvalues ---    0.59078
 En-DIIS/RFO-DIIS/Sim-DIIS IScMMF=       -3 using points:    18   17   16   15   14   13   12   11
 RFO step:  Lambda=-1.26934395D-06.
 DIIS inversion failure, remove point   8.
 DIIS inversion failure, remove point   7.
 RFO-DIIS uses    6 points instead of    8
 DidBck=F Rises=F RFO-DIIS coefs:    2.36283   -1.56301    0.18125    0.01571   -0.04835
                  RFO-DIIS coefs:    0.05157    0.00000    0.00000
 Iteration  1 RMS(Cart)=  0.00454173 RMS(Int)=  0.00000627
 Iteration  2 RMS(Cart)=  0.00000834 RMS(Int)=  0.00000070
 Iteration  3 RMS(Cart)=  0.00000000 RMS(Int)=  0.00000070
 Variable       Old X    -DE/DX   Delta X   Delta X   Delta X     New X
                                 (Linear)    (Quad)   (Total)
    R1        2.61216   0.00006  -0.00016   0.00018   0.00002   2.61219
    R2        2.62230   0.00005  -0.00026   0.00029   0.00003   2.62232
    R3        2.61518   0.00006  -0.00021   0.00025   0.00004   2.61522
    R4        3.03455   0.00013  -0.00029   0.00020  -0.00009   3.03446
    R5        2.77292   0.00011  -0.00062   0.00039  -0.00024   2.77268
    R6        2.77261   0.00023  -0.00095   0.00059  -0.00036   2.77225
    R7        2.85546  -0.00002   0.00003   0.00003   0.00006   2.85553
    R8        2.07122   0.00000  -0.00003   0.00004   0.00000   2.07122
    R9        2.05922  -0.00002   0.00011  -0.00013  -0.00002   2.05920
   R10        2.07401  -0.00003  -0.00002  -0.00004  -0.00006   2.07395
   R11        2.07156   0.00000   0.00001  -0.00000   0.00001   2.07157
   R12        2.07338   0.00002   0.00007  -0.00002   0.00005   2.07342
   R13        2.85309   0.00001  -0.00006   0.00012   0.00006   2.85314
   R14        2.07181  -0.00002   0.00012  -0.00007   0.00005   2.07187
   R15        2.06694   0.00003   0.00018  -0.00006   0.00011   2.06706
   R16        2.07411  -0.00001  -0.00004  -0.00001  -0.00005   2.07407
   R17        2.07090  -0.00000  -0.00004   0.00001  -0.00003   2.07087
   R18        2.06682   0.00000   0.00005  -0.00002   0.00003   2.06684
    A1        1.97482  -0.00004   0.00023  -0.00029  -0.00005   1.97476
    A2        1.96083  -0.00004   0.00024  -0.00032  -0.00008   1.96075
    A3        1.84297  -0.00001   0.00002  -0.00001   0.00001   1.84298
    A4        1.97604  -0.00007   0.00029  -0.00032  -0.00003   1.97601
    A5        1.84962   0.00010  -0.00046   0.00054   0.00008   1.84970
    A6        1.84547   0.00009  -0.00044   0.00054   0.00010   1.84557
    A7        2.07741   0.00007   0.00046   0.00037   0.00084   2.07825
    A8        2.04858   0.00001   0.00077  -0.00017   0.00060   2.04918
    A9        1.95958  -0.00007   0.00030  -0.00037  -0.00007   1.95951
   A10        1.91808  -0.00014  -0.00001  -0.00027  -0.00028   1.91780
   A11        1.86810   0.00004  -0.00000  -0.00009  -0.00009   1.86801
   A12        1.85008   0.00002   0.00065  -0.00035   0.00030   1.85039
   A13        1.97027   0.00002  -0.00042   0.00015  -0.00027   1.97000
   A14        1.94958   0.00009   0.00022   0.00032   0.00054   1.95012
   A15        1.90213  -0.00003  -0.00038   0.00019  -0.00019   1.90194
   A16        1.89451   0.00002   0.00010   0.00020   0.00030   1.89481
   A17        1.92807   0.00003   0.00006   0.00008   0.00014   1.92821
   A18        1.95592  -0.00007  -0.00047  -0.00015  -0.00061   1.95531
   A19        1.89532  -0.00000   0.00005   0.00008   0.00014   1.89546
   A20        1.88491   0.00003   0.00035  -0.00004   0.00031   1.88522
   A21        1.90369  -0.00000  -0.00008  -0.00016  -0.00024   1.90346
   A22        1.95686   0.00002   0.00032  -0.00008   0.00024   1.95710
   A23        1.86699  -0.00002   0.00030  -0.00018   0.00012   1.86710
   A24        1.83578  -0.00005   0.00046  -0.00062  -0.00016   1.83562
   A25        1.96093   0.00001  -0.00054   0.00038  -0.00016   1.96078
   A26        1.92805   0.00003  -0.00022   0.00024   0.00003   1.92808
   A27        1.91001   0.00000  -0.00025   0.00018  -0.00007   1.90994
   A28        1.87210  -0.00002  -0.00021  -0.00001  -0.00022   1.87187
   A29        1.93590   0.00001   0.00006   0.00008   0.00014   1.93604
   A30        1.95835  -0.00001  -0.00014   0.00003  -0.00011   1.95824
   A31        1.89574   0.00000   0.00021  -0.00011   0.00010   1.89584
   A32        1.89237   0.00002   0.00019  -0.00001   0.00018   1.89254
   A33        1.90765  -0.00000  -0.00009   0.00001  -0.00008   1.90756
    D1       -2.49706   0.00000   0.00353  -0.00029   0.00324  -2.49381
    D2        1.32780   0.00003   0.00108   0.00011   0.00120   1.32899
    D3        1.68660   0.00000   0.00348  -0.00022   0.00326   1.68986
    D4       -0.77173   0.00003   0.00104   0.00018   0.00121  -0.77052
    D5       -0.41558  -0.00001   0.00360  -0.00040   0.00320  -0.41237
    D6       -2.87391   0.00002   0.00116   0.00000   0.00116  -2.87275
    D7        2.23190   0.00003  -0.00523   0.00013  -0.00511   2.22679
    D8       -1.90590  -0.00001  -0.00575   0.00009  -0.00566  -1.91156
    D9        0.12252  -0.00001  -0.00588   0.00009  -0.00578   0.11674
   D10       -1.56052   0.00003  -0.00273  -0.00020  -0.00293  -1.56345
   D11        0.58487  -0.00001  -0.00325  -0.00024  -0.00349   0.58139
   D12        2.61329  -0.00001  -0.00338  -0.00023  -0.00361   2.60968
   D13       -1.03415   0.00004   0.00733  -0.00015   0.00718  -1.02697
   D14        1.12292   0.00006   0.00706   0.00015   0.00721   1.13013
   D15       -3.13021   0.00003   0.00713  -0.00001   0.00711  -3.12310
   D16        2.74664   0.00001   0.00499  -0.00005   0.00494   2.75158
   D17       -1.37948   0.00003   0.00473   0.00025   0.00498  -1.37450
   D18        0.65058  -0.00000   0.00479   0.00008   0.00488   0.65545
   D19       -3.13942  -0.00002  -0.00162  -0.00005  -0.00167  -3.14109
   D20       -1.06314   0.00001  -0.00145   0.00021  -0.00124  -1.06437
   D21        1.06355  -0.00003  -0.00183  -0.00004  -0.00187   1.06168
   D22        1.05976   0.00002  -0.00133   0.00015  -0.00118   1.05858
   D23        3.13605   0.00005  -0.00117   0.00042  -0.00075   3.13530
   D24       -1.02045   0.00001  -0.00155   0.00016  -0.00138  -1.02183
   D25       -1.09109  -0.00003  -0.00068  -0.00046  -0.00114  -1.09223
   D26        0.98520   0.00000  -0.00052  -0.00019  -0.00071   0.98449
   D27        3.11189  -0.00004  -0.00090  -0.00045  -0.00134   3.11055
   D28       -3.02077   0.00001  -0.00179  -0.00019  -0.00198  -3.02275
   D29       -0.95309   0.00001  -0.00163  -0.00028  -0.00191  -0.95501
   D30        1.18602   0.00001  -0.00180  -0.00019  -0.00199   1.18402
   D31        1.15897   0.00001  -0.00202  -0.00017  -0.00219   1.15678
   D32       -3.05653   0.00001  -0.00186  -0.00026  -0.00212  -3.05865
   D33       -0.91742   0.00001  -0.00204  -0.00017  -0.00221  -0.91962
   D34       -0.97932  -0.00002  -0.00116  -0.00085  -0.00201  -0.98133
   D35        1.08836  -0.00003  -0.00099  -0.00094  -0.00194   1.08642
   D36       -3.05571  -0.00003  -0.00117  -0.00085  -0.00202  -3.05774
         Item               Value     Threshold  Converged?
 Maximum Force            0.000227     0.000450     YES
 RMS     Force            0.000047     0.000300     YES
 Maximum Displacement     0.012475     0.001800     NO 
 RMS     Displacement     0.004543     0.001200     NO 
 Predicted change in Energy=-6.287077D-07
 GradGradGradGradGradGradGradGradGradGradGradGradGradGradGradGradGradGrad

                          Input orientation:                          
 ---------------------------------------------------------------------
 Center     Atomic      Atomic             Coordinates (Angstroms)
 Number     Number       Type             X           Y           Z
 ---------------------------------------------------------------------
      1          5           0       -1.778696    0.669861   -0.213687
      2          9           0       -1.563545    1.631918   -1.182675
      3          9           0       -2.123478    1.205119    1.019301
      4          9           0       -2.645415   -0.321343   -0.639755
      5          8           0       -0.360787   -0.053137   -0.000861
      6          6           0       -0.327917   -1.498396    0.250015
      7          6           0        0.617511   -2.167102   -0.720737
      8          6           0        0.656035    0.668594    0.771991
      9          6           0        0.998324    2.003375    0.154940
     10          1           0       -0.031767   -1.635906    1.296294
     11          1           0       -1.351726   -1.849084    0.122580
     12          1           0        0.625120   -3.245042   -0.514673
     13          1           0        0.281736   -2.010684   -1.752487
     14          1           0        1.644437   -1.794692   -0.617787
     15          1           0        0.270717    0.768203    1.793593
     16          1           0        1.531646    0.013021    0.775631
     17          1           0        1.844381    2.415615    0.719615
     18          1           0        1.300673    1.884747   -0.891681
     19          1           0        0.166290    2.710912    0.212797
 ---------------------------------------------------------------------
                    Distance matrix (angstroms):
                    1          2          3          4          5
     1  B    0.000000
     2  F    1.382310   0.000000
     3  F    1.387673   2.311792   0.000000
     4  F    1.383915   2.297919   2.314081   0.000000
     5  O    1.605768   2.383846   2.393955   2.387394   0.000000
     6  C    2.649739   3.657628   3.335391   2.747352   1.467239
     7  C    3.747968   4.404877   4.681093   3.749676   2.438060
     8  C    2.626686   3.110506   2.841604   3.724591   1.467012
     9  C    3.102577   2.913823   3.336163   4.394620   2.469959
    10  H    3.263184   4.378391   3.538842   3.508208   2.072685
    11  H    2.576910   3.723699   3.275343   2.142144   2.054902
    12  H    4.603845   5.387134   5.450853   4.388628   3.379980
    13  H    3.714648   4.122900   4.879473   3.558126   2.704259
    14  H    4.237353   4.727780   5.086856   4.535865   2.726634
    15  H    2.870355   3.601207   2.553937   3.951218   2.072067
    16  H    3.516896   4.004497   3.852324   4.423003   2.046611
    17  H    4.128608   3.980810   4.159209   5.431123   3.387712
    18  H    3.379074   2.890043   3.979769   4.527904   2.703591
    19  H    2.851447   2.470607   2.856729   4.222215   2.821955
                    6          7          8          9         10
     6  C    0.000000
     7  C    1.511080   0.000000
     8  C    2.436486   3.204824   0.000000
     9  C    3.745711   4.278400   1.509819   0.000000
    10  H    1.096045   2.184525   2.461440   3.950714   0.000000
    11  H    1.089682   2.165690   3.285049   4.512784   1.779140
    12  H    2.131619   1.097485   4.119831   5.304106   2.510064
    13  H    2.155024   1.096229   3.700219   4.501605   3.087687
    14  H    2.175098   1.097209   2.996031   3.929361   2.549232
    15  H    2.806860   3.880482   1.096385   2.177210   2.473569
    16  H    2.453289   2.797803   1.093839   2.152021   2.331161
    17  H    4.500987   4.957936   2.113526   1.097549   4.501924
    18  H    3.924465   4.112592   2.159257   1.095857   4.354036
    19  H    4.238384   4.986994   2.173387   1.093727   4.484197
                   11         12         13         14         15
    11  H    0.000000
    12  H    2.502540   0.000000
    13  H    2.492025   1.781497   0.000000
    14  H    3.086762   1.775713   1.786379   0.000000
    15  H    3.503541   4.643256   4.505221   3.777604   0.000000
    16  H    3.493959   3.619620   3.471173   2.285205   1.787872
    17  H    5.362762   5.920566   5.305212   4.422138   2.518693
    18  H    4.690996   5.187797   4.117476   3.705598   3.085154
    19  H    4.806879   6.017734   5.115579   4.814069   2.506778
                   16         17         18         19
    16  H    0.000000
    17  H    2.423510   0.000000
    18  H    2.517267   1.781492   0.000000
    19  H    3.075646   1.777655   1.785846   0.000000
 Stoichiometry    C4H10BF3O
 Framework group  C1[X(C4H10BF3O)]
 Deg. of freedom    51
 Full point group                 C1      NOp   1
 Largest Abelian subgroup         C1      NOp   1
 Largest concise Abelian subgroup C1      NOp   1
                         Standard orientation:                         
 ---------------------------------------------------------------------
 Center     Atomic      Atomic             Coordinates (Angstroms)
 Number     Number       Type             X           Y           Z
 ---------------------------------------------------------------------
      1          5           0       -0.959453   -0.698870   -0.047252
      2          9           0       -1.603578   -0.224110   -1.174411
      3          9           0       -1.650122   -0.435701    1.127207
      4          9           0       -0.585181   -2.025117   -0.174573
      5          8           0        0.410561    0.133091    0.049672
      6          6           0        1.626140   -0.546308    0.511815
      7          6           0        2.745003   -0.329104   -0.480318
      8          6           0        0.328317    1.515648    0.533298
      9          6           0       -0.573651    2.366816   -0.327816
     10          1           0        1.856619   -0.149947    1.507350
     11          1           0        1.365656   -1.600565    0.601810
     12          1           0        3.641560   -0.845664   -0.114496
     13          1           0        2.476415   -0.744993   -1.458385
     14          1           0        2.990108    0.733880   -0.598033
     15          1           0       -0.010786    1.470785    1.574959
     16          1           0        1.354886    1.891914    0.500680
     17          1           0       -0.481141    3.401263    0.027111
     18          1           0       -0.262869    2.328028   -1.377965
     19          1           0       -1.622594    2.066971   -0.250027
 ---------------------------------------------------------------------
 Rotational constants (GHZ):           1.7515954           1.4150570           1.0053520
 Standard basis: Aug-CC-pVDZ (5D, 7F)
 There are   315 symmetry adapted cartesian basis functions of A   symmetry.
 There are   297 symmetry adapted basis functions of A   symmetry.
   297 basis functions,   497 primitive gaussians,   315 cartesian basis functions
    37 alpha electrons       37 beta electrons
       nuclear repulsion energy       523.8500602994 Hartrees.
 NAtoms=   19 NActive=   19 NUniq=   19 SFac= 1.00D+00 NAtFMM=   60 NAOKFM=F Big=F
 Integral buffers will be    131072 words long.
 Raffenetti 2 integral format.
 Two-electron integral symmetry is turned on.
 Nuclear repulsion after empirical dispersion term =      523.8379993270 Hartrees.
 Force PCM accuracy= 1.00D-12.
 ------------------------------------------------------------------------------
 Polarizable Continuum Model (PCM)
 =================================
 Model                : C-PCM.
 Atomic radii         : UFF (Universal Force Field).
 Polarization charges : Total charges.
 Charge compensation  : None.
 Solution method      : On-the-fly selection.
 Cavity type          : Scaled VdW (van der Waals Surface) (Alpha=1.100).
 Cavity algorithm     : GePol (No added spheres)
                        Default sphere list used, NSphG=   19.
                        Lebedev-Laikov grids with approx.  5.0 points / Ang**2.
                        Smoothing algorithm: York/Karplus (Gamma=1.0000).
                        Polarization charges: spherical gaussians, with
                                              point-specific exponents (IZeta= 3).
                        Self-potential: point-specific (ISelfS= 7).
                        Self-field    : sphere-specific E.n sum rule (ISelfD= 2).
 1st derivatives      : Analytical E(r).r(x)/FMM algorithm (CHGder, D1EAlg=3).
                        Cavity 1st derivative terms included.
 Solvent              : Chloroform, Eps=   4.711300 Eps(inf)=   2.090627
 ------------------------------------------------------------------------------
 Spheres list:
 ISph  on   Nord     Re0    Alpha      Xe            Ye            Ze
    1   B      1    2.0415  1.100     -0.959453     -0.698870     -0.047252
    2   F      2    1.6820  1.100     -1.603578     -0.224110     -1.174411
    3   F      3    1.6820  1.100     -1.650122     -0.435701      1.127207
    4   F      4    1.6820  1.100     -0.585181     -2.025117     -0.174573
    5   O      5    1.7500  1.100      0.410561      0.133091      0.049672
    6   C      6    1.9255  1.100      1.626140     -0.546308      0.511815
    7   C      7    1.9255  1.100      2.745003     -0.329104     -0.480318
    8   C      8    1.9255  1.100      0.328317      1.515648      0.533298
    9   C      9    1.9255  1.100     -0.573651      2.366816     -0.327816
   10   H     10    1.4430  1.100      1.856619     -0.149947      1.507350
   11   H     11    1.4430  1.100      1.365656     -1.600565      0.601810
   12   H     12    1.4430  1.100      3.641560     -0.845664     -0.114496
   13   H     13    1.4430  1.100      2.476415     -0.744993     -1.458385
   14   H     14    1.4430  1.100      2.990108      0.733880     -0.598033
   15   H     15    1.4430  1.100     -0.010786      1.470785      1.574959
   16   H     16    1.4430  1.100      1.354886      1.891914      0.500680
   17   H     17    1.4430  1.100     -0.481141      3.401263      0.027111
   18   H     18    1.4430  1.100     -0.262869      2.328028     -1.377965
   19   H     19    1.4430  1.100     -1.622594      2.066971     -0.250027
 ------------------------------------------------------------------------------
 One-electron integrals computed using PRISM.
 NBasis=   297 RedAO= T EigKep=  2.72D-05  NBF=   297
 NBsUse=   297 1.00D-06 EigRej= -1.00D+00 NBFU=   297
 Initial guess from the checkpoint file:  "/inspire/hdd/project/materialscienceresearch/lipenghui-253107030018/g16/00-B-DFT-Shift/04-output/BF3OEt2_CDCl3/BF3OEt2_CDCl3.chk"
 B after Tr=     0.000000    0.000000    0.000000
         Rot=    0.999996    0.000869    0.000040   -0.002648 Ang=   0.32 deg.
 Requested convergence on RMS density matrix=1.00D-08 within 128 cycles.
 Requested convergence on MAX density matrix=1.00D-06.
 Requested convergence on             energy=1.00D-06.
 No special actions if energy rises.
 Inv3:  Mode=1 IEnd=     7068675.
 Iteration    1 A*A^-1 deviation from unit magnitude is 3.44D-15 for    868.
 Iteration    1 A*A^-1 deviation from orthogonality  is 2.55D-15 for   1517   1093.
 Iteration    1 A^-1*A deviation from unit magnitude is 3.44D-15 for    868.
 Iteration    1 A^-1*A deviation from orthogonality  is 2.51D-15 for   1509    983.
 Error on total polarization charges =  0.00902
 SCF Done:  E(RwB97XD) =  -558.149149515     A.U. after    8 cycles
            NFock=  8  Conv=0.75D-08     -V/T= 2.0060
 D1PCM: C-PCM CHGder 1st derivatives, ID1Alg=3 FixD1E=F DoIter=F DoCFld=F I1PDM=0.
 Calling FoFJK, ICntrl=      2127 FMM=F ISym2X=0 I1Cent= 0 IOpClX= 0 NMat=1 NMatS=1 NMatT=0.
 ***** Axes restored to original set *****
 -------------------------------------------------------------------
 Center     Atomic                   Forces (Hartrees/Bohr)
 Number     Number              X              Y              Z
 -------------------------------------------------------------------
      1        5          -0.000000431    0.000011784    0.000024051
      2        9           0.000006832    0.000032624   -0.000048882
      3        9          -0.000042061    0.000020655    0.000025853
      4        9          -0.000047990   -0.000025839    0.000005920
      5        8          -0.000082080   -0.000049324   -0.000217706
      6        6          -0.000010154   -0.000247891    0.000057583
      7        6          -0.000031041    0.000004742    0.000006606
      8        6           0.000227025    0.000219011    0.000226100
      9        6          -0.000027711   -0.000003603   -0.000010279
     10        1           0.000011417    0.000016216   -0.000004363
     11        1          -0.000014929    0.000038083    0.000006092
     12        1           0.000011332    0.000013272   -0.000004262
     13        1           0.000010823    0.000013103   -0.000002931
     14        1          -0.000002240    0.000021844    0.000004330
     15        1          -0.000007190   -0.000032719   -0.000022290
     16        1          -0.000011656   -0.000026405   -0.000051187
     17        1           0.000007143   -0.000002593    0.000000092
     18        1           0.000010608    0.000001499    0.000003117
     19        1          -0.000007697   -0.000004460    0.000002157
 -------------------------------------------------------------------
 Cartesian Forces:  Max     0.000247891 RMS     0.000071653

 GradGradGradGradGradGradGradGradGradGradGradGradGradGradGradGradGradGrad
 Berny optimization.
 Using GEDIIS/GDIIS optimizer.
 FormGI is forming the generalized inverse of G from B-inverse, IUseBI=4.
 Internal  Forces:  Max     0.000285925 RMS     0.000042113
 Search for a local minimum.
 Step number  19 out of a maximum of   97
 All quantities printed in internal units (Hartrees-Bohrs-Radians)
 Mixed Optimization -- En-DIIS/RFO-DIIS
 Swapping is turned off.
 Update second derivatives using D2CorX and points   10   11   12   13   14
                                                     15   16   17   18   19
 DE= -1.25D-06 DEPred=-6.29D-07 R= 1.98D+00
 TightC=F SS=  1.41D+00  RLast= 2.11D-02 DXNew= 1.6254D+00 6.3202D-02
 Trust test= 1.98D+00 RLast= 2.11D-02 DXMaxT set to 9.66D-01
 ITU=  1  1  1  1  1  1  1  1  1  0  1  1  1  1  1  1  1  1  0
     Eigenvalues ---    0.00092   0.00253   0.00287   0.00352   0.01404
     Eigenvalues ---    0.01822   0.04504   0.05114   0.05125   0.05366
     Eigenvalues ---    0.05404   0.05566   0.05808   0.05891   0.07668
     Eigenvalues ---    0.09676   0.10624   0.12750   0.12906   0.13028
     Eigenvalues ---    0.13492   0.15811   0.15992   0.16026   0.16098
     Eigenvalues ---    0.16353   0.16602   0.20949   0.22136   0.23779
     Eigenvalues ---    0.25284   0.25699   0.28299   0.28386   0.28709
     Eigenvalues ---    0.29320   0.31089   0.31891   0.31995   0.32067
     Eigenvalues ---    0.32117   0.32153   0.32174   0.32207   0.32428
     Eigenvalues ---    0.33448   0.35168   0.39058   0.41123   0.46710
     Eigenvalues ---    0.57988
 En-DIIS/RFO-DIIS/Sim-DIIS IScMMF=       -3 using points:    19   18   17   16   15   14   13   12   11
 RFO step:  Lambda=-1.42176025D-06.
 DIIS inversion failure, remove point   9.
 DIIS inversion failure, remove point   8.
 DIIS inversion failure, remove point   7.
 DIIS inversion failure, remove point   6.
 RFO-DIIS uses    5 points instead of    9
 DidBck=F Rises=F RFO-DIIS coefs:    1.79785    0.00825   -1.02274    0.17968    0.03696
                  RFO-DIIS coefs:    0.00000    0.00000    0.00000    0.00000
 Iteration  1 RMS(Cart)=  0.00567564 RMS(Int)=  0.00000990
 Iteration  2 RMS(Cart)=  0.00001348 RMS(Int)=  0.00000016
 Iteration  3 RMS(Cart)=  0.00000000 RMS(Int)=  0.00000016
 Variable       Old X    -DE/DX   Delta X   Delta X   Delta X     New X
                                 (Linear)    (Quad)   (Total)
    R1        2.61219   0.00006  -0.00004   0.00014   0.00010   2.61228
    R2        2.62232   0.00004  -0.00012   0.00015   0.00003   2.62235
    R3        2.61522   0.00005  -0.00008   0.00015   0.00008   2.61530
    R4        3.03446   0.00009  -0.00015  -0.00010  -0.00025   3.03421
    R5        2.77268   0.00015  -0.00039   0.00046   0.00007   2.77275
    R6        2.77225   0.00029  -0.00058   0.00069   0.00011   2.77236
    R7        2.85553  -0.00003   0.00005  -0.00009  -0.00005   2.85548
    R8        2.07122  -0.00000  -0.00001  -0.00002  -0.00003   2.07120
    R9        2.05920   0.00000   0.00005  -0.00004   0.00000   2.05920
   R10        2.07395  -0.00001  -0.00006  -0.00001  -0.00007   2.07387
   R11        2.07157   0.00000   0.00001  -0.00001   0.00000   2.07157
   R12        2.07342   0.00001   0.00006  -0.00002   0.00004   2.07347
   R13        2.85314  -0.00001  -0.00001  -0.00006  -0.00007   2.85307
   R14        2.07187  -0.00002   0.00009  -0.00007   0.00002   2.07189
   R15        2.06706   0.00001   0.00016  -0.00006   0.00010   2.06716
   R16        2.07407   0.00001  -0.00005   0.00002  -0.00003   2.07403
   R17        2.07087  -0.00000  -0.00004  -0.00000  -0.00004   2.07082
   R18        2.06684   0.00000   0.00004  -0.00002   0.00003   2.06687
    A1        1.97476  -0.00001   0.00012  -0.00011   0.00001   1.97477
    A2        1.96075  -0.00001   0.00008  -0.00009  -0.00001   1.96074
    A3        1.84298  -0.00002  -0.00001  -0.00004  -0.00005   1.84293
    A4        1.97601  -0.00004   0.00009  -0.00018  -0.00009   1.97592
    A5        1.84970   0.00007  -0.00016   0.00029   0.00013   1.84983
    A6        1.84557   0.00002  -0.00018   0.00019   0.00002   1.84559
    A7        2.07825   0.00000   0.00072   0.00009   0.00081   2.07906
    A8        2.04918   0.00001   0.00081  -0.00012   0.00069   2.04987
    A9        1.95951  -0.00002   0.00010  -0.00016  -0.00006   1.95945
   A10        1.91780  -0.00009  -0.00021  -0.00023  -0.00044   1.91735
   A11        1.86801   0.00002  -0.00007  -0.00012  -0.00019   1.86782
   A12        1.85039   0.00000   0.00041  -0.00026   0.00016   1.85054
   A13        1.97000   0.00002  -0.00038   0.00019  -0.00018   1.96981
   A14        1.95012   0.00005   0.00054   0.00015   0.00069   1.95081
   A15        1.90194  -0.00001  -0.00027   0.00023  -0.00004   1.90190
   A16        1.89481   0.00002   0.00026   0.00008   0.00034   1.89514
   A17        1.92821   0.00001   0.00013  -0.00001   0.00011   1.92832
   A18        1.95531  -0.00003  -0.00065   0.00001  -0.00065   1.95466
   A19        1.89546   0.00000   0.00013   0.00004   0.00017   1.89563
   A20        1.88522   0.00001   0.00037  -0.00011   0.00026   1.88548
   A21        1.90346   0.00000  -0.00021  -0.00000  -0.00021   1.90325
   A22        1.95710   0.00002   0.00035  -0.00012   0.00022   1.95732
   A23        1.86710  -0.00002   0.00019  -0.00027  -0.00009   1.86702
   A24        1.83562  -0.00004   0.00008  -0.00038  -0.00030   1.83532
   A25        1.96078   0.00001  -0.00036   0.00025  -0.00011   1.96067
   A26        1.92808   0.00001  -0.00009   0.00021   0.00012   1.92820
   A27        1.90994   0.00001  -0.00013   0.00027   0.00014   1.91007
   A28        1.87187  -0.00001  -0.00030   0.00002  -0.00028   1.87160
   A29        1.93604   0.00001   0.00014   0.00004   0.00018   1.93622
   A30        1.95824  -0.00001  -0.00014  -0.00006  -0.00020   1.95804
   A31        1.89584  -0.00000   0.00016  -0.00008   0.00009   1.89593
   A32        1.89254   0.00001   0.00024  -0.00002   0.00022   1.89276
   A33        1.90756   0.00001  -0.00009   0.00009  -0.00000   1.90756
    D1       -2.49381   0.00001   0.00405  -0.00006   0.00399  -2.48983
    D2        1.32899   0.00002   0.00152   0.00030   0.00182   1.33081
    D3        1.68986   0.00000   0.00400  -0.00006   0.00394   1.69380
    D4       -0.77052   0.00001   0.00147   0.00030   0.00177  -0.76874
    D5       -0.41237   0.00001   0.00405  -0.00009   0.00397  -0.40841
    D6       -2.87275   0.00001   0.00153   0.00027   0.00180  -2.87095
    D7        2.22679   0.00001  -0.00558   0.00003  -0.00555   2.22124
    D8       -1.91156  -0.00001  -0.00621   0.00005  -0.00616  -1.91772
    D9        0.11674  -0.00000  -0.00635   0.00013  -0.00622   0.11052
   D10       -1.56345   0.00001  -0.00293  -0.00030  -0.00323  -1.56668
   D11        0.58139  -0.00000  -0.00356  -0.00028  -0.00384   0.57755
   D12        2.60968  -0.00000  -0.00371  -0.00020  -0.00390   2.60578
   D13       -1.02697   0.00001   0.00932  -0.00017   0.00915  -1.01782
   D14        1.13013   0.00003   0.00922  -0.00012   0.00910   1.13923
   D15       -3.12310   0.00001   0.00919  -0.00012   0.00907  -3.11403
   D16        2.75158   0.00002   0.00675   0.00007   0.00683   2.75840
   D17       -1.37450   0.00003   0.00665   0.00012   0.00677  -1.36773
   D18        0.65545   0.00001   0.00662   0.00012   0.00674   0.66219
   D19       -3.14109  -0.00001  -0.00163   0.00019  -0.00143   3.14066
   D20       -1.06437   0.00001  -0.00123   0.00028  -0.00095  -1.06532
   D21        1.06168  -0.00000  -0.00186   0.00027  -0.00158   1.06010
   D22        1.05858   0.00001  -0.00115   0.00038  -0.00077   1.05781
   D23        3.13530   0.00003  -0.00075   0.00047  -0.00028   3.13502
   D24       -1.02183   0.00001  -0.00138   0.00046  -0.00092  -1.02275
   D25       -1.09223  -0.00003  -0.00092  -0.00018  -0.00110  -1.09333
   D26        0.98449  -0.00001  -0.00052  -0.00009  -0.00061   0.98388
   D27        3.11055  -0.00003  -0.00115  -0.00011  -0.00125   3.10930
   D28       -3.02275   0.00001  -0.00255  -0.00008  -0.00263  -3.02539
   D29       -0.95501   0.00000  -0.00246  -0.00014  -0.00260  -0.95760
   D30        1.18402   0.00001  -0.00257  -0.00004  -0.00261   1.18141
   D31        1.15678   0.00001  -0.00279   0.00018  -0.00260   1.15418
   D32       -3.05865   0.00001  -0.00269   0.00013  -0.00257  -3.06122
   D33       -0.91962   0.00001  -0.00280   0.00022  -0.00258  -0.92220
   D34       -0.98133  -0.00002  -0.00230  -0.00049  -0.00279  -0.98412
   D35        1.08642  -0.00002  -0.00220  -0.00055  -0.00275   1.08367
   D36       -3.05774  -0.00002  -0.00231  -0.00045  -0.00276  -3.06050
         Item               Value     Threshold  Converged?
 Maximum Force            0.000286     0.000450     YES
 RMS     Force            0.000042     0.000300     YES
 Maximum Displacement     0.015629     0.001800     NO 
 RMS     Displacement     0.005677     0.001200     NO 
 Predicted change in Energy=-6.948261D-07
 GradGradGradGradGradGradGradGradGradGradGradGradGradGradGradGradGradGrad

                          Input orientation:                          
 ---------------------------------------------------------------------
 Center     Atomic      Atomic             Coordinates (Angstroms)
 Number     Number       Type             X           Y           Z
 ---------------------------------------------------------------------
      1          5           0       -1.775436    0.670367   -0.217760
      2          9           0       -1.557864    1.627704   -1.190945
      3          9           0       -2.120461    1.211767    1.012493
      4          9           0       -2.643512   -0.321313   -0.640072
      5          8           0       -0.359015   -0.053960   -0.000593
      6          6           0       -0.327237   -1.499002    0.251869
      7          6           0        0.614506   -2.169446   -0.721227
      8          6           0        0.658282    0.667825    0.771694
      9          6           0        0.995049    2.005849    0.158741
     10          1           0       -0.027471   -1.635486    1.297238
     11          1           0       -1.351951   -1.848563    0.128664
     12          1           0        0.623045   -3.247042   -0.513617
     13          1           0        0.275272   -2.014427   -1.752056
     14          1           0        1.641620   -1.796387   -0.622324
     15          1           0        0.275851    0.762596    1.794850
     16          1           0        1.535594    0.014429    0.770020
     17          1           0        1.839973    2.419189    0.724277
     18          1           0        1.297016    1.891962   -0.888492
     19          1           0        0.160276    2.709918    0.219654
 ---------------------------------------------------------------------
                    Distance matrix (angstroms):
                    1          2          3          4          5
     1  B    0.000000
     2  F    1.382361   0.000000
     3  F    1.387689   2.311852   0.000000
     4  F    1.383956   2.297991   2.314064   0.000000
     5  O    1.605634   2.383731   2.393972   2.387329   0.000000
     6  C    2.650282   3.656836   3.338034   2.747297   1.467274
     7  C    3.745642   4.399792   4.681712   3.746580   2.437691
     8  C    2.627168   3.112013   2.841703   3.724691   1.467070
     9  C    3.098524   2.912389   3.326539   4.392370   2.470160
    10  H    3.266122   4.379676   3.545213   3.510540   2.072561
    11  H    2.577665   3.724004   3.276795   2.142797   2.055050
    12  H    4.602862   5.383149   5.453148   4.387058   3.379854
    13  H    3.710469   4.115866   4.877560   3.552807   2.704325
    14  H    4.233771   4.720638   5.086735   4.531944   2.724911
    15  H    2.875219   3.609141   2.560498   3.953023   2.072060
    16  H    3.516942   4.002190   3.854757   4.423349   2.046476
    17  H    4.125165   3.979927   4.150418   5.428945   3.387839
    18  H    3.373742   2.882993   3.969327   4.526374   2.705072
    19  H    2.845712   2.472444   2.841621   4.217667   2.820850
                    6          7          8          9         10
     6  C    0.000000
     7  C    1.511056   0.000000
     8  C    2.436514   3.206374   0.000000
     9  C    3.747145   4.283952   1.509779   0.000000
    10  H    1.096030   2.184364   2.460019   3.949816   0.000000
    11  H    1.089684   2.166156   3.284316   4.512849   1.779104
    12  H    2.131819   1.097447   4.120613   5.308797   2.509877
    13  H    2.155086   1.096230   3.702767   4.509085   3.087627
    14  H    2.174638   1.097232   2.997095   3.935113   2.548818
    15  H    2.803449   3.878427   1.096396   2.177103   2.467877
    16  H    2.455421   2.800273   1.093894   2.152116   2.333099
    17  H    4.502464   4.964556   2.113272   1.097532   4.500669
    18  H    3.929027   4.121751   2.159331   1.095833   4.355981
    19  H    4.237182   4.989967   2.173224   1.093741   4.480957
                   11         12         13         14         15
    11  H    0.000000
    12  H    2.503773   0.000000
    13  H    2.492483   1.781577   0.000000
    14  H    3.086774   1.775870   1.786265   0.000000
    15  H    3.499152   4.639694   4.504708   3.775771   0.000000
    16  H    3.495711   3.621832   3.473548   2.286683   1.788011
    17  H    5.362540   5.926168   5.313893   4.429871   2.517321
    18  H    4.695014   5.196550   4.129113   3.713962   3.085218
    19  H    4.803630   6.019736   5.120576   4.817685   2.507323
                   16         17         18         19
    16  H    0.000000
    17  H    2.424378   0.000000
    18  H    2.516487   1.781514   0.000000
    19  H    3.075722   1.777793   1.785837   0.000000
 Stoichiometry    C4H10BF3O
 Framework group  C1[X(C4H10BF3O)]
 Deg. of freedom    51
 Full point group                 C1      NOp   1
 Largest Abelian subgroup         C1      NOp   1
 Largest concise Abelian subgroup C1      NOp   1
                         Standard orientation:                         
 ---------------------------------------------------------------------
 Center     Atomic      Atomic             Coordinates (Angstroms)
 Number     Number       Type             X           Y           Z
 ---------------------------------------------------------------------
      1          5           0       -0.953611   -0.704555   -0.046825
      2          9           0       -1.597440   -0.238631   -1.177896
      3          9           0       -1.649472   -0.440988    1.124495
      4          9           0       -0.570537   -2.028955   -0.167462
      5          8           0        0.410670    0.136470    0.050503
      6          6           0        1.630975   -0.533475    0.514099
      7          6           0        2.746261   -0.315214   -0.481787
      8          6           0        0.319512    1.519914    0.530154
      9          6           0       -0.595785    2.360435   -0.327277
     10          1           0        1.861306   -0.129641    1.506645
     11          1           0        1.376579   -1.588585    0.611249
     12          1           0        3.647221   -0.823128   -0.114795
     13          1           0        2.478388   -0.738868   -1.456714
     14          1           0        2.983285    0.748812   -0.606636
     15          1           0       -0.012063    1.475455    1.574264
     16          1           0        1.342628    1.904828    0.489168
     17          1           0       -0.511712    3.396232    0.025757
     18          1           0       -0.290551    2.323245   -1.379084
     19          1           0       -1.641126    2.049873   -0.243114
 ---------------------------------------------------------------------
 Rotational constants (GHZ):           1.7517679           1.4157861           1.0057619
 Standard basis: Aug-CC-pVDZ (5D, 7F)
 There are   315 symmetry adapted cartesian basis functions of A   symmetry.
 There are   297 symmetry adapted basis functions of A   symmetry.
   297 basis functions,   497 primitive gaussians,   315 cartesian basis functions
    37 alpha electrons       37 beta electrons
       nuclear repulsion energy       523.8907434380 Hartrees.
 NAtoms=   19 NActive=   19 NUniq=   19 SFac= 1.00D+00 NAtFMM=   60 NAOKFM=F Big=F
 Integral buffers will be    131072 words long.
 Raffenetti 2 integral format.
 Two-electron integral symmetry is turned on.
 Nuclear repulsion after empirical dispersion term =      523.8786773958 Hartrees.
 Force PCM accuracy= 1.00D-12.
 ------------------------------------------------------------------------------
 Polarizable Continuum Model (PCM)
 =================================
 Model                : C-PCM.
 Atomic radii         : UFF (Universal Force Field).
 Polarization charges : Total charges.
 Charge compensation  : None.
 Solution method      : On-the-fly selection.
 Cavity type          : Scaled VdW (van der Waals Surface) (Alpha=1.100).
 Cavity algorithm     : GePol (No added spheres)
                        Default sphere list used, NSphG=   19.
                        Lebedev-Laikov grids with approx.  5.0 points / Ang**2.
                        Smoothing algorithm: York/Karplus (Gamma=1.0000).
                        Polarization charges: spherical gaussians, with
                                              point-specific exponents (IZeta= 3).
                        Self-potential: point-specific (ISelfS= 7).
                        Self-field    : sphere-specific E.n sum rule (ISelfD= 2).
 1st derivatives      : Analytical E(r).r(x)/FMM algorithm (CHGder, D1EAlg=3).
                        Cavity 1st derivative terms included.
 Solvent              : Chloroform, Eps=   4.711300 Eps(inf)=   2.090627
 ------------------------------------------------------------------------------
 Spheres list:
 ISph  on   Nord     Re0    Alpha      Xe            Ye            Ze
    1   B      1    2.0415  1.100     -0.953611     -0.704555     -0.046825
    2   F      2    1.6820  1.100     -1.597440     -0.238631     -1.177896
    3   F      3    1.6820  1.100     -1.649472     -0.440988      1.124495
    4   F      4    1.6820  1.100     -0.570537     -2.028955     -0.167462
    5   O      5    1.7500  1.100      0.410670      0.136470      0.050503
    6   C      6    1.9255  1.100      1.630975     -0.533475      0.514099
    7   C      7    1.9255  1.100      2.746261     -0.315214     -0.481787
    8   C      8    1.9255  1.100      0.319512      1.519914      0.530154
    9   C      9    1.9255  1.100     -0.595785      2.360435     -0.327277
   10   H     10    1.4430  1.100      1.861306     -0.129641      1.506645
   11   H     11    1.4430  1.100      1.376579     -1.588585      0.611249
   12   H     12    1.4430  1.100      3.647221     -0.823128     -0.114795
   13   H     13    1.4430  1.100      2.478388     -0.738868     -1.456714
   14   H     14    1.4430  1.100      2.983285      0.748812     -0.606636
   15   H     15    1.4430  1.100     -0.012063      1.475455      1.574264
   16   H     16    1.4430  1.100      1.342628      1.904828      0.489168
   17   H     17    1.4430  1.100     -0.511712      3.396232      0.025757
   18   H     18    1.4430  1.100     -0.290551      2.323245     -1.379084
   19   H     19    1.4430  1.100     -1.641126      2.049873     -0.243114
 ------------------------------------------------------------------------------
 One-electron integrals computed using PRISM.
 NBasis=   297 RedAO= T EigKep=  2.71D-05  NBF=   297
 NBsUse=   297 1.00D-06 EigRej= -1.00D+00 NBFU=   297
 Initial guess from the checkpoint file:  "/inspire/hdd/project/materialscienceresearch/lipenghui-253107030018/g16/00-B-DFT-Shift/04-output/BF3OEt2_CDCl3/BF3OEt2_CDCl3.chk"
 B after Tr=    -0.000000   -0.000000    0.000000
         Rot=    0.999993    0.001086    0.000038   -0.003465 Ang=   0.42 deg.
 Requested convergence on RMS density matrix=1.00D-08 within 128 cycles.
 Requested convergence on MAX density matrix=1.00D-06.
 Requested convergence on             energy=1.00D-06.
 No special actions if energy rises.
 Inv3:  Mode=1 IEnd=     6986028.
 Iteration    1 A*A^-1 deviation from unit magnitude is 5.11D-15 for   1505.
 Iteration    1 A*A^-1 deviation from orthogonality  is 1.77D-15 for   1521    807.
 Iteration    1 A^-1*A deviation from unit magnitude is 5.11D-15 for   1505.
 Iteration    1 A^-1*A deviation from orthogonality  is 1.89D-15 for   1468    818.
 Error on total polarization charges =  0.00902
 SCF Done:  E(RwB97XD) =  -558.149150874     A.U. after    9 cycles
            NFock=  9  Conv=0.61D-08     -V/T= 2.0060
 D1PCM: C-PCM CHGder 1st derivatives, ID1Alg=3 FixD1E=F DoIter=F DoCFld=F I1PDM=0.
 Calling FoFJK, ICntrl=      2127 FMM=F ISym2X=0 I1Cent= 0 IOpClX= 0 NMat=1 NMatS=1 NMatT=0.
 ***** Axes restored to original set *****
 -------------------------------------------------------------------
 Center     Atomic                   Forces (Hartrees/Bohr)
 Number     Number              X              Y              Z
 -------------------------------------------------------------------
      1        5          -0.000015272    0.000007276    0.000022433
      2        9           0.000008286    0.000018772   -0.000034366
      3        9          -0.000031233    0.000013275    0.000024530
      4        9          -0.000033608   -0.000016839    0.000003725
      5        8          -0.000077838   -0.000017053   -0.000177886
      6        6           0.000011192   -0.000179633    0.000052072
      7        6          -0.000024294    0.000036087   -0.000002224
      8        6           0.000184374    0.000148058    0.000185819
      9        6          -0.000022788   -0.000025334   -0.000014446
     10        1           0.000008067    0.000013845    0.000001333
     11        1          -0.000003690    0.000019771   -0.000014269
     12        1           0.000015880   -0.000005235   -0.000002181
     13        1          -0.000003272    0.000003982    0.000000244
     14        1           0.000001082   -0.000017696    0.000002613
     15        1          -0.000011565   -0.000012331   -0.000021033
     16        1          -0.000016847   -0.000006260   -0.000031720
     17        1           0.000008351    0.000013880   -0.000003185
     18        1           0.000012692    0.000000774    0.000000883
     19        1          -0.000009518    0.000004661    0.000007659
 -------------------------------------------------------------------
 Cartesian Forces:  Max     0.000185819 RMS     0.000055653

 GradGradGradGradGradGradGradGradGradGradGradGradGradGradGradGradGradGrad
 Berny optimization.
 Using GEDIIS/GDIIS optimizer.
 FormGI is forming the generalized inverse of G from B-inverse, IUseBI=4.
 Internal  Forces:  Max     0.000229901 RMS     0.000032090
 Search for a local minimum.
 Step number  20 out of a maximum of   97
 All quantities printed in internal units (Hartrees-Bohrs-Radians)
 Mixed Optimization -- En-DIIS/RFO-DIIS
 Swapping is turned off.
 Update second derivatives using D2CorX and points   10   11   12   13   14
                                                     15   16   17   18   19
                                                     20
 DE= -1.36D-06 DEPred=-6.95D-07 R= 1.96D+00
 TightC=F SS=  1.41D+00  RLast= 2.58D-02 DXNew= 1.6254D+00 7.7538D-02
 Trust test= 1.96D+00 RLast= 2.58D-02 DXMaxT set to 9.66D-01
 ITU=  1  1  1  1  1  1  1  1  1  1  0  1  1  1  1  1  1  1  1  0
     Eigenvalues ---    0.00080   0.00255   0.00282   0.00348   0.01376
     Eigenvalues ---    0.01802   0.04475   0.04924   0.05135   0.05314
     Eigenvalues ---    0.05409   0.05632   0.05768   0.05889   0.07721
     Eigenvalues ---    0.09676   0.10422   0.12759   0.12907   0.13033
     Eigenvalues ---    0.13440   0.15827   0.15993   0.16025   0.16110
     Eigenvalues ---    0.16367   0.16909   0.20625   0.22024   0.23277
     Eigenvalues ---    0.25200   0.25728   0.28308   0.28392   0.28710
     Eigenvalues ---    0.29215   0.31150   0.31833   0.32004   0.32043
     Eigenvalues ---    0.32121   0.32154   0.32168   0.32206   0.32304
     Eigenvalues ---    0.33501   0.35267   0.39425   0.41230   0.45388
     Eigenvalues ---    0.50326
 En-DIIS/RFO-DIIS/Sim-DIIS IScMMF=       -3 using points:    20   19   18   17   16   15   14   13   12   11
 RFO step:  Lambda=-4.62062265D-07.
 DIIS inversion failure, remove point  10.
 DIIS inversion failure, remove point   9.
 DIIS inversion failure, remove point   8.
 DIIS inversion failure, remove point   7.
 DIIS inversion failure, remove point   6.
 DIIS inversion failure, remove point   5.
 RFO-DIIS uses    4 points instead of   10
 DidBck=F Rises=F RFO-DIIS coefs:    2.06311   -1.75727    0.72471   -0.03056    0.00000
                  RFO-DIIS coefs:    0.00000    0.00000    0.00000    0.00000    0.00000
 Iteration  1 RMS(Cart)=  0.00306014 RMS(Int)=  0.00000299
 Iteration  2 RMS(Cart)=  0.00000400 RMS(Int)=  0.00000014
 Iteration  3 RMS(Cart)=  0.00000000 RMS(Int)=  0.00000014
 Variable       Old X    -DE/DX   Delta X   Delta X   Delta X     New X
                                 (Linear)    (Quad)   (Total)
    R1        2.61228   0.00004   0.00008   0.00002   0.00010   2.61239
    R2        2.62235   0.00003   0.00001   0.00006   0.00007   2.62242
    R3        2.61530   0.00003   0.00005   0.00004   0.00009   2.61539
    R4        3.03421   0.00007  -0.00023   0.00026   0.00003   3.03423
    R5        2.77275   0.00013   0.00022   0.00018   0.00040   2.77315
    R6        2.77236   0.00023   0.00034   0.00032   0.00066   2.77302
    R7        2.85548  -0.00001  -0.00009   0.00002  -0.00007   2.85541
    R8        2.07120   0.00000  -0.00003   0.00000  -0.00003   2.07117
    R9        2.05920  -0.00000   0.00002  -0.00004  -0.00002   2.05918
   R10        2.07387   0.00001  -0.00003   0.00003  -0.00000   2.07387
   R11        2.07157   0.00000  -0.00000   0.00001   0.00000   2.07158
   R12        2.07347  -0.00001   0.00001  -0.00001   0.00000   2.07347
   R13        2.85307  -0.00001  -0.00012   0.00002  -0.00010   2.85297
   R14        2.07189  -0.00002  -0.00001  -0.00003  -0.00004   2.07184
   R15        2.06716  -0.00001   0.00004  -0.00001   0.00002   2.06718
   R16        2.07403   0.00001  -0.00000   0.00002   0.00002   2.07405
   R17        2.07082   0.00000  -0.00003   0.00001  -0.00003   2.07080
   R18        2.06687   0.00001   0.00001   0.00004   0.00005   2.06692
    A1        1.97477  -0.00000   0.00005  -0.00003   0.00001   1.97478
    A2        1.96074  -0.00001   0.00005  -0.00007  -0.00001   1.96073
    A3        1.84293  -0.00002  -0.00005  -0.00011  -0.00016   1.84278
    A4        1.97592  -0.00003  -0.00006  -0.00007  -0.00013   1.97579
    A5        1.84983   0.00005   0.00007   0.00014   0.00021   1.85004
    A6        1.84559   0.00002  -0.00006   0.00017   0.00010   1.84570
    A7        2.07906  -0.00001   0.00030   0.00006   0.00036   2.07942
    A8        2.04987  -0.00001   0.00034  -0.00016   0.00018   2.05005
    A9        1.95945   0.00001  -0.00000  -0.00014  -0.00015   1.95930
   A10        1.91735  -0.00001  -0.00027  -0.00003  -0.00030   1.91705
   A11        1.86782   0.00000  -0.00014  -0.00001  -0.00015   1.86766
   A12        1.85054  -0.00001  -0.00003  -0.00007  -0.00010   1.85044
   A13        1.96981   0.00001  -0.00002   0.00011   0.00009   1.96990
   A14        1.95081   0.00001   0.00036  -0.00008   0.00028   1.95109
   A15        1.90190   0.00001   0.00008   0.00007   0.00016   1.90205
   A16        1.89514   0.00001   0.00015   0.00005   0.00020   1.89535
   A17        1.92832  -0.00001   0.00003  -0.00002   0.00000   1.92833
   A18        1.95466   0.00001  -0.00027   0.00008  -0.00019   1.95447
   A19        1.89563  -0.00000   0.00009  -0.00003   0.00005   1.89568
   A20        1.88548  -0.00002   0.00007  -0.00011  -0.00004   1.88544
   A21        1.90325   0.00000  -0.00006   0.00003  -0.00003   1.90322
   A22        1.95732  -0.00000   0.00008  -0.00013  -0.00004   1.95728
   A23        1.86702  -0.00001  -0.00017  -0.00007  -0.00024   1.86678
   A24        1.83532  -0.00001  -0.00020  -0.00016  -0.00036   1.83497
   A25        1.96067   0.00001  -0.00003   0.00009   0.00007   1.96073
   A26        1.92820   0.00001   0.00011   0.00014   0.00024   1.92844
   A27        1.91007   0.00001   0.00019   0.00011   0.00030   1.91038
   A28        1.87160   0.00001  -0.00015   0.00009  -0.00006   1.87154
   A29        1.93622   0.00000   0.00009   0.00002   0.00011   1.93633
   A30        1.95804  -0.00001  -0.00013  -0.00004  -0.00018   1.95786
   A31        1.89593  -0.00001   0.00003  -0.00006  -0.00004   1.89589
   A32        1.89276  -0.00000   0.00011  -0.00004   0.00007   1.89283
   A33        1.90756   0.00001   0.00005   0.00004   0.00009   1.90766
    D1       -2.48983   0.00001   0.00210  -0.00001   0.00209  -2.48774
    D2        1.33081   0.00001   0.00112   0.00042   0.00154   1.33235
    D3        1.69380   0.00000   0.00203   0.00001   0.00205   1.69585
    D4       -0.76874   0.00000   0.00106   0.00044   0.00150  -0.76725
    D5       -0.40841   0.00000   0.00210  -0.00006   0.00205  -0.40636
    D6       -2.87095   0.00001   0.00112   0.00037   0.00150  -2.86945
    D7        2.22124  -0.00000  -0.00255   0.00004  -0.00251   2.21873
    D8       -1.91772   0.00000  -0.00282   0.00014  -0.00268  -1.92039
    D9        0.11052   0.00000  -0.00281   0.00019  -0.00262   0.10790
   D10       -1.56668  -0.00001  -0.00150  -0.00038  -0.00188  -1.56856
   D11        0.57755  -0.00000  -0.00177  -0.00028  -0.00205   0.57550
   D12        2.60578  -0.00000  -0.00176  -0.00023  -0.00199   2.60379
   D13       -1.01782   0.00000   0.00496  -0.00034   0.00462  -1.01320
   D14        1.13923   0.00000   0.00486  -0.00036   0.00451   1.14374
   D15       -3.11403   0.00000   0.00491  -0.00033   0.00457  -3.10945
   D16        2.75840   0.00001   0.00394  -0.00002   0.00392   2.76232
   D17       -1.36773   0.00001   0.00384  -0.00003   0.00381  -1.36392
   D18        0.66219   0.00001   0.00389  -0.00001   0.00388   0.66607
   D19        3.14066   0.00001  -0.00039   0.00035  -0.00004   3.14062
   D20       -1.06532   0.00001  -0.00017   0.00032   0.00015  -1.06517
   D21        1.06010   0.00001  -0.00041   0.00040  -0.00001   1.06009
   D22        1.05781   0.00001  -0.00001   0.00031   0.00031   1.05812
   D23        3.13502   0.00001   0.00021   0.00029   0.00050   3.13552
   D24       -1.02275   0.00001  -0.00003   0.00037   0.00034  -1.02241
   D25       -1.09333  -0.00001  -0.00038   0.00019  -0.00018  -1.09352
   D26        0.98388  -0.00001  -0.00016   0.00017   0.00001   0.98388
   D27        3.10930  -0.00001  -0.00040   0.00025  -0.00015   3.10914
   D28       -3.02539   0.00000  -0.00147  -0.00038  -0.00186  -3.02725
   D29       -0.95760  -0.00000  -0.00148  -0.00040  -0.00188  -0.95948
   D30        1.18141   0.00000  -0.00144  -0.00036  -0.00180   1.17961
   D31        1.15418   0.00001  -0.00130  -0.00026  -0.00156   1.15262
   D32       -3.06122   0.00001  -0.00131  -0.00028  -0.00158  -3.06280
   D33       -0.92220   0.00001  -0.00127  -0.00024  -0.00151  -0.92371
   D34       -0.98412  -0.00001  -0.00160  -0.00057  -0.00217  -0.98629
   D35        1.08367  -0.00002  -0.00161  -0.00059  -0.00219   1.08148
   D36       -3.06050  -0.00001  -0.00157  -0.00055  -0.00212  -3.06262
         Item               Value     Threshold  Converged?
 Maximum Force            0.000230     0.000450     YES
 RMS     Force            0.000032     0.000300     YES
 Maximum Displacement     0.008491     0.001800     NO 
 RMS     Displacement     0.003060     0.001200     NO 
 Predicted change in Energy=-2.216934D-07
 GradGradGradGradGradGradGradGradGradGradGradGradGradGradGradGradGradGrad

                          Input orientation:                          
 ---------------------------------------------------------------------
 Center     Atomic      Atomic             Coordinates (Angstroms)
 Number     Number       Type             X           Y           Z
 ---------------------------------------------------------------------
      1          5           0       -1.773757    0.670678   -0.219781
      2          9           0       -1.555094    1.625327   -1.195438
      3          9           0       -2.118570    1.215581    1.009025
      4          9           0       -2.642860   -0.321204   -0.639657
      5          8           0       -0.357984   -0.054394   -0.000774
      6          6           0       -0.326816   -1.499473    0.252785
      7          6           0        0.612974   -2.170903   -0.721459
      8          6           0        0.659693    0.667553    0.771522
      9          6           0        0.993286    2.007325    0.160782
     10          1           0       -0.025310   -1.635201    1.297735
     11          1           0       -1.352010   -1.848280    0.131569
     12          1           0        0.621477   -3.248416   -0.513423
     13          1           0        0.272227   -2.016134   -1.751828
     14          1           0        1.640378   -1.798183   -0.624287
     15          1           0        0.278545    0.759558    1.795385
     16          1           0        1.537827    0.015258    0.766863
     17          1           0        1.837256    2.421671    0.727021
     18          1           0        1.295525    1.895992   -0.886633
     19          1           0        0.156753    2.709225    0.223010
 ---------------------------------------------------------------------
                    Distance matrix (angstroms):
                    1          2          3          4          5
     1  B    0.000000
     2  F    1.382416   0.000000
     3  F    1.387725   2.311938   0.000000
     4  F    1.384004   2.298066   2.314031   0.000000
     5  O    1.605648   2.383644   2.394200   2.387471   0.000000
     6  C    2.650757   3.656555   3.339730   2.747514   1.467486
     7  C    3.744696   4.397333   4.682326   3.745469   2.437571
     8  C    2.627617   3.113126   2.841740   3.725041   1.467419
     9  C    3.096446   2.911957   3.321148   4.391390   2.470368
    10  H    3.267568   4.380319   3.548527   3.511645   2.072619
    11  H    2.578074   3.723994   3.277924   2.143139   2.055146
    12  H    4.602463   5.381076   5.454628   4.386389   3.379930
    13  H    3.708393   4.112045   4.876699   3.550697   2.704030
    14  H    4.232637   4.717804   5.087256   4.530766   2.724522
    15  H    2.877627   3.613421   2.563685   3.953743   2.072167
    16  H    3.517048   4.001139   3.855990   4.423760   2.046514
    17  H    4.123326   3.979705   4.145206   5.427947   3.388166
    18  H    3.371435   2.880043   3.963902   4.526349   2.706076
    19  H    2.842288   2.473308   2.832999   4.214917   2.820040
                    6          7          8          9         10
     6  C    0.000000
     7  C    1.511018   0.000000
     8  C    2.436861   3.207492   0.000000
     9  C    3.748168   4.287257   1.509728   0.000000
    10  H    1.096015   2.184383   2.459432   3.949455   0.000000
    11  H    1.089671   2.166311   3.284190   4.512976   1.779180
    12  H    2.131933   1.097445   4.121572   5.311837   2.510197
    13  H    2.155055   1.096230   3.703998   4.512895   3.087632
    14  H    2.174474   1.097234   2.998313   3.939156   2.548578
    15  H    2.801660   3.877363   1.096373   2.177086   2.464722
    16  H    2.456742   2.801741   1.093906   2.152253   2.334360
    17  H    4.503718   4.968772   2.113188   1.097540   4.500342
    18  H    3.931850   4.127080   2.159357   1.095820   4.357223
    19  H    4.236492   4.991574   2.173072   1.093766   4.479087
                   11         12         13         14         15
    11  H    0.000000
    12  H    2.504206   0.000000
    13  H    2.492690   1.781611   0.000000
    14  H    3.086781   1.775845   1.786250   0.000000
    15  H    3.496829   4.638109   4.504134   3.775108   0.000000
    16  H    3.496789   3.623589   3.474493   2.287877   1.788192
    17  H    5.362692   5.930153   5.318658   4.435309   2.516664
    18  H    4.697419   5.201784   4.135267   3.719500   3.085279
    19  H    4.801622   6.020946   5.122728   4.820351   2.507667
                   16         17         18         19
    16  H    0.000000
    17  H    2.425298   0.000000
    18  H    2.515933   1.781485   0.000000
    19  H    3.075809   1.777865   1.785906   0.000000
 Stoichiometry    C4H10BF3O
 Framework group  C1[X(C4H10BF3O)]
 Deg. of freedom    51
 Full point group                 C1      NOp   1
 Largest Abelian subgroup         C1      NOp   1
 Largest concise Abelian subgroup C1      NOp   1
                         Standard orientation:                         
 ---------------------------------------------------------------------
 Center     Atomic      Atomic             Coordinates (Angstroms)
 Number     Number       Type             X           Y           Z
 ---------------------------------------------------------------------
      1          5           0       -0.950516   -0.707592   -0.046584
      2          9           0       -1.594057   -0.246627   -1.179915
      3          9           0       -1.649237   -0.443523    1.122962
      4          9           0       -0.562942   -2.031088   -0.163250
      5          8           0        0.410798    0.138270    0.050599
      6          6           0        1.633687   -0.526670    0.515265
      7          6           0        2.747177   -0.307786   -0.482434
      8          6           0        0.314769    1.522372    0.528468
      9          6           0       -0.607698    2.357023   -0.326921
     10          1           0        1.863559   -0.118935    1.506305
     11          1           0        1.382440   -1.582196    0.615872
     12          1           0        3.650260   -0.811657   -0.115091
     13          1           0        2.479547   -0.735002   -1.455872
     14          1           0        2.980532    0.756668   -0.610519
     15          1           0       -0.012826    1.477774    1.573803
     16          1           0        1.336013    1.911757    0.482967
     17          1           0       -0.528719    3.393472    0.025399
     18          1           0       -0.305145    2.321155   -1.379535
     19          1           0       -1.650948    2.040267   -0.239634
 ---------------------------------------------------------------------
 Rotational constants (GHZ):           1.7517550           1.4160032           1.0058482
 Standard basis: Aug-CC-pVDZ (5D, 7F)
 There are   315 symmetry adapted cartesian basis functions of A   symmetry.
 There are   297 symmetry adapted basis functions of A   symmetry.
   297 basis functions,   497 primitive gaussians,   315 cartesian basis functions
    37 alpha electrons       37 beta electrons
       nuclear repulsion energy       523.8887960643 Hartrees.
 NAtoms=   19 NActive=   19 NUniq=   19 SFac= 1.00D+00 NAtFMM=   60 NAOKFM=F Big=F
 Integral buffers will be    131072 words long.
 Raffenetti 2 integral format.
 Two-electron integral symmetry is turned on.
 Nuclear repulsion after empirical dispersion term =      523.8767280084 Hartrees.
 Force PCM accuracy= 1.00D-12.
 ------------------------------------------------------------------------------
 Polarizable Continuum Model (PCM)
 =================================
 Model                : C-PCM.
 Atomic radii         : UFF (Universal Force Field).
 Polarization charges : Total charges.
 Charge compensation  : None.
 Solution method      : On-the-fly selection.
 Cavity type          : Scaled VdW (van der Waals Surface) (Alpha=1.100).
 Cavity algorithm     : GePol (No added spheres)
                        Default sphere list used, NSphG=   19.
                        Lebedev-Laikov grids with approx.  5.0 points / Ang**2.
                        Smoothing algorithm: York/Karplus (Gamma=1.0000).
                        Polarization charges: spherical gaussians, with
                                              point-specific exponents (IZeta= 3).
                        Self-potential: point-specific (ISelfS= 7).
                        Self-field    : sphere-specific E.n sum rule (ISelfD= 2).
 1st derivatives      : Analytical E(r).r(x)/FMM algorithm (CHGder, D1EAlg=3).
                        Cavity 1st derivative terms included.
 Solvent              : Chloroform, Eps=   4.711300 Eps(inf)=   2.090627
 ------------------------------------------------------------------------------
 Spheres list:
 ISph  on   Nord     Re0    Alpha      Xe            Ye            Ze
    1   B      1    2.0415  1.100     -0.950516     -0.707592     -0.046584
    2   F      2    1.6820  1.100     -1.594057     -0.246627     -1.179915
    3   F      3    1.6820  1.100     -1.649237     -0.443523      1.122962
    4   F      4    1.6820  1.100     -0.562942     -2.031088     -0.163250
    5   O      5    1.7500  1.100      0.410798      0.138270      0.050599
    6   C      6    1.9255  1.100      1.633687     -0.526670      0.515265
    7   C      7    1.9255  1.100      2.747177     -0.307786     -0.482434
    8   C      8    1.9255  1.100      0.314769      1.522372      0.528468
    9   C      9    1.9255  1.100     -0.607698      2.357023     -0.326921
   10   H     10    1.4430  1.100      1.863559     -0.118935      1.506305
   11   H     11    1.4430  1.100      1.382440     -1.582196      0.615872
   12   H     12    1.4430  1.100      3.650260     -0.811657     -0.115091
   13   H     13    1.4430  1.100      2.479547     -0.735002     -1.455872
   14   H     14    1.4430  1.100      2.980532      0.756668     -0.610519
   15   H     15    1.4430  1.100     -0.012826      1.477774      1.573803
   16   H     16    1.4430  1.100      1.336013      1.911757      0.482967
   17   H     17    1.4430  1.100     -0.528719      3.393472      0.025399
   18   H     18    1.4430  1.100     -0.305145      2.321155     -1.379535
   19   H     19    1.4430  1.100     -1.650948      2.040267     -0.239634
 ------------------------------------------------------------------------------
 One-electron integrals computed using PRISM.
 NBasis=   297 RedAO= T EigKep=  2.71D-05  NBF=   297
 NBsUse=   297 1.00D-06 EigRej= -1.00D+00 NBFU=   297
 Initial guess from the checkpoint file:  "/inspire/hdd/project/materialscienceresearch/lipenghui-253107030018/g16/00-B-DFT-Shift/04-output/BF3OEt2_CDCl3/BF3OEt2_CDCl3.chk"
 B after Tr=    -0.000000   -0.000000    0.000000
         Rot=    0.999998    0.000607    0.000036   -0.001849 Ang=   0.22 deg.
 Requested convergence on RMS density matrix=1.00D-08 within 128 cycles.
 Requested convergence on MAX density matrix=1.00D-06.
 Requested convergence on             energy=1.00D-06.
 No special actions if energy rises.
 Inv3:  Mode=1 IEnd=     6986028.
 Iteration    1 A*A^-1 deviation from unit magnitude is 4.00D-15 for   1520.
 Iteration    1 A*A^-1 deviation from orthogonality  is 4.87D-15 for   1520    781.
 Iteration    1 A^-1*A deviation from unit magnitude is 4.00D-15 for   1520.
 Iteration    1 A^-1*A deviation from orthogonality  is 2.77D-15 for   1515    791.
 Error on total polarization charges =  0.00901
 SCF Done:  E(RwB97XD) =  -558.149151594     A.U. after    8 cycles
            NFock=  8  Conv=0.69D-08     -V/T= 2.0060
 D1PCM: C-PCM CHGder 1st derivatives, ID1Alg=3 FixD1E=F DoIter=F DoCFld=F I1PDM=0.
 Calling FoFJK, ICntrl=      2127 FMM=F ISym2X=0 I1Cent= 0 IOpClX= 0 NMat=1 NMatS=1 NMatT=0.
 ***** Axes restored to original set *****
 -------------------------------------------------------------------
 Center     Atomic                   Forces (Hartrees/Bohr)
 Number     Number              X              Y              Z
 -------------------------------------------------------------------
      1        5          -0.000012055   -0.000000668    0.000014709
      2        9          -0.000001435    0.000001826   -0.000016276
      3        9          -0.000007931   -0.000000869    0.000008405
      4        9          -0.000008962   -0.000006208    0.000005818
      5        8          -0.000021266   -0.000001531   -0.000062435
      6        6           0.000011801   -0.000037298    0.000014407
      7        6          -0.000007638    0.000023263   -0.000002552
      8        6           0.000054599    0.000037317    0.000066965
      9        6          -0.000013603   -0.000019188   -0.000007115
     10        1           0.000005047    0.000003307    0.000002135
     11        1          -0.000003576   -0.000001444   -0.000011309
     12        1           0.000008006   -0.000006302    0.000000013
     13        1          -0.000006355   -0.000001018    0.000001887
     14        1           0.000003089   -0.000018753    0.000000130
     15        1          -0.000004826    0.000001658   -0.000007218
     16        1          -0.000007752    0.000006897   -0.000009126
     17        1           0.000001904    0.000011729   -0.000003196
     18        1           0.000003453    0.000000630   -0.000002770
     19        1           0.000007500    0.000006655    0.000007528
 -------------------------------------------------------------------
 Cartesian Forces:  Max     0.000066965 RMS     0.000017952

 GradGradGradGradGradGradGradGradGradGradGradGradGradGradGradGradGradGrad
 Berny optimization.
 Using GEDIIS/GDIIS optimizer.
 FormGI is forming the generalized inverse of G from B-inverse, IUseBI=4.
 Internal  Forces:  Max     0.000079276 RMS     0.000011867
 Search for a local minimum.
 Step number  21 out of a maximum of   97
 All quantities printed in internal units (Hartrees-Bohrs-Radians)
 Mixed Optimization -- En-DIIS/RFO-DIIS
 Swapping is turned off.
 Update second derivatives using D2CorX and points   10   11   12   13   14
                                                     15   16   17   18   19
                                                     20   21
 DE= -7.20D-07 DEPred=-2.22D-07 R= 3.25D+00
 Trust test= 3.25D+00 RLast= 1.39D-02 DXMaxT set to 9.66D-01
 ITU=  0  1  1  1  1  1  1  1  1  1  1  0  1  1  1  1  1  1  1  1
 ITU=  0
     Eigenvalues ---    0.00091   0.00249   0.00288   0.00347   0.01310
     Eigenvalues ---    0.01763   0.04473   0.04674   0.05149   0.05307
     Eigenvalues ---    0.05410   0.05510   0.05750   0.05896   0.07817
     Eigenvalues ---    0.09671   0.10310   0.12867   0.12900   0.13029
     Eigenvalues ---    0.13422   0.15884   0.15985   0.16029   0.16112
     Eigenvalues ---    0.16334   0.16799   0.20662   0.21825   0.23248
     Eigenvalues ---    0.24957   0.25716   0.28226   0.28381   0.28713
     Eigenvalues ---    0.29006   0.31030   0.31426   0.31943   0.32008
     Eigenvalues ---    0.32111   0.32156   0.32163   0.32201   0.32272
     Eigenvalues ---    0.33259   0.33857   0.36550   0.40104   0.41556
     Eigenvalues ---    0.49782
 En-DIIS/RFO-DIIS/Sim-DIIS IScMMF=       -3 using points:    21   20   19   18   17   16   15   14   13   12
 RFO step:  Lambda=-8.51465690D-08.
 DIIS inversion failure, remove point  10.
 DIIS inversion failure, remove point   9.
 DIIS inversion failure, remove point   8.
 DIIS inversion failure, remove point   7.
 DIIS inversion failure, remove point   6.
 DIIS inversion failure, remove point   5.
 RFO-DIIS uses    4 points instead of   10
 DidBck=F Rises=F RFO-DIIS coefs:    0.92048    0.60780   -1.18588    0.65760    0.00000
                  RFO-DIIS coefs:    0.00000    0.00000    0.00000    0.00000    0.00000
 Iteration  1 RMS(Cart)=  0.00032623 RMS(Int)=  0.00000031
 Iteration  2 RMS(Cart)=  0.00000009 RMS(Int)=  0.00000030
 Variable       Old X    -DE/DX   Delta X   Delta X   Delta X     New X
                                 (Linear)    (Quad)   (Total)
    R1        2.61239   0.00001   0.00003   0.00001   0.00004   2.61242
    R2        2.62242   0.00001  -0.00001   0.00002   0.00001   2.62243
    R3        2.61539   0.00001   0.00001   0.00002   0.00003   2.61542
    R4        3.03423   0.00002  -0.00008   0.00024   0.00016   3.03440
    R5        2.77315   0.00004   0.00016   0.00003   0.00019   2.77333
    R6        2.77302   0.00008   0.00024   0.00009   0.00033   2.77335
    R7        2.85541  -0.00000  -0.00006   0.00003  -0.00003   2.85538
    R8        2.07117   0.00000  -0.00001   0.00001  -0.00000   2.07116
    R9        2.05918   0.00001   0.00002  -0.00002   0.00000   2.05918
   R10        2.07387   0.00001   0.00000   0.00002   0.00002   2.07389
   R11        2.07158   0.00000  -0.00001   0.00000  -0.00000   2.07157
   R12        2.07347  -0.00000  -0.00001  -0.00000  -0.00001   2.07346
   R13        2.85297  -0.00000  -0.00007   0.00004  -0.00003   2.85294
   R14        2.07184  -0.00000  -0.00002  -0.00001  -0.00003   2.07182
   R15        2.06718  -0.00001  -0.00002  -0.00001  -0.00003   2.06715
   R16        2.07405   0.00001   0.00001   0.00000   0.00002   2.07407
   R17        2.07080   0.00000  -0.00000   0.00001   0.00001   2.07081
   R18        2.06692  -0.00000  -0.00001   0.00001   0.00000   2.06692
    A1        1.97478   0.00000   0.00004  -0.00001   0.00003   1.97481
    A2        1.96073  -0.00000   0.00005  -0.00005  -0.00000   1.96073
    A3        1.84278  -0.00000  -0.00002  -0.00006  -0.00008   1.84270
    A4        1.97579  -0.00001  -0.00001  -0.00004  -0.00005   1.97574
    A5        1.85004   0.00001  -0.00000   0.00006   0.00006   1.85009
    A6        1.84570   0.00000  -0.00007   0.00012   0.00005   1.84575
    A7        2.07942  -0.00002  -0.00015   0.00005  -0.00010   2.07932
    A8        2.05005   0.00001  -0.00005  -0.00008  -0.00013   2.04992
    A9        1.95930   0.00001   0.00002  -0.00010  -0.00007   1.95923
   A10        1.91705   0.00002  -0.00002   0.00003   0.00000   1.91705
   A11        1.86766  -0.00001  -0.00003   0.00001  -0.00002   1.86765
   A12        1.85044  -0.00001  -0.00011   0.00001  -0.00010   1.85034
   A13        1.96990   0.00000   0.00007   0.00002   0.00009   1.96999
   A14        1.95109  -0.00001  -0.00002  -0.00007  -0.00009   1.95100
   A15        1.90205   0.00001   0.00009   0.00001   0.00010   1.90215
   A16        1.89535   0.00000  -0.00003   0.00002  -0.00001   1.89533
   A17        1.92833  -0.00001  -0.00003  -0.00001  -0.00004   1.92828
   A18        1.95447   0.00002   0.00008   0.00005   0.00013   1.95460
   A19        1.89568   0.00000  -0.00000  -0.00003  -0.00003   1.89565
   A20        1.88544  -0.00001  -0.00006  -0.00006  -0.00012   1.88532
   A21        1.90322   0.00000   0.00005   0.00002   0.00007   1.90329
   A22        1.95728   0.00001  -0.00004  -0.00006  -0.00010   1.95718
   A23        1.86678  -0.00000  -0.00010   0.00003  -0.00007   1.86671
   A24        1.83497  -0.00001  -0.00003  -0.00010  -0.00013   1.83484
   A25        1.96073   0.00000   0.00004   0.00005   0.00009   1.96082
   A26        1.92844  -0.00001   0.00003   0.00003   0.00006   1.92850
   A27        1.91038   0.00001   0.00009   0.00004   0.00013   1.91051
   A28        1.87154   0.00001   0.00000   0.00003   0.00003   1.87157
   A29        1.93633  -0.00000  -0.00001   0.00002   0.00001   1.93635
   A30        1.95786   0.00001  -0.00002   0.00004   0.00002   1.95789
   A31        1.89589  -0.00001  -0.00002  -0.00004  -0.00005   1.89583
   A32        1.89283  -0.00001  -0.00001  -0.00008  -0.00009   1.89275
   A33        1.90766   0.00000   0.00005   0.00002   0.00006   1.90772
    D1       -2.48774   0.00001  -0.00019   0.00019  -0.00001  -2.48775
    D2        1.33235   0.00001   0.00005   0.00044   0.00049   1.33284
    D3        1.69585  -0.00000  -0.00023   0.00020  -0.00003   1.69582
    D4       -0.76725   0.00000   0.00002   0.00045   0.00047  -0.76678
    D5       -0.40636   0.00000  -0.00018   0.00015  -0.00002  -0.40638
    D6       -2.86945   0.00001   0.00007   0.00040   0.00048  -2.86898
    D7        2.21873  -0.00001   0.00063  -0.00016   0.00047   2.21920
    D8       -1.92039   0.00000   0.00068  -0.00011   0.00057  -1.91982
    D9        0.10790   0.00000   0.00072  -0.00009   0.00063   0.10853
   D10       -1.56856  -0.00001   0.00037  -0.00039  -0.00002  -1.56858
   D11        0.57550  -0.00000   0.00043  -0.00035   0.00008   0.57558
   D12        2.60379   0.00000   0.00047  -0.00033   0.00014   2.60393
   D13       -1.01320  -0.00001  -0.00025  -0.00025  -0.00050  -1.01370
   D14        1.14374  -0.00001  -0.00030  -0.00020  -0.00049   1.14324
   D15       -3.10945  -0.00001  -0.00025  -0.00019  -0.00043  -3.10989
   D16        2.76232   0.00000   0.00005  -0.00007  -0.00003   2.76230
   D17       -1.36392   0.00000  -0.00000  -0.00002  -0.00002  -1.36395
   D18        0.66607   0.00001   0.00005  -0.00001   0.00004   0.66611
   D19        3.14062   0.00001   0.00034   0.00022   0.00057   3.14119
   D20       -1.06517   0.00000   0.00030   0.00020   0.00050  -1.06467
   D21        1.06009   0.00001   0.00039   0.00025   0.00064   1.06073
   D22        1.05812  -0.00000   0.00035   0.00018   0.00053   1.05864
   D23        3.13552  -0.00000   0.00031   0.00015   0.00046   3.13597
   D24       -1.02241   0.00000   0.00040   0.00020   0.00060  -1.02181
   D25       -1.09352  -0.00000   0.00018   0.00021   0.00039  -1.09312
   D26        0.98388  -0.00000   0.00014   0.00018   0.00033   0.98421
   D27        3.10914   0.00000   0.00023   0.00024   0.00047   3.10961
   D28       -3.02725   0.00000   0.00006   0.00024   0.00030  -3.02695
   D29       -0.95948   0.00000   0.00003   0.00023   0.00026  -0.95922
   D30        1.17961   0.00001   0.00007   0.00029   0.00037   1.17998
   D31        1.15262   0.00000   0.00019   0.00020   0.00039   1.15301
   D32       -3.06280  -0.00000   0.00017   0.00019   0.00036  -3.06245
   D33       -0.92371   0.00001   0.00021   0.00026   0.00046  -0.92325
   D34       -0.98629  -0.00000   0.00002   0.00009   0.00011  -0.98618
   D35        1.08148  -0.00000  -0.00000   0.00008   0.00008   1.08155
   D36       -3.06262   0.00000   0.00004   0.00015   0.00018  -3.06243
         Item               Value     Threshold  Converged?
 Maximum Force            0.000079     0.000450     YES
 RMS     Force            0.000012     0.000300     YES
 Maximum Displacement     0.001100     0.001800     YES
 RMS     Displacement     0.000326     0.001200     YES
 Predicted change in Energy=-4.037526D-08
 Optimization completed.
    -- Stationary point found.
                           ----------------------------
                           !   Optimized Parameters   !
                           ! (Angstroms and Degrees)  !
 --------------------------                            --------------------------
 ! Name  Definition              Value          Derivative Info.                !
 --------------------------------------------------------------------------------
 ! R1    R(1,2)                  1.3824         -DE/DX =    0.0                 !
 ! R2    R(1,3)                  1.3877         -DE/DX =    0.0                 !
 ! R3    R(1,4)                  1.384          -DE/DX =    0.0                 !
 ! R4    R(1,5)                  1.6056         -DE/DX =    0.0                 !
 ! R5    R(5,6)                  1.4675         -DE/DX =    0.0                 !
 ! R6    R(5,8)                  1.4674         -DE/DX =    0.0001              !
 ! R7    R(6,7)                  1.511          -DE/DX =    0.0                 !
 ! R8    R(6,10)                 1.096          -DE/DX =    0.0                 !
 ! R9    R(6,11)                 1.0897         -DE/DX =    0.0                 !
 ! R10   R(7,12)                 1.0974         -DE/DX =    0.0                 !
 ! R11   R(7,13)                 1.0962         -DE/DX =    0.0                 !
 ! R12   R(7,14)                 1.0972         -DE/DX =    0.0                 !
 ! R13   R(8,9)                  1.5097         -DE/DX =    0.0                 !
 ! R14   R(8,15)                 1.0964         -DE/DX =    0.0                 !
 ! R15   R(8,16)                 1.0939         -DE/DX =    0.0                 !
 ! R16   R(9,17)                 1.0975         -DE/DX =    0.0                 !
 ! R17   R(9,18)                 1.0958         -DE/DX =    0.0                 !
 ! R18   R(9,19)                 1.0938         -DE/DX =    0.0                 !
 ! A1    A(2,1,3)              113.1467         -DE/DX =    0.0                 !
 ! A2    A(2,1,4)              112.3415         -DE/DX =    0.0                 !
 ! A3    A(2,1,5)              105.5833         -DE/DX =    0.0                 !
 ! A4    A(3,1,4)              113.2044         -DE/DX =    0.0                 !
 ! A5    A(3,1,5)              105.9995         -DE/DX =    0.0                 !
 ! A6    A(4,1,5)              105.7506         -DE/DX =    0.0                 !
 ! A7    A(1,5,6)              119.142          -DE/DX =    0.0                 !
 ! A8    A(1,5,8)              117.4595         -DE/DX =    0.0                 !
 ! A9    A(6,5,8)              112.2598         -DE/DX =    0.0                 !
 ! A10   A(5,6,7)              109.8389         -DE/DX =    0.0                 !
 ! A11   A(5,6,10)             107.0091         -DE/DX =    0.0                 !
 ! A12   A(5,6,11)             106.0223         -DE/DX =    0.0                 !
 ! A13   A(7,6,10)             112.8671         -DE/DX =    0.0                 !
 ! A14   A(7,6,11)             111.7892         -DE/DX =    0.0                 !
 ! A15   A(10,6,11)            108.9797         -DE/DX =    0.0                 !
 ! A16   A(6,7,12)             108.5953         -DE/DX =    0.0                 !
 ! A17   A(6,7,13)             110.4849         -DE/DX =    0.0                 !
 ! A18   A(6,7,14)             111.983          -DE/DX =    0.0                 !
 ! A19   A(12,7,13)            108.6146         -DE/DX =    0.0                 !
 ! A20   A(12,7,14)            108.0278         -DE/DX =    0.0                 !
 ! A21   A(13,7,14)            109.0465         -DE/DX =    0.0                 !
 ! A22   A(5,8,9)              112.1439         -DE/DX =    0.0                 !
 ! A23   A(5,8,15)             106.9585         -DE/DX =    0.0                 !
 ! A24   A(5,8,16)             105.1359         -DE/DX =    0.0                 !
 ! A25   A(9,8,15)             112.3416         -DE/DX =    0.0                 !
 ! A26   A(9,8,16)             110.4917         -DE/DX =    0.0                 !
 ! A27   A(15,8,16)            109.4564         -DE/DX =    0.0                 !
 ! A28   A(8,9,17)             107.2312         -DE/DX =    0.0                 !
 ! A29   A(8,9,18)             110.9437         -DE/DX =    0.0                 !
 ! A30   A(8,9,19)             112.1773         -DE/DX =    0.0                 !
 ! A31   A(17,9,18)            108.6263         -DE/DX =    0.0                 !
 ! A32   A(17,9,19)            108.4514         -DE/DX =    0.0                 !
 ! A33   A(18,9,19)            109.3006         -DE/DX =    0.0                 !
 ! D1    D(2,1,5,6)           -142.5369         -DE/DX =    0.0                 !
 ! D2    D(2,1,5,8)             76.3381         -DE/DX =    0.0                 !
 ! D3    D(3,1,5,6)             97.165          -DE/DX =    0.0                 !
 ! D4    D(3,1,5,8)            -43.96           -DE/DX =    0.0                 !
 ! D5    D(4,1,5,6)            -23.2827         -DE/DX =    0.0                 !
 ! D6    D(4,1,5,8)           -164.4077         -DE/DX =    0.0                 !
 ! D7    D(1,5,6,7)            127.124          -DE/DX =    0.0                 !
 ! D8    D(1,5,6,10)          -110.0303         -DE/DX =    0.0                 !
 ! D9    D(1,5,6,11)             6.1821         -DE/DX =    0.0                 !
 ! D10   D(8,5,6,7)            -89.872          -DE/DX =    0.0                 !
 ! D11   D(8,5,6,10)            32.9736         -DE/DX =    0.0                 !
 ! D12   D(8,5,6,11)           149.1861         -DE/DX =    0.0                 !
 ! D13   D(1,5,8,9)            -58.0522         -DE/DX =    0.0                 !
 ! D14   D(1,5,8,15)            65.5312         -DE/DX =    0.0                 !
 ! D15   D(1,5,8,16)          -178.1586         -DE/DX =    0.0                 !
 ! D16   D(6,5,8,9)            158.2695         -DE/DX =    0.0                 !
 ! D17   D(6,5,8,15)           -78.1471         -DE/DX =    0.0                 !
 ! D18   D(6,5,8,16)            38.1631         -DE/DX =    0.0                 !
 ! D19   D(5,6,7,12)           179.9443         -DE/DX =    0.0                 !
 ! D20   D(5,6,7,13)           -61.0296         -DE/DX =    0.0                 !
 ! D21   D(5,6,7,14)            60.7388         -DE/DX =    0.0                 !
 ! D22   D(10,6,7,12)           60.6257         -DE/DX =    0.0                 !
 ! D23   D(10,6,7,13)          179.6518         -DE/DX =    0.0                 !
 ! D24   D(10,6,7,14)          -58.5798         -DE/DX =    0.0                 !
 ! D25   D(11,6,7,12)          -62.6538         -DE/DX =    0.0                 !
 ! D26   D(11,6,7,13)           56.3723         -DE/DX =    0.0                 !
 ! D27   D(11,6,7,14)          178.1407         -DE/DX =    0.0                 !
 ! D28   D(5,8,9,17)          -173.4484         -DE/DX =    0.0                 !
 ! D29   D(5,8,9,18)           -54.9742         -DE/DX =    0.0                 !
 ! D30   D(5,8,9,19)            67.5867         -DE/DX =    0.0                 !
 ! D31   D(15,8,9,17)           66.0401         -DE/DX =    0.0                 !
 ! D32   D(15,8,9,18)         -175.4856         -DE/DX =    0.0                 !
 ! D33   D(15,8,9,19)          -52.9247         -DE/DX =    0.0                 !
 ! D34   D(16,8,9,17)          -56.5102         -DE/DX =    0.0                 !
 ! D35   D(16,8,9,18)           61.9641         -DE/DX =    0.0                 !
 ! D36   D(16,8,9,19)         -175.475          -DE/DX =    0.0                 !
 --------------------------------------------------------------------------------
 GradGradGradGradGradGradGradGradGradGradGradGradGradGradGradGradGradGrad

                          Input orientation:                          
 ---------------------------------------------------------------------
 Center     Atomic      Atomic             Coordinates (Angstroms)
 Number     Number       Type             X           Y           Z
 ---------------------------------------------------------------------
      1          5           0       -1.773757    0.670678   -0.219781
      2          9           0       -1.555094    1.625327   -1.195438
      3          9           0       -2.118570    1.215581    1.009025
      4          9           0       -2.642860   -0.321204   -0.639657
      5          8           0       -0.357984   -0.054394   -0.000774
      6          6           0       -0.326816   -1.499473    0.252785
      7          6           0        0.612974   -2.170903   -0.721459
      8          6           0        0.659693    0.667553    0.771522
      9          6           0        0.993286    2.007325    0.160782
     10          1           0       -0.025310   -1.635201    1.297735
     11          1           0       -1.352010   -1.848280    0.131569
     12          1           0        0.621477   -3.248416   -0.513423
     13          1           0        0.272227   -2.016134   -1.751828
     14          1           0        1.640378   -1.798183   -0.624287
     15          1           0        0.278545    0.759558    1.795385
     16          1           0        1.537827    0.015258    0.766863
     17          1           0        1.837256    2.421671    0.727021
     18          1           0        1.295525    1.895992   -0.886633
     19          1           0        0.156753    2.709225    0.223010
 ---------------------------------------------------------------------
                    Distance matrix (angstroms):
                    1          2          3          4          5
     1  B    0.000000
     2  F    1.382416   0.000000
     3  F    1.387725   2.311938   0.000000
     4  F    1.384004   2.298066   2.314031   0.000000
     5  O    1.605648   2.383644   2.394200   2.387471   0.000000
     6  C    2.650757   3.656555   3.339730   2.747514   1.467486
     7  C    3.744696   4.397333   4.682326   3.745469   2.437571
     8  C    2.627617   3.113126   2.841740   3.725041   1.467419
     9  C    3.096446   2.911957   3.321148   4.391390   2.470368
    10  H    3.267568   4.380319   3.548527   3.511645   2.072619
    11  H    2.578074   3.723994   3.277924   2.143139   2.055146
    12  H    4.602463   5.381076   5.454628   4.386389   3.379930
    13  H    3.708393   4.112045   4.876699   3.550697   2.704030
    14  H    4.232637   4.717804   5.087256   4.530766   2.724522
    15  H    2.877627   3.613421   2.563685   3.953743   2.072167
    16  H    3.517048   4.001139   3.855990   4.423760   2.046514
    17  H    4.123326   3.979705   4.145206   5.427947   3.388166
    18  H    3.371435   2.880043   3.963902   4.526349   2.706076
    19  H    2.842288   2.473308   2.832999   4.214917   2.820040
                    6          7          8          9         10
     6  C    0.000000
     7  C    1.511018   0.000000
     8  C    2.436861   3.207492   0.000000
     9  C    3.748168   4.287257   1.509728   0.000000
    10  H    1.096015   2.184383   2.459432   3.949455   0.000000
    11  H    1.089671   2.166311   3.284190   4.512976   1.779180
    12  H    2.131933   1.097445   4.121572   5.311837   2.510197
    13  H    2.155055   1.096230   3.703998   4.512895   3.087632
    14  H    2.174474   1.097234   2.998313   3.939156   2.548578
    15  H    2.801660   3.877363   1.096373   2.177086   2.464722
    16  H    2.456742   2.801741   1.093906   2.152253   2.334360
    17  H    4.503718   4.968772   2.113188   1.097540   4.500342
    18  H    3.931850   4.127080   2.159357   1.095820   4.357223
    19  H    4.236492   4.991574   2.173072   1.093766   4.479087
                   11         12         13         14         15
    11  H    0.000000
    12  H    2.504206   0.000000
    13  H    2.492690   1.781611   0.000000
    14  H    3.086781   1.775845   1.786250   0.000000
    15  H    3.496829   4.638109   4.504134   3.775108   0.000000
    16  H    3.496789   3.623589   3.474493   2.287877   1.788192
    17  H    5.362692   5.930153   5.318658   4.435309   2.516664
    18  H    4.697419   5.201784   4.135267   3.719500   3.085279
    19  H    4.801622   6.020946   5.122728   4.820351   2.507667
                   16         17         18         19
    16  H    0.000000
    17  H    2.425298   0.000000
    18  H    2.515933   1.781485   0.000000
    19  H    3.075809   1.777865   1.785906   0.000000
 Stoichiometry    C4H10BF3O
 Framework group  C1[X(C4H10BF3O)]
 Deg. of freedom    51
 Full point group                 C1      NOp   1
 Largest Abelian subgroup         C1      NOp   1
 Largest concise Abelian subgroup C1      NOp   1
                         Standard orientation:                         
 ---------------------------------------------------------------------
 Center     Atomic      Atomic             Coordinates (Angstroms)
 Number     Number       Type             X           Y           Z
 ---------------------------------------------------------------------
      1          5           0       -0.950516   -0.707592   -0.046584
      2          9           0       -1.594057   -0.246627   -1.179915
      3          9           0       -1.649237   -0.443523    1.122962
      4          9           0       -0.562942   -2.031088   -0.163250
      5          8           0        0.410798    0.138270    0.050599
      6          6           0        1.633687   -0.526670    0.515265
      7          6           0        2.747177   -0.307786   -0.482434
      8          6           0        0.314769    1.522372    0.528468
      9          6           0       -0.607698    2.357023   -0.326921
     10          1           0        1.863559   -0.118935    1.506305
     11          1           0        1.382440   -1.582196    0.615872
     12          1           0        3.650260   -0.811657   -0.115091
     13          1           0        2.479547   -0.735002   -1.455872
     14          1           0        2.980532    0.756668   -0.610519
     15          1           0       -0.012826    1.477774    1.573803
     16          1           0        1.336013    1.911757    0.482967
     17          1           0       -0.528719    3.393472    0.025399
     18          1           0       -0.305145    2.321155   -1.379535
     19          1           0       -1.650948    2.040267   -0.239634
 ---------------------------------------------------------------------
 Rotational constants (GHZ):           1.7517550           1.4160032           1.0058482

 **********************************************************************

            Population analysis using the SCF Density.

 **********************************************************************

 Orbital symmetries:
       Occupied  (A) (A) (A) (A) (A) (A) (A) (A) (A) (A) (A) (A)
                 (A) (A) (A) (A) (A) (A) (A) (A) (A) (A) (A) (A)
                 (A) (A) (A) (A) (A) (A) (A) (A) (A) (A) (A) (A)
                 (A)
       Virtual   (A) (A) (A) (A) (A) (A) (A) (A) (A) (A) (A) (A)
                 (A) (A) (A) (A) (A) (A) (A) (A) (A) (A) (A) (A)
                 (A) (A) (A) (A) (A) (A) (A) (A) (A) (A) (A) (A)
                 (A) (A) (A) (A) (A) (A) (A) (A) (A) (A) (A) (A)
                 (A) (A) (A) (A) (A) (A) (A) (A) (A) (A) (A) (A)
                 (A) (A) (A) (A) (A) (A) (A) (A) (A) (A) (A) (A)
                 (A) (A) (A) (A) (A) (A) (A) (A) (A) (A) (A) (A)
                 (A) (A) (A) (A) (A) (A) (A) (A) (A) (A) (A) (A)
                 (A) (A) (A) (A) (A) (A) (A) (A) (A) (A) (A) (A)
                 (A) (A) (A) (A) (A) (A) (A) (A) (A) (A) (A) (A)
                 (A) (A) (A) (A) (A) (A) (A) (A) (A) (A) (A) (A)
                 (A) (A) (A) (A) (A) (A) (A) (A) (A) (A) (A) (A)
                 (A) (A) (A) (A) (A) (A) (A) (A) (A) (A) (A) (A)
                 (A) (A) (A) (A) (A) (A) (A) (A) (A) (A) (A) (A)
                 (A) (A) (A) (A) (A) (A) (A) (A) (A) (A) (A) (A)
                 (A) (A) (A) (A) (A) (A) (A) (A) (A) (A) (A) (A)
                 (A) (A) (A) (A) (A) (A) (A) (A) (A) (A) (A) (A)
                 (A) (A) (A) (A) (A) (A) (A) (A) (A) (A) (A) (A)
                 (A) (A) (A) (A) (A) (A) (A) (A) (A) (A) (A) (A)
                 (A) (A) (A) (A) (A) (A) (A) (A) (A) (A) (A) (A)
                 (A) (A) (A) (A) (A) (A) (A) (A) (A) (A) (A) (A)
                 (A) (A) (A) (A) (A) (A) (A) (A)
 The electronic state is 1-A.
 Alpha  occ. eigenvalues --  -24.81100 -24.80822 -24.80533 -19.36037 -10.37687
 Alpha  occ. eigenvalues --  -10.37419 -10.30557 -10.30151  -6.99383  -1.31741
 Alpha  occ. eigenvalues --   -1.27437  -1.27091  -1.20747  -0.90431  -0.86488
 Alpha  occ. eigenvalues --   -0.75755  -0.74659  -0.67225  -0.63814  -0.62241
 Alpha  occ. eigenvalues --   -0.60784  -0.59104  -0.57958  -0.55435  -0.52734
 Alpha  occ. eigenvalues --   -0.51533  -0.51103  -0.50685  -0.48901  -0.48569
 Alpha  occ. eigenvalues --   -0.48379  -0.47439  -0.46596  -0.46317  -0.45420
 Alpha  occ. eigenvalues --   -0.44334  -0.41240
 Alpha virt. eigenvalues --    0.03660   0.04712   0.04889   0.05002   0.06771
 Alpha virt. eigenvalues --    0.06991   0.07123   0.07164   0.07651   0.09249
 Alpha virt. eigenvalues --    0.09456   0.09841   0.10929   0.11881   0.12736
 Alpha virt. eigenvalues --    0.13842   0.14391   0.14705   0.14946   0.15495
 Alpha virt. eigenvalues --    0.16301   0.17209   0.17415   0.17969   0.18353
 Alpha virt. eigenvalues --    0.18845   0.19411   0.19649   0.20359   0.20686
 Alpha virt. eigenvalues --    0.22641   0.22785   0.23515   0.24206   0.24778
 Alpha virt. eigenvalues --    0.25299   0.25867   0.27020   0.27880   0.28067
 Alpha virt. eigenvalues --    0.28780   0.29572   0.29806   0.31268   0.31726
 Alpha virt. eigenvalues --    0.32159   0.32720   0.33511   0.34197   0.35407
 Alpha virt. eigenvalues --    0.36482   0.36792   0.37575   0.38645   0.39014
 Alpha virt. eigenvalues --    0.39706   0.40520   0.40738   0.41256   0.41489
 Alpha virt. eigenvalues --    0.42284   0.42666   0.43210   0.43473   0.43884
 Alpha virt. eigenvalues --    0.44868   0.45583   0.46151   0.47295   0.47820
 Alpha virt. eigenvalues --    0.49629   0.50039   0.50964   0.51104   0.52223
 Alpha virt. eigenvalues --    0.53012   0.53423   0.53929   0.54952   0.55389
 Alpha virt. eigenvalues --    0.55526   0.56644   0.56937   0.58294   0.59306
 Alpha virt. eigenvalues --    0.59566   0.60157   0.60993   0.62043   0.63571
 Alpha virt. eigenvalues --    0.64122   0.64677   0.65048   0.65956   0.67006
 Alpha virt. eigenvalues --    0.67817   0.69797   0.70484   0.71206   0.71326
 Alpha virt. eigenvalues --    0.72492   0.72850   0.73882   0.74291   0.75677
 Alpha virt. eigenvalues --    0.76287   0.76651   0.78401   0.78950   0.79462
 Alpha virt. eigenvalues --    0.80491   0.81862   0.82568   0.83182   0.83673
 Alpha virt. eigenvalues --    0.86262   0.87411   0.88086   0.88949   0.91270
 Alpha virt. eigenvalues --    0.92152   0.93788   0.96123   0.97384   0.98598
 Alpha virt. eigenvalues --    0.99920   1.00682   1.04030   1.04653   1.06303
 Alpha virt. eigenvalues --    1.08090   1.09434   1.10513   1.12396   1.14612
 Alpha virt. eigenvalues --    1.15508   1.18025   1.21330   1.22120   1.25087
 Alpha virt. eigenvalues --    1.27122   1.30189   1.31898   1.33624   1.34819
 Alpha virt. eigenvalues --    1.35933   1.38720   1.39277   1.42124   1.42306
 Alpha virt. eigenvalues --    1.43900   1.45311   1.46629   1.47954   1.49408
 Alpha virt. eigenvalues --    1.50110   1.51907   1.53893   1.55294   1.57959
 Alpha virt. eigenvalues --    1.60167   1.61948   1.62236   1.63527   1.65719
 Alpha virt. eigenvalues --    1.66808   1.67679   1.69320   1.69884   1.71267
 Alpha virt. eigenvalues --    1.73371   1.74603   1.74732   1.76764   1.77603
 Alpha virt. eigenvalues --    1.78510   1.80101   1.81685   1.82498   1.83371
 Alpha virt. eigenvalues --    1.85697   1.87456   1.88241   1.90700   1.92342
 Alpha virt. eigenvalues --    1.93539   1.95695   1.97042   1.98452   1.99745
 Alpha virt. eigenvalues --    2.01737   2.02451   2.03537   2.05499   2.07197
 Alpha virt. eigenvalues --    2.07409   2.09600   2.10206   2.11582   2.12311
 Alpha virt. eigenvalues --    2.14962   2.16764   2.19989   2.23584   2.26161
 Alpha virt. eigenvalues --    2.28591   2.30379   2.31885   2.33540   2.35697
 Alpha virt. eigenvalues --    2.38027   2.39429   2.41059   2.41196   2.46966
 Alpha virt. eigenvalues --    2.47375   2.48746   2.52270   2.54897   2.55610
 Alpha virt. eigenvalues --    2.58537   2.61285   2.63823   2.65118   2.67790
 Alpha virt. eigenvalues --    2.72141   2.73254   2.75975   2.82525   2.84163
 Alpha virt. eigenvalues --    2.86216   2.88423   2.93960   2.99009   3.07333
 Alpha virt. eigenvalues --    3.08378   3.16060   3.20771   3.36367   3.63441
 Alpha virt. eigenvalues --    3.67497   3.70184   3.73910   3.89582   3.97457
 Alpha virt. eigenvalues --    4.61948   4.64223   4.66487   4.66620   4.68576
 Alpha virt. eigenvalues --    4.70841   4.73024   4.74768   4.75518   4.79604
 Alpha virt. eigenvalues --    4.81631   4.84060   4.86880   4.92790   4.94623
          Condensed to atoms (all electrons):
               1          2          3          4          5          6
     1  B    3.535933  -0.024173   0.061627   0.131605  -0.343420  -0.091743
     2  F   -0.024173   9.609711  -0.112125  -0.176870   0.293242   0.025712
     3  F    0.061627  -0.112125   9.740094  -0.146740   0.020342  -0.060082
     4  F    0.131605  -0.176870  -0.146740   9.995619  -0.144992  -0.098057
     5  O   -0.343420   0.293242   0.020342  -0.144992  10.075745   0.098189
     6  C   -0.091743   0.025712  -0.060082  -0.098057   0.098189   5.013696
     7  C   -0.026408   0.016701   0.000891   0.002586  -0.028015   0.233059
     8  C    0.037868  -0.115262   0.036068   0.017122  -0.092303  -0.053064
     9  C    0.007555   0.017759  -0.035712   0.022002  -0.080458  -0.084606
    10  H    0.037005  -0.005591  -0.001065  -0.001984  -0.137390  -0.003962
    11  H    0.024906   0.021371   0.004023  -0.086830  -0.312887   0.173647
    12  H    0.004365   0.001903   0.000523  -0.001686   0.131805   0.100410
    13  H    0.010440  -0.000871  -0.000285  -0.000979  -0.095807  -0.068603
    14  H   -0.015322   0.001687  -0.001059  -0.006481  -0.181112  -0.084876
    15  H    0.044567   0.007849   0.033863   0.015660  -0.059298   0.009522
    16  H    0.009967  -0.007760  -0.001921  -0.000920  -0.167663  -0.107172
    17  H    0.005683   0.002201   0.002262   0.000293   0.064397   0.003167
    18  H    0.015920   0.007792  -0.002536   0.006702  -0.110492  -0.043859
    19  H    0.045169  -0.030554   0.033649   0.010723  -0.119727  -0.018023
               7          8          9         10         11         12
     1  B   -0.026408   0.037868   0.007555   0.037005   0.024906   0.004365
     2  F    0.016701  -0.115262   0.017759  -0.005591   0.021371   0.001903
     3  F    0.000891   0.036068  -0.035712  -0.001065   0.004023   0.000523
     4  F    0.002586   0.017122   0.022002  -0.001984  -0.086830  -0.001686
     5  O   -0.028015  -0.092303  -0.080458  -0.137390  -0.312887   0.131805
     6  C    0.233059  -0.053064  -0.084606  -0.003962   0.173647   0.100410
     7  C    4.470599  -0.027695   0.014019  -0.101743  -0.066159   0.262692
     8  C   -0.027695   5.054398   0.177676   0.028322  -0.026897  -0.029907
     9  C    0.014019   0.177676   4.662388   0.076923  -0.035449   0.000081
    10  H   -0.101743   0.028322   0.076923   1.672937  -0.365227  -0.111742
    11  H   -0.066159  -0.026897  -0.035449  -0.365227   2.206153  -0.084948
    12  H    0.262692  -0.029907   0.000081  -0.111742  -0.084948   1.412215
    13  H    0.307421   0.028794   0.012280   0.117600  -0.126852  -0.259500
    14  H    0.363594   0.008219  -0.024829  -0.077149   0.136249  -0.275182
    15  H    0.005103  -0.171328  -0.095014  -0.026945  -0.012150  -0.001828
    16  H    0.033030  -0.005751  -0.066325   0.031755   0.007188   0.000052
    17  H   -0.001672   0.107063   0.225676  -0.003934   0.000122  -0.000195
    18  H    0.008580  -0.114115   0.386693   0.007492  -0.010880  -0.000864
    19  H    0.000115   0.005122   0.285343   0.007968  -0.001285  -0.000454
              13         14         15         16         17         18
     1  B    0.010440  -0.015322   0.044567   0.009967   0.005683   0.015920
     2  F   -0.000871   0.001687   0.007849  -0.007760   0.002201   0.007792
     3  F   -0.000285  -0.001059   0.033863  -0.001921   0.002262  -0.002536
     4  F   -0.000979  -0.006481   0.015660  -0.000920   0.000293   0.006702
     5  O   -0.095807  -0.181112  -0.059298  -0.167663   0.064397  -0.110492
     6  C   -0.068603  -0.084876   0.009522  -0.107172   0.003167  -0.043859
     7  C    0.307421   0.363594   0.005103   0.033030  -0.001672   0.008580
     8  C    0.028794   0.008219  -0.171328  -0.005751   0.107063  -0.114115
     9  C    0.012280  -0.024829  -0.095014  -0.066325   0.225676   0.386693
    10  H    0.117600  -0.077149  -0.026945   0.031755  -0.003934   0.007492
    11  H   -0.126852   0.136249  -0.012150   0.007188   0.000122  -0.010880
    12  H   -0.259500  -0.275182  -0.001828   0.000052  -0.000195  -0.000864
    13  H    1.415682  -0.199746   0.001063  -0.009487  -0.000566   0.007235
    14  H   -0.199746   1.529829  -0.000672   0.039253   0.000981  -0.007302
    15  H    0.001063  -0.000672   2.107822  -0.388431  -0.098415   0.139978
    16  H   -0.009487   0.039253  -0.388431   2.211240  -0.070601  -0.150336
    17  H   -0.000566   0.000981  -0.098415  -0.070601   1.412634  -0.247885
    18  H    0.007235  -0.007302   0.139978  -0.150336  -0.247885   1.528331
    19  H    0.000334   0.000558  -0.127847   0.109165  -0.261167  -0.289180
              19
     1  B    0.045169
     2  F   -0.030554
     3  F    0.033649
     4  F    0.010723
     5  O   -0.119727
     6  C   -0.018023
     7  C    0.000115
     8  C    0.005122
     9  C    0.285343
    10  H    0.007968
    11  H   -0.001285
    12  H   -0.000454
    13  H    0.000334
    14  H    0.000558
    15  H   -0.127847
    16  H    0.109165
    17  H   -0.261167
    18  H   -0.289180
    19  H    1.486696
 Mulliken charges:
               1
     1  B    1.528457
     2  F   -0.532723
     3  F   -0.571817
     4  F   -0.536773
     5  O   -0.810156
     6  C    1.056644
     7  C    0.533302
     8  C    1.135671
     9  C    0.533998
    10  H   -0.143268
    11  H   -0.444095
    12  H   -0.147742
    13  H   -0.138154
    14  H   -0.206641
    15  H   -0.383499
    16  H   -0.465283
    17  H   -0.140044
    18  H   -0.131272
    19  H   -0.136605
 Sum of Mulliken charges =  -0.00000
 Mulliken charges with hydrogens summed into heavy atoms:
               1
     1  B    1.528457
     2  F   -0.532723
     3  F   -0.571817
     4  F   -0.536773
     5  O   -0.810156
     6  C    0.469280
     7  C    0.040765
     8  C    0.286889
     9  C    0.126078
 Electronic spatial extent (au):  <R**2>=           1263.5728
 Charge=             -0.0000 electrons
 Dipole moment (field-independent basis, Debye):
    X=              6.1873    Y=              3.9613    Z=              1.4916  Tot=              7.4966
 Quadrupole moment (field-independent basis, Debye-Ang):
   XX=            -52.1081   YY=            -51.3459   ZZ=            -54.9997
   XY=             -3.2472   XZ=              1.1162   YZ=              0.4932
 Traceless Quadrupole moment (field-independent basis, Debye-Ang):
   XX=              0.7098   YY=              1.4720   ZZ=             -2.1818
   XY=             -3.2472   XZ=              1.1162   YZ=              0.4932
 Octapole moment (field-independent basis, Debye-Ang**2):
  XXX=              6.3970  YYY=              7.9201  ZZZ=              1.4568  XYY=             -0.5680
  XXY=             -5.0326  XXZ=              1.3631  XZZ=              2.7172  YZZ=             -2.1337
  YYZ=              2.7034  XYZ=             -0.6526
 Hexadecapole moment (field-independent basis, Debye-Ang**3):
 XXXX=           -720.2291 YYYY=           -572.9117 ZZZZ=           -199.6979 XXXY=              0.1727
 XXXZ=              7.1234 YYYX=              4.6319 YYYZ=              2.5593 ZZZX=              1.8819
 ZZZY=              3.2597 XXYY=           -214.3782 XXZZ=           -167.5771 YYZZ=           -129.5107
 XXYZ=              0.1622 YYXZ=              1.4702 ZZXY=              0.3800
 N-N= 5.238767280084D+02 E-N=-2.364251924402D+03  KE= 5.548036428381D+02
 Unable to Open any file for archive entry.
 1\1\GINC-B-DFT-2--EB5F355BDB9C-LEVGXOI5VD\FOpt\RwB97XD\Aug-CC-pVDZ\C4H
 10B1F3O1\ROOT\24-May-2026\0\\# nmr=giao wb97xd/aug-cc-pvdz opt freq in
 tegral=(acc2e=12,grid=ultrafine) scrf=(cpcm,solvent=chloroform)\\BF3OE
 t2_CDCl3 | solvent model: CDCl3 as chloroform\\0,1\B,-1.7737565531,0.6
 706783213,-0.2197811041\F,-1.5550944042,1.6253268887,-1.1954383707\F,-
 2.1185698364,1.2155806032,1.0090251533\F,-2.6428603543,-0.3212036471,-
 0.6396570584\O,-0.3579843814,-0.0543942374,-0.0007743784\C,-0.32681583
 32,-1.4994728876,0.2527849228\C,0.6129739601,-2.1709026506,-0.72145924
 57\C,0.6596933216,0.6675528488,0.7715224566\C,0.9932856465,2.007325031
 1,0.1607817094\H,-0.0253099692,-1.6352011262,1.2977352509\H,-1.3520100
 658,-1.8482797284,0.1315686953\H,0.6214768723,-3.248415973,-0.51342348
 76\H,0.2722266855,-2.0161342603,-1.7518277628\H,1.6403782038,-1.798182
 8478,-0.6242874571\H,0.2785454449,0.759558182,1.7953847682\H,1.5378272
 377,0.0152578742,0.7668629566\H,1.8372556163,2.4216714942,0.727020644\
 H,1.2955248051,1.8959920599,-0.8866331045\H,0.1567526036,2.7092250551,
 0.223010412\\Version=ES64L-G16RevC.01\State=1-A\HF=-558.1491516\RMSD=6
 .870e-09\RMSF=1.795e-05\Dipole=2.5031846,-1.3364234,0.8043225\Quadrupo
 le=-1.5276459,2.8849979,-1.357352,1.1706409,0.9690746,0.3822898\PG=C01
  [X(C4H10B1F3O1)]\\@
 The archive entry for this job was punched.


 IN-LAWS ARE LIKE SEEDS. YOU DON'T NEED THEM
 BUT THEY COME WITH THE TOMATO.
 Job cpu time:       0 days  4 hours 26 minutes 17.7 seconds.
 Elapsed time:       0 days  0 hours 13 minutes 39.2 seconds.
 File lengths (MBytes):  RWF=    304 Int=      0 D2E=      0 Chk=     32 Scr=     32
 Normal termination of Gaussian 16 at Sun May 24 17:24:20 2026.
 Link1:  Proceeding to internal job step number  2.
 ----------------------------------------------------------------------
 #N Geom=AllCheck Guess=TCheck SCRF=Check GenChk RwB97XD/Aug-CC-pVDZ Fr
 eq
 ----------------------------------------------------------------------
 1/10=4,29=7,30=1,38=1,40=1/1,3;
 2/12=2,40=1/2;
 3/5=16,7=10,11=2,14=-4,25=1,27=12,30=1,36=2,70=2,71=2,74=-58,75=-5,116=1,140=1/1,2,3;
 4/5=101/1;
 5/5=2,38=6,87=12,98=1/2;
 8/6=4,10=90,11=11,87=12/1;
 10/15=4,46=1,87=12/2;
 11/6=1,8=1,9=11,15=111,16=1,87=12/1,2,10;
 10/6=1,46=1,87=12/2;
 6/7=2,8=2,9=2,10=2,28=1,87=12/1;
 7/8=1,10=1,25=1,87=12/1,2,3,16;
 1/10=4,30=1/3;
 99//99;
 Structure from the checkpoint file:  "/inspire/hdd/project/materialscienceresearch/lipenghui-253107030018/g16/00-B-DFT-Shift/04-output/BF3OEt2_CDCl3/BF3OEt2_CDCl3.chk"
 --------------------------------------------------
 BF3OEt2_CDCl3 | solvent model: CDCl3 as chloroform
 --------------------------------------------------
 Charge =  0 Multiplicity = 1
 Redundant internal coordinates found in file.  (old form).
 B,0,-1.7737565531,0.6706783213,-0.2197811041
 F,0,-1.5550944042,1.6253268887,-1.1954383707
 F,0,-2.1185698364,1.2155806032,1.0090251533
 F,0,-2.6428603543,-0.3212036471,-0.6396570584
 O,0,-0.3579843814,-0.0543942374,-0.0007743784
 C,0,-0.3268158332,-1.4994728876,0.2527849228
 C,0,0.6129739601,-2.1709026506,-0.7214592457
 C,0,0.6596933216,0.6675528488,0.7715224566
 C,0,0.9932856465,2.0073250311,0.1607817094
 H,0,-0.0253099692,-1.6352011262,1.2977352509
 H,0,-1.3520100658,-1.8482797284,0.1315686953
 H,0,0.6214768723,-3.248415973,-0.5134234876
 H,0,0.2722266855,-2.0161342603,-1.7518277628
 H,0,1.6403782038,-1.7981828478,-0.6242874571
 H,0,0.2785454449,0.759558182,1.7953847682
 H,0,1.5378272377,0.0152578742,0.7668629566
 H,0,1.8372556163,2.4216714942,0.727020644
 H,0,1.2955248051,1.8959920599,-0.8866331045
 H,0,0.1567526036,2.7092250551,0.223010412
 Recover connectivity data from disk.

 GradGradGradGradGradGradGradGradGradGradGradGradGradGradGradGradGradGrad
 Berny optimization.
 Initialization pass.
                           ----------------------------
                           !    Initial Parameters    !
                           ! (Angstroms and Degrees)  !
 --------------------------                            --------------------------
 ! Name  Definition              Value          Derivative Info.                !
 --------------------------------------------------------------------------------
 ! R1    R(1,2)                  1.3824         calculate D2E/DX2 analytically  !
 ! R2    R(1,3)                  1.3877         calculate D2E/DX2 analytically  !
 ! R3    R(1,4)                  1.384          calculate D2E/DX2 analytically  !
 ! R4    R(1,5)                  1.6056         calculate D2E/DX2 analytically  !
 ! R5    R(5,6)                  1.4675         calculate D2E/DX2 analytically  !
 ! R6    R(5,8)                  1.4674         calculate D2E/DX2 analytically  !
 ! R7    R(6,7)                  1.511          calculate D2E/DX2 analytically  !
 ! R8    R(6,10)                 1.096          calculate D2E/DX2 analytically  !
 ! R9    R(6,11)                 1.0897         calculate D2E/DX2 analytically  !
 ! R10   R(7,12)                 1.0974         calculate D2E/DX2 analytically  !
 ! R11   R(7,13)                 1.0962         calculate D2E/DX2 analytically  !
 ! R12   R(7,14)                 1.0972         calculate D2E/DX2 analytically  !
 ! R13   R(8,9)                  1.5097         calculate D2E/DX2 analytically  !
 ! R14   R(8,15)                 1.0964         calculate D2E/DX2 analytically  !
 ! R15   R(8,16)                 1.0939         calculate D2E/DX2 analytically  !
 ! R16   R(9,17)                 1.0975         calculate D2E/DX2 analytically  !
 ! R17   R(9,18)                 1.0958         calculate D2E/DX2 analytically  !
 ! R18   R(9,19)                 1.0938         calculate D2E/DX2 analytically  !
 ! A1    A(2,1,3)              113.1467         calculate D2E/DX2 analytically  !
 ! A2    A(2,1,4)              112.3415         calculate D2E/DX2 analytically  !
 ! A3    A(2,1,5)              105.5833         calculate D2E/DX2 analytically  !
 ! A4    A(3,1,4)              113.2044         calculate D2E/DX2 analytically  !
 ! A5    A(3,1,5)              105.9995         calculate D2E/DX2 analytically  !
 ! A6    A(4,1,5)              105.7506         calculate D2E/DX2 analytically  !
 ! A7    A(1,5,6)              119.142          calculate D2E/DX2 analytically  !
 ! A8    A(1,5,8)              117.4595         calculate D2E/DX2 analytically  !
 ! A9    A(6,5,8)              112.2598         calculate D2E/DX2 analytically  !
 ! A10   A(5,6,7)              109.8389         calculate D2E/DX2 analytically  !
 ! A11   A(5,6,10)             107.0091         calculate D2E/DX2 analytically  !
 ! A12   A(5,6,11)             106.0223         calculate D2E/DX2 analytically  !
 ! A13   A(7,6,10)             112.8671         calculate D2E/DX2 analytically  !
 ! A14   A(7,6,11)             111.7892         calculate D2E/DX2 analytically  !
 ! A15   A(10,6,11)            108.9797         calculate D2E/DX2 analytically  !
 ! A16   A(6,7,12)             108.5953         calculate D2E/DX2 analytically  !
 ! A17   A(6,7,13)             110.4849         calculate D2E/DX2 analytically  !
 ! A18   A(6,7,14)             111.983          calculate D2E/DX2 analytically  !
 ! A19   A(12,7,13)            108.6146         calculate D2E/DX2 analytically  !
 ! A20   A(12,7,14)            108.0278         calculate D2E/DX2 analytically  !
 ! A21   A(13,7,14)            109.0465         calculate D2E/DX2 analytically  !
 ! A22   A(5,8,9)              112.1439         calculate D2E/DX2 analytically  !
 ! A23   A(5,8,15)             106.9585         calculate D2E/DX2 analytically  !
 ! A24   A(5,8,16)             105.1359         calculate D2E/DX2 analytically  !
 ! A25   A(9,8,15)             112.3416         calculate D2E/DX2 analytically  !
 ! A26   A(9,8,16)             110.4917         calculate D2E/DX2 analytically  !
 ! A27   A(15,8,16)            109.4564         calculate D2E/DX2 analytically  !
 ! A28   A(8,9,17)             107.2312         calculate D2E/DX2 analytically  !
 ! A29   A(8,9,18)             110.9437         calculate D2E/DX2 analytically  !
 ! A30   A(8,9,19)             112.1773         calculate D2E/DX2 analytically  !
 ! A31   A(17,9,18)            108.6263         calculate D2E/DX2 analytically  !
 ! A32   A(17,9,19)            108.4514         calculate D2E/DX2 analytically  !
 ! A33   A(18,9,19)            109.3006         calculate D2E/DX2 analytically  !
 ! D1    D(2,1,5,6)           -142.5369         calculate D2E/DX2 analytically  !
 ! D2    D(2,1,5,8)             76.3381         calculate D2E/DX2 analytically  !
 ! D3    D(3,1,5,6)             97.165          calculate D2E/DX2 analytically  !
 ! D4    D(3,1,5,8)            -43.96           calculate D2E/DX2 analytically  !
 ! D5    D(4,1,5,6)            -23.2827         calculate D2E/DX2 analytically  !
 ! D6    D(4,1,5,8)           -164.4077         calculate D2E/DX2 analytically  !
 ! D7    D(1,5,6,7)            127.124          calculate D2E/DX2 analytically  !
 ! D8    D(1,5,6,10)          -110.0303         calculate D2E/DX2 analytically  !
 ! D9    D(1,5,6,11)             6.1821         calculate D2E/DX2 analytically  !
 ! D10   D(8,5,6,7)            -89.872          calculate D2E/DX2 analytically  !
 ! D11   D(8,5,6,10)            32.9736         calculate D2E/DX2 analytically  !
 ! D12   D(8,5,6,11)           149.1861         calculate D2E/DX2 analytically  !
 ! D13   D(1,5,8,9)            -58.0522         calculate D2E/DX2 analytically  !
 ! D14   D(1,5,8,15)            65.5312         calculate D2E/DX2 analytically  !
 ! D15   D(1,5,8,16)          -178.1586         calculate D2E/DX2 analytically  !
 ! D16   D(6,5,8,9)            158.2695         calculate D2E/DX2 analytically  !
 ! D17   D(6,5,8,15)           -78.1471         calculate D2E/DX2 analytically  !
 ! D18   D(6,5,8,16)            38.1631         calculate D2E/DX2 analytically  !
 ! D19   D(5,6,7,12)           179.9443         calculate D2E/DX2 analytically  !
 ! D20   D(5,6,7,13)           -61.0296         calculate D2E/DX2 analytically  !
 ! D21   D(5,6,7,14)            60.7388         calculate D2E/DX2 analytically  !
 ! D22   D(10,6,7,12)           60.6257         calculate D2E/DX2 analytically  !
 ! D23   D(10,6,7,13)          179.6518         calculate D2E/DX2 analytically  !
 ! D24   D(10,6,7,14)          -58.5798         calculate D2E/DX2 analytically  !
 ! D25   D(11,6,7,12)          -62.6538         calculate D2E/DX2 analytically  !
 ! D26   D(11,6,7,13)           56.3723         calculate D2E/DX2 analytically  !
 ! D27   D(11,6,7,14)          178.1407         calculate D2E/DX2 analytically  !
 ! D28   D(5,8,9,17)          -173.4484         calculate D2E/DX2 analytically  !
 ! D29   D(5,8,9,18)           -54.9742         calculate D2E/DX2 analytically  !
 ! D30   D(5,8,9,19)            67.5867         calculate D2E/DX2 analytically  !
 ! D31   D(15,8,9,17)           66.0401         calculate D2E/DX2 analytically  !
 ! D32   D(15,8,9,18)         -175.4856         calculate D2E/DX2 analytically  !
 ! D33   D(15,8,9,19)          -52.9247         calculate D2E/DX2 analytically  !
 ! D34   D(16,8,9,17)          -56.5102         calculate D2E/DX2 analytically  !
 ! D35   D(16,8,9,18)           61.9641         calculate D2E/DX2 analytically  !
 ! D36   D(16,8,9,19)         -175.475          calculate D2E/DX2 analytically  !
 --------------------------------------------------------------------------------
 Trust Radius=3.00D-01 FncErr=1.00D-07 GrdErr=1.00D-07 EigMax=2.50D+02 EigMin=1.00D-04
 Number of steps in this run=      2 maximum allowed number of steps=      2.
 GradGradGradGradGradGradGradGradGradGradGradGradGradGradGradGradGradGrad

                          Input orientation:                          
 ---------------------------------------------------------------------
 Center     Atomic      Atomic             Coordinates (Angstroms)
 Number     Number       Type             X           Y           Z
 ---------------------------------------------------------------------
      1          5           0       -1.773757    0.670678   -0.219781
      2          9           0       -1.555094    1.625327   -1.195438
      3          9           0       -2.118570    1.215581    1.009025
      4          9           0       -2.642860   -0.321204   -0.639657
      5          8           0       -0.357984   -0.054394   -0.000774
      6          6           0       -0.326816   -1.499473    0.252785
      7          6           0        0.612974   -2.170903   -0.721459
      8          6           0        0.659693    0.667553    0.771522
      9          6           0        0.993286    2.007325    0.160782
     10          1           0       -0.025310   -1.635201    1.297735
     11          1           0       -1.352010   -1.848280    0.131569
     12          1           0        0.621477   -3.248416   -0.513423
     13          1           0        0.272227   -2.016134   -1.751828
     14          1           0        1.640378   -1.798183   -0.624287
     15          1           0        0.278545    0.759558    1.795385
     16          1           0        1.537827    0.015258    0.766863
     17          1           0        1.837256    2.421671    0.727021
     18          1           0        1.295525    1.895992   -0.886633
     19          1           0        0.156753    2.709225    0.223010
 ---------------------------------------------------------------------
                    Distance matrix (angstroms):
                    1          2          3          4          5
     1  B    0.000000
     2  F    1.382416   0.000000
     3  F    1.387725   2.311938   0.000000
     4  F    1.384004   2.298066   2.314031   0.000000
     5  O    1.605648   2.383644   2.394200   2.387471   0.000000
     6  C    2.650757   3.656555   3.339730   2.747514   1.467486
     7  C    3.744696   4.397333   4.682326   3.745469   2.437571
     8  C    2.627617   3.113126   2.841740   3.725041   1.467419
     9  C    3.096446   2.911957   3.321148   4.391390   2.470368
    10  H    3.267568   4.380319   3.548527   3.511645   2.072619
    11  H    2.578074   3.723994   3.277924   2.143139   2.055146
    12  H    4.602463   5.381076   5.454628   4.386389   3.379930
    13  H    3.708393   4.112045   4.876699   3.550697   2.704030
    14  H    4.232637   4.717804   5.087256   4.530766   2.724522
    15  H    2.877627   3.613421   2.563685   3.953743   2.072167
    16  H    3.517048   4.001139   3.855990   4.423760   2.046514
    17  H    4.123326   3.979705   4.145206   5.427947   3.388166
    18  H    3.371435   2.880043   3.963902   4.526349   2.706076
    19  H    2.842288   2.473308   2.832999   4.214917   2.820040
                    6          7          8          9         10
     6  C    0.000000
     7  C    1.511018   0.000000
     8  C    2.436861   3.207492   0.000000
     9  C    3.748168   4.287257   1.509728   0.000000
    10  H    1.096015   2.184383   2.459432   3.949455   0.000000
    11  H    1.089671   2.166311   3.284190   4.512976   1.779180
    12  H    2.131933   1.097445   4.121572   5.311837   2.510197
    13  H    2.155055   1.096230   3.703998   4.512895   3.087632
    14  H    2.174474   1.097234   2.998313   3.939156   2.548578
    15  H    2.801660   3.877363   1.096373   2.177086   2.464722
    16  H    2.456742   2.801741   1.093906   2.152253   2.334360
    17  H    4.503718   4.968772   2.113188   1.097540   4.500342
    18  H    3.931850   4.127080   2.159357   1.095820   4.357223
    19  H    4.236492   4.991574   2.173072   1.093766   4.479087
                   11         12         13         14         15
    11  H    0.000000
    12  H    2.504206   0.000000
    13  H    2.492690   1.781611   0.000000
    14  H    3.086781   1.775845   1.786250   0.000000
    15  H    3.496829   4.638109   4.504134   3.775108   0.000000
    16  H    3.496789   3.623589   3.474493   2.287877   1.788192
    17  H    5.362692   5.930153   5.318658   4.435309   2.516664
    18  H    4.697419   5.201784   4.135267   3.719500   3.085279
    19  H    4.801622   6.020946   5.122728   4.820351   2.507667
                   16         17         18         19
    16  H    0.000000
    17  H    2.425298   0.000000
    18  H    2.515933   1.781485   0.000000
    19  H    3.075809   1.777865   1.785906   0.000000
 Stoichiometry    C4H10BF3O
 Framework group  C1[X(C4H10BF3O)]
 Deg. of freedom    51
 Full point group                 C1      NOp   1
 Largest Abelian subgroup         C1      NOp   1
 Largest concise Abelian subgroup C1      NOp   1
                         Standard orientation:                         
 ---------------------------------------------------------------------
 Center     Atomic      Atomic             Coordinates (Angstroms)
 Number     Number       Type             X           Y           Z
 ---------------------------------------------------------------------
      1          5           0       -0.950516   -0.707592   -0.046584
      2          9           0       -1.594057   -0.246627   -1.179915
      3          9           0       -1.649237   -0.443523    1.122962
      4          9           0       -0.562942   -2.031088   -0.163250
      5          8           0        0.410798    0.138270    0.050599
      6          6           0        1.633687   -0.526670    0.515265
      7          6           0        2.747177   -0.307786   -0.482434
      8          6           0        0.314769    1.522372    0.528468
      9          6           0       -0.607698    2.357023   -0.326921
     10          1           0        1.863559   -0.118935    1.506305
     11          1           0        1.382440   -1.582196    0.615872
     12          1           0        3.650260   -0.811657   -0.115091
     13          1           0        2.479547   -0.735002   -1.455872
     14          1           0        2.980532    0.756668   -0.610519
     15          1           0       -0.012826    1.477774    1.573803
     16          1           0        1.336013    1.911757    0.482967
     17          1           0       -0.528719    3.393472    0.025399
     18          1           0       -0.305145    2.321155   -1.379535
     19          1           0       -1.650948    2.040267   -0.239634
 ---------------------------------------------------------------------
 Rotational constants (GHZ):           1.7517550           1.4160032           1.0058482
 Standard basis: Aug-CC-pVDZ (5D, 7F)
 There are   315 symmetry adapted cartesian basis functions of A   symmetry.
 There are   297 symmetry adapted basis functions of A   symmetry.
   297 basis functions,   497 primitive gaussians,   315 cartesian basis functions
    37 alpha electrons       37 beta electrons
       nuclear repulsion energy       523.8887960643 Hartrees.
 NAtoms=   19 NActive=   19 NUniq=   19 SFac= 1.00D+00 NAtFMM=   60 NAOKFM=F Big=F
 Integral buffers will be    131072 words long.
 Raffenetti 2 integral format.
 Two-electron integral symmetry is turned on.
 Nuclear repulsion after empirical dispersion term =      523.8767280084 Hartrees.
 Force inversion solution in PCM.
 Force PCM accuracy= 1.00D-12.
 ------------------------------------------------------------------------------
 Polarizable Continuum Model (PCM)
 =================================
 Model                : C-PCM.
 Atomic radii         : UFF (Universal Force Field).
 Polarization charges : Total charges.
 Charge compensation  : None.
 Solution method      : Matrix inversion.
 Cavity type          : Scaled VdW (van der Waals Surface) (Alpha=1.100).
 Cavity algorithm     : GePol (No added spheres)
                        Default sphere list used, NSphG=   19.
                        Lebedev-Laikov grids with approx.  5.0 points / Ang**2.
                        Smoothing algorithm: York/Karplus (Gamma=1.0000).
                        Polarization charges: spherical gaussians, with
                                              point-specific exponents (IZeta= 3).
                        Self-potential: point-specific (ISelfS= 7).
                        Self-field    : sphere-specific E.n sum rule (ISelfD= 2).
 1st derivatives      : Analytical E(r).r(x)/FMM algorithm (CHGder, D1EAlg=3).
                        Cavity 1st derivative terms included.
 2nd derivatives      : Analytical E(r).r(xy)/FMM algorithm (CHGder, D2EAlg=3).
                        Cavity 2nd derivative terms included.
 Solvent              : Chloroform, Eps=   4.711300 Eps(inf)=   2.090627
 ------------------------------------------------------------------------------
 Spheres list:
 ISph  on   Nord     Re0    Alpha      Xe            Ye            Ze
    1   B      1    2.0415  1.100     -0.950516     -0.707592     -0.046584
    2   F      2    1.6820  1.100     -1.594057     -0.246627     -1.179915
    3   F      3    1.6820  1.100     -1.649237     -0.443523      1.122962
    4   F      4    1.6820  1.100     -0.562942     -2.031088     -0.163250
    5   O      5    1.7500  1.100      0.410798      0.138270      0.050599
    6   C      6    1.9255  1.100      1.633687     -0.526670      0.515265
    7   C      7    1.9255  1.100      2.747177     -0.307786     -0.482434
    8   C      8    1.9255  1.100      0.314769      1.522372      0.528468
    9   C      9    1.9255  1.100     -0.607698      2.357023     -0.326921
   10   H     10    1.4430  1.100      1.863559     -0.118935      1.506305
   11   H     11    1.4430  1.100      1.382440     -1.582196      0.615872
   12   H     12    1.4430  1.100      3.650260     -0.811657     -0.115091
   13   H     13    1.4430  1.100      2.479547     -0.735002     -1.455872
   14   H     14    1.4430  1.100      2.980532      0.756668     -0.610519
   15   H     15    1.4430  1.100     -0.012826      1.477774      1.573803
   16   H     16    1.4430  1.100      1.336013      1.911757      0.482967
   17   H     17    1.4430  1.100     -0.528719      3.393472      0.025399
   18   H     18    1.4430  1.100     -0.305145      2.321155     -1.379535
   19   H     19    1.4430  1.100     -1.650948      2.040267     -0.239634
 ------------------------------------------------------------------------------
 One-electron integrals computed using PRISM.
 NBasis=   297 RedAO= T EigKep=  2.71D-05  NBF=   297
 NBsUse=   297 1.00D-06 EigRej= -1.00D+00 NBFU=   297
 Initial guess from the checkpoint file:  "/inspire/hdd/project/materialscienceresearch/lipenghui-253107030018/g16/00-B-DFT-Shift/04-output/BF3OEt2_CDCl3/BF3OEt2_CDCl3.chk"
 B after Tr=     0.000000    0.000000   -0.000000
         Rot=    1.000000    0.000000    0.000000   -0.000000 Ang=   0.00 deg.
 Requested convergence on RMS density matrix=1.00D-08 within 128 cycles.
 Requested convergence on MAX density matrix=1.00D-06.
 Requested convergence on             energy=1.00D-06.
 No special actions if energy rises.
 Inv3:  Mode=1 IEnd=     6986028.
 Iteration    1 A*A^-1 deviation from unit magnitude is 4.22D-15 for   1520.
 Iteration    1 A*A^-1 deviation from orthogonality  is 4.78D-15 for   1520    781.
 Iteration    1 A^-1*A deviation from unit magnitude is 4.22D-15 for   1520.
 Iteration    1 A^-1*A deviation from orthogonality  is 2.84D-15 for   1515    791.
 Error on total polarization charges =  0.00901
 SCF Done:  E(RwB97XD) =  -558.149151594     A.U. after    1 cycles
            NFock=  1  Conv=0.29D-08     -V/T= 2.0060
 DoSCS=F DFT=T ScalE2(SS,OS)=  1.000000  1.000000
 Range of M.O.s used for correlation:     1   297
 NBasis=   297 NAE=    37 NBE=    37 NFC=     0 NFV=     0
 NROrb=    297 NOA=    37 NOB=    37 NVA=   260 NVB=   260

 **** Warning!!: The largest alpha MO coefficient is  0.28109849D+02

 NEqPCM:  Using equilibrium solvation (IEInf=0, Eps=   4.7113, EpsInf=   2.0906)
          Differentiating once with respect to magnetic field using GIAOs.
          Electric field/nuclear overlap derivatives assumed to be zero.
 FoFJK:  IHMeth= 1 ICntrl=    6127 DoSepK=T KAlg= 0 I1Cent=           0 FoldK=F
 IRaf=         1 NMat=       1 IRICut=       1 DoRegI=T DoRafI=F ISym2E= 0 IDoP0=0 IntGTp=1.
          There are     3 degrees of freedom in the 1st order CPHF.  IDoFFX=0 NUNeed=     3.
      3 vectors produced by pass  0 Test12= 3.21D-13 3.33D-08 XBig12= 1.52D+01 6.56D-01.
 AX will form     3 AO Fock derivatives at one time.
      3 vectors produced by pass  1 Test12= 3.21D-13 3.33D-08 XBig12= 1.15D-01 4.45D-02.
      3 vectors produced by pass  2 Test12= 3.21D-13 3.33D-08 XBig12= 7.71D-04 4.25D-03.
      3 vectors produced by pass  3 Test12= 3.21D-13 3.33D-08 XBig12= 5.69D-06 4.03D-04.
      3 vectors produced by pass  4 Test12= 3.21D-13 3.33D-08 XBig12= 5.11D-08 5.24D-05.
      3 vectors produced by pass  5 Test12= 3.21D-13 3.33D-08 XBig12= 5.01D-10 5.15D-06.
      3 vectors produced by pass  6 Test12= 3.21D-13 3.33D-08 XBig12= 3.74D-12 3.77D-07.
 InvSVY:  IOpt=1 It=  1 EMax= 8.88D-16
 Solved reduced A of dimension    21 with     3 vectors.
 Calculating GIAO nuclear magnetic shielding tensors.
 SCF GIAO Magnetic shielding tensor (ppm):
      1  B    Isotropic =   111.4346   Anisotropy =     8.2900
   XX=   105.4164   YX=    -5.5637   ZX=    -0.9280
   XY=    -5.5151   YY=   112.8702   ZY=    -1.2596
   XZ=     0.1647   YZ=    -1.4173   ZZ=   116.0173
   Eigenvalues:   102.3980   114.9446   116.9613
      2  F    Isotropic =   339.4721   Anisotropy =    50.6516
   XX=   342.3391   YX=     9.3554   ZX=    25.6049
   XY=     5.1853   YY=   324.8318   ZY=   -13.8668
   XZ=    24.8900   YZ=   -13.9865   ZZ=   351.2455
   Eigenvalues:   308.1095   337.0671   373.2399
      3  F    Isotropic =   355.7107   Anisotropy =    50.8872
   XX=   352.6002   YX=     3.7010   ZX=   -12.2714
   XY=     3.3007   YY=   334.4222   ZY=     4.3083
   XZ=   -25.0467   YZ=     4.4602   ZZ=   380.1096
   Eigenvalues:   331.9985   345.4980   389.6355
      4  F    Isotropic =   347.5452   Anisotropy =    41.6154
   XX=   348.4740   YX=    -7.8647   ZX=     0.4406
   XY=    -3.1843   YY=   371.9485   ZY=     7.5199
   XZ=    -3.2622   YZ=    13.5057   ZZ=   322.2130
   Eigenvalues:   320.0792   347.2675   375.2888
      5  O    Isotropic =   264.4436   Anisotropy =    42.9341
   XX=   289.1927   YX=     9.9406   ZX=    12.4396
   XY=    -9.5775   YY=   266.8417   ZY=    -1.8922
   XZ=    16.9452   YZ=     2.6185   ZZ=   237.2963
   Eigenvalues:   233.4227   266.8418   293.0663
      6  C    Isotropic =   123.9090   Anisotropy =    90.8019
   XX=   154.6891   YX=   -39.8096   ZX=    24.0574
   XY=   -32.3437   YY=   110.5561   ZY=   -19.5681
   XZ=    19.2045   YZ=   -14.6067   ZZ=   106.4817
   Eigenvalues:    88.3705    98.9129   184.4436
      7  C    Isotropic =   182.1503   Anisotropy =    20.0946
   XX=   191.6530   YX=    -6.4822   ZX=    -3.8453
   XY=    -2.2505   YY=   168.5866   ZY=    -7.3958
   XZ=    -8.1967   YZ=    -4.6270   ZZ=   186.2112
   Eigenvalues:   165.3407   185.5635   195.5467
      8  C    Isotropic =   123.3798   Anisotropy =    82.1405
   XX=    93.6677   YX=   -12.7047   ZX=    20.7926
   XY=   -10.2664   YY=   169.3848   ZY=    25.7499
   XZ=    16.5312   YZ=    23.2101   ZZ=   107.0869
   Eigenvalues:    74.4870   117.5123   178.1401
      9  C    Isotropic =   180.0179   Anisotropy =    17.8818
   XX=   173.5060   YX=    -8.1762   ZX=     7.8275
   XY=    -5.8541   YY=   187.3747   ZY=     0.1086
   XZ=     6.9668   YZ=    -3.0952   ZZ=   179.1729
   Eigenvalues:   167.1151   180.9995   191.9391
     10  H    Isotropic =    27.9211   Anisotropy =     7.3730
   XX=    29.3218   YX=    -1.1970   ZX=     3.1273
   XY=    -2.7902   YY=    23.9544   ZY=    -2.0138
   XZ=     1.6809   YZ=     0.0664   ZZ=    30.4870
   Eigenvalues:    23.2903    27.6365    32.8364
     11  H    Isotropic =    26.5908   Anisotropy =     5.4418
   XX=    29.5501   YX=    -1.6776   ZX=     1.1177
   XY=     0.5132   YY=    28.0911   ZY=    -2.0633
   XZ=     0.6681   YZ=    -3.0670   ZZ=    22.1311
   Eigenvalues:    21.1308    28.4229    30.2187
     12  H    Isotropic =    30.4274   Anisotropy =    11.3223
   XX=    36.3951   YX=    -3.8435   ZX=     1.0419
   XY=    -3.6924   YY=    27.9535   ZY=    -0.7520
   XZ=     1.0503   YZ=    -0.8209   ZZ=    26.9337
   Eigenvalues:    26.2684    27.0383    37.9757
     13  H    Isotropic =    30.1588   Anisotropy =     7.8476
   XX=    29.0152   YX=     0.2190   ZX=    -1.7575
   XY=    -0.0379   YY=    27.5787   ZY=     2.8031
   XZ=    -0.7116   YZ=     3.5284   ZZ=    33.8825
   Eigenvalues:    26.1496    28.9363    35.3905
     14  H    Isotropic =    30.0194   Anisotropy =     7.0262
   XX=    30.6665   YX=     2.6189   ZX=    -2.2789
   XY=     1.8143   YY=    32.7383   ZY=    -0.4810
   XZ=    -2.1768   YZ=    -1.5905   ZZ=    26.6533
   Eigenvalues:    25.6613    29.6933    34.7035
     15  H    Isotropic =    27.2530   Anisotropy =     6.6734
   XX=    23.7577   YX=    -0.4969   ZX=     0.8797
   XY=    -0.6877   YY=    28.2458   ZY=     3.7360
   XZ=    -0.3459   YZ=     1.4460   ZZ=    29.7555
   Eigenvalues:    23.6061    26.4510    31.7019
     16  H    Isotropic =    27.5280   Anisotropy =     6.0827
   XX=    28.7878   YX=    -0.5212   ZX=     1.0719
   XY=     1.6932   YY=    31.0624   ZY=     1.1058
   XZ=     2.3109   YZ=     1.7142   ZZ=    22.7339
   Eigenvalues:    22.1254    28.8755    31.5832
     17  H    Isotropic =    30.3891   Anisotropy =    11.1134
   XX=    27.0568   YX=    -1.3703   ZX=     0.3486
   XY=    -0.9794   YY=    37.5173   ZY=     1.3647
   XZ=     0.3109   YZ=     1.3185   ZZ=    26.5932
   Eigenvalues:    26.1540    27.2153    37.7981
     18  H    Isotropic =    30.1430   Anisotropy =     7.3673
   XX=    27.2764   YX=    -0.4164   ZX=    -0.0233
   XY=    -0.3408   YY=    29.0749   ZY=    -2.6183
   XZ=    -1.2134   YZ=    -2.1451   ZZ=    34.0777
   Eigenvalues:    26.9620    28.4124    35.0545
     19  H    Isotropic =    29.6833   Anisotropy =     5.9247
   XX=    33.5863   YX=     0.2054   ZX=     0.1294
   XY=    -0.5479   YY=    30.2021   ZY=    -0.7395
   XZ=     0.9329   YZ=    -0.4944   ZZ=    25.2615
   Eigenvalues:    25.1552    30.2616    33.6331
 End of Minotr F.D. properties file   721 does not exist.
 End of Minotr F.D. properties file   722 does not exist.
 End of Minotr F.D. properties file   788 does not exist.
 Symmetrizing basis deriv contribution to polar:
 IMax=3 JMax=2 DiffMx= 0.00D+00
 G2DrvN: will do    20 centers at a time, making    1 passes.
 Calling FoFCou, ICntrl=  3107 FMM=F I1Cent=   0 AccDes= 1.00D-12.
 NEqPCM:  Using equilibrium solvation (IEInf=0, Eps=   4.7113, EpsInf=   2.0906)
 G2PCM: DoFxE=T DoFxN=T DoGrad=T DoDP/DQ/DG/TGxP=FFFF NFrqRd=   0 IEInf=0 SqF1=F DoCFld=F IF1Alg=4.
 End of G2Drv F.D. properties file   721 does not exist.
 End of G2Drv F.D. properties file   722 does not exist.
 End of G2Drv F.D. properties file   788 does not exist.
          IDoAtm=1111111111111111111
 NEqPCM:  Using equilibrium solvation (IEInf=0, Eps=   4.7113, EpsInf=   2.0906)
          Differentiating once with respect to electric field.
                with respect to dipole field.
          Differentiating once with respect to nuclear coordinates.
 Keep R1 ints in memory in canonical form, NReq=1994496423.
          There are    60 degrees of freedom in the 1st order CPHF.  IDoFFX=5 NUNeed=    60.
     57 vectors produced by pass  0 Test12= 1.60D-14 1.67D-09 XBig12= 2.32D+01 9.14D-01.
 AX will form    57 AO Fock derivatives at one time.
     57 vectors produced by pass  1 Test12= 1.60D-14 1.67D-09 XBig12= 1.68D+00 1.75D-01.
     57 vectors produced by pass  2 Test12= 1.60D-14 1.67D-09 XBig12= 6.99D-02 2.37D-02.
     57 vectors produced by pass  3 Test12= 1.60D-14 1.67D-09 XBig12= 6.77D-04 2.52D-03.
     57 vectors produced by pass  4 Test12= 1.60D-14 1.67D-09 XBig12= 5.54D-06 2.11D-04.
     57 vectors produced by pass  5 Test12= 1.60D-14 1.67D-09 XBig12= 3.05D-08 1.59D-05.
     46 vectors produced by pass  6 Test12= 1.60D-14 1.67D-09 XBig12= 1.63D-10 1.07D-06.
      7 vectors produced by pass  7 Test12= 1.60D-14 1.67D-09 XBig12= 8.44D-13 7.35D-08.
      3 vectors produced by pass  8 Test12= 1.60D-14 1.67D-09 XBig12= 3.91D-15 5.86D-09.
 InvSVY:  IOpt=1 It=  1 EMax= 8.88D-15
 Solved reduced A of dimension   398 with    60 vectors.
 Isotropic polarizability for W=    0.000000       84.28 Bohr**3.
 Dipole-magnetic dipole polarizability for W=    0.000000:
                 1             2             3 
      1  -0.302288D+01  0.280542D+01 -0.291148D+02
      2  -0.520740D+01  0.177638D+01  0.376373D+02
      3   0.305304D+02 -0.405134D+02  0.175909D+01
 DQ contribution to OR G for W=    0.000000:
                 1             2             3 
      1  -0.339482D+01 -0.173526D+01 -0.952618D+02
      2   0.167065D+01  0.213245D+00  0.125749D+03
      3   0.106162D+03 -0.135675D+03  0.318157D+01
 Optical Rotation G' tensor for W=    0.000000:
                 1             2             3 
      1   0.919029D+00  0.592419D+00  0.100866D+01
      2   0.592419D+00 -0.578583D+00 -0.521791D+00
      3   0.100866D+01 -0.521791D+00  0.172143D+00
 OR G Eigenvalues:    -1.3276     0.2008     1.6393  Iso=    -0.1709
 Eigenvectors:
   (1)  -0.433212   0.720171   0.541925
   (2)   0.337133   0.687107  -0.643603
   (3)   0.835864   0.096116   0.540456
 w=    0.000000 a.u., Optical Rotation Beta=     -0.1709 au.
 Molar Mass =    141.9276 grams/mole, [Alpha]D (static) =      -46.53 deg.
 AAT (total):
 -0.0393 -0.0451  0.9789
  0.0862  0.0200 -1.2040
 -0.8452  1.0543  0.0171
  0.0756  0.2695 -0.1725
 -0.4954  0.0886  0.6328
  0.2426 -0.6597 -0.1836
 -0.0692 -0.2485 -0.2033
  0.4219 -0.0696  0.5688
  0.2921 -0.7084  0.1555
  0.0447  0.0515 -0.8613
 -0.0483 -0.0292  0.4668
  0.5964 -0.1549 -0.0091
 -0.1103 -0.0843 -0.0289
  0.0718  0.1382 -0.2531
  0.0712 -0.0262 -0.0295
  0.1137  0.0954 -0.1079
  0.0613 -0.0852  0.0841
  0.0304 -0.1559 -0.0117
  0.0099  0.0541  0.0689
 -0.0670 -0.0787 -0.0241
  0.0157  0.1910  0.0552
  0.0182 -0.0340 -0.1907
 -0.0857 -0.0984  0.2329
  0.0876 -0.0383  0.0654
 -0.0623  0.0533  0.1206
 -0.0856 -0.0031  0.0810
 -0.1419 -0.0867  0.0790
 -0.0501  0.0457  0.0037
 -0.0483  0.1230  0.0449
  0.1182  0.0244 -0.0388
  0.0293 -0.0304  0.1024
  0.0055 -0.0288  0.0268
 -0.1358 -0.0372 -0.0169
  0.0239  0.1404  0.1742
 -0.0654 -0.0814  0.1929
 -0.0698 -0.1654  0.0541
 -0.0151 -0.0808  0.0158
  0.1174  0.1188 -0.0037
 -0.0786  0.2029 -0.0910
 -0.0299 -0.0515 -0.2071
 -0.0633 -0.0141 -0.1968
  0.1256 -0.0906  0.0365
  0.0500  0.1274 -0.0330
  0.0253 -0.0382 -0.0365
 -0.0935  0.1183 -0.0122
  0.0033 -0.1039  0.0284
  0.0015  0.0309  0.0592
  0.1026 -0.0753 -0.0554
 -0.0367  0.0384 -0.2309
 -0.1595 -0.0155  0.0786
  0.1946  0.0010  0.0555
  0.0583 -0.1131 -0.0274
  0.1537  0.0026  0.0003
 -0.1531 -0.1233 -0.0464
 -0.0137  0.0652  0.1879
  0.0283  0.0231 -0.1434
  0.0245  0.1265 -0.0219
 End of Minotr F.D. properties file   721 does not exist.
 End of Minotr F.D. properties file   722 does not exist.
 End of Minotr F.D. properties file   788 does not exist.

 **********************************************************************

            Population analysis using the SCF Density.

 **********************************************************************

 Orbital symmetries:
       Occupied  (A) (A) (A) (A) (A) (A) (A) (A) (A) (A) (A) (A)
                 (A) (A) (A) (A) (A) (A) (A) (A) (A) (A) (A) (A)
                 (A) (A) (A) (A) (A) (A) (A) (A) (A) (A) (A) (A)
                 (A)
       Virtual   (A) (A) (A) (A) (A) (A) (A) (A) (A) (A) (A) (A)
                 (A) (A) (A) (A) (A) (A) (A) (A) (A) (A) (A) (A)
                 (A) (A) (A) (A) (A) (A) (A) (A) (A) (A) (A) (A)
                 (A) (A) (A) (A) (A) (A) (A) (A) (A) (A) (A) (A)
                 (A) (A) (A) (A) (A) (A) (A) (A) (A) (A) (A) (A)
                 (A) (A) (A) (A) (A) (A) (A) (A) (A) (A) (A) (A)
                 (A) (A) (A) (A) (A) (A) (A) (A) (A) (A) (A) (A)
                 (A) (A) (A) (A) (A) (A) (A) (A) (A) (A) (A) (A)
                 (A) (A) (A) (A) (A) (A) (A) (A) (A) (A) (A) (A)
                 (A) (A) (A) (A) (A) (A) (A) (A) (A) (A) (A) (A)
                 (A) (A) (A) (A) (A) (A) (A) (A) (A) (A) (A) (A)
                 (A) (A) (A) (A) (A) (A) (A) (A) (A) (A) (A) (A)
                 (A) (A) (A) (A) (A) (A) (A) (A) (A) (A) (A) (A)
                 (A) (A) (A) (A) (A) (A) (A) (A) (A) (A) (A) (A)
                 (A) (A) (A) (A) (A) (A) (A) (A) (A) (A) (A) (A)
                 (A) (A) (A) (A) (A) (A) (A) (A) (A) (A) (A) (A)
                 (A) (A) (A) (A) (A) (A) (A) (A) (A) (A) (A) (A)
                 (A) (A) (A) (A) (A) (A) (A) (A) (A) (A) (A) (A)
                 (A) (A) (A) (A) (A) (A) (A) (A) (A) (A) (A) (A)
                 (A) (A) (A) (A) (A) (A) (A) (A) (A) (A) (A) (A)
                 (A) (A) (A) (A) (A) (A) (A) (A) (A) (A) (A) (A)
                 (A) (A) (A) (A) (A) (A) (A) (A)
 The electronic state is 1-A.
 Alpha  occ. eigenvalues --  -24.81100 -24.80822 -24.80533 -19.36037 -10.37687
 Alpha  occ. eigenvalues --  -10.37419 -10.30557 -10.30151  -6.99383  -1.31741
 Alpha  occ. eigenvalues --   -1.27437  -1.27091  -1.20747  -0.90431  -0.86488
 Alpha  occ. eigenvalues --   -0.75755  -0.74659  -0.67225  -0.63814  -0.62241
 Alpha  occ. eigenvalues --   -0.60784  -0.59104  -0.57958  -0.55435  -0.52734
 Alpha  occ. eigenvalues --   -0.51533  -0.51103  -0.50685  -0.48901  -0.48569
 Alpha  occ. eigenvalues --   -0.48379  -0.47439  -0.46596  -0.46317  -0.45420
 Alpha  occ. eigenvalues --   -0.44334  -0.41240
 Alpha virt. eigenvalues --    0.03660   0.04712   0.04889   0.05002   0.06771
 Alpha virt. eigenvalues --    0.06991   0.07123   0.07164   0.07651   0.09249
 Alpha virt. eigenvalues --    0.09456   0.09841   0.10929   0.11881   0.12736
 Alpha virt. eigenvalues --    0.13842   0.14391   0.14705   0.14946   0.15495
 Alpha virt. eigenvalues --    0.16301   0.17209   0.17415   0.17969   0.18353
 Alpha virt. eigenvalues --    0.18845   0.19411   0.19649   0.20359   0.20686
 Alpha virt. eigenvalues --    0.22641   0.22785   0.23515   0.24206   0.24778
 Alpha virt. eigenvalues --    0.25299   0.25867   0.27020   0.27880   0.28067
 Alpha virt. eigenvalues --    0.28780   0.29572   0.29806   0.31268   0.31726
 Alpha virt. eigenvalues --    0.32159   0.32720   0.33511   0.34197   0.35407
 Alpha virt. eigenvalues --    0.36482   0.36792   0.37575   0.38645   0.39014
 Alpha virt. eigenvalues --    0.39706   0.40520   0.40738   0.41256   0.41489
 Alpha virt. eigenvalues --    0.42284   0.42666   0.43210   0.43473   0.43884
 Alpha virt. eigenvalues --    0.44868   0.45583   0.46151   0.47295   0.47820
 Alpha virt. eigenvalues --    0.49629   0.50039   0.50964   0.51104   0.52223
 Alpha virt. eigenvalues --    0.53012   0.53423   0.53929   0.54952   0.55389
 Alpha virt. eigenvalues --    0.55526   0.56644   0.56937   0.58294   0.59306
 Alpha virt. eigenvalues --    0.59566   0.60157   0.60993   0.62043   0.63571
 Alpha virt. eigenvalues --    0.64122   0.64677   0.65048   0.65956   0.67006
 Alpha virt. eigenvalues --    0.67817   0.69797   0.70484   0.71206   0.71326
 Alpha virt. eigenvalues --    0.72492   0.72850   0.73882   0.74291   0.75677
 Alpha virt. eigenvalues --    0.76287   0.76651   0.78401   0.78950   0.79462
 Alpha virt. eigenvalues --    0.80491   0.81862   0.82568   0.83182   0.83673
 Alpha virt. eigenvalues --    0.86262   0.87411   0.88086   0.88949   0.91270
 Alpha virt. eigenvalues --    0.92152   0.93788   0.96123   0.97384   0.98598
 Alpha virt. eigenvalues --    0.99920   1.00682   1.04030   1.04653   1.06303
 Alpha virt. eigenvalues --    1.08090   1.09434   1.10513   1.12396   1.14612
 Alpha virt. eigenvalues --    1.15508   1.18025   1.21330   1.22120   1.25087
 Alpha virt. eigenvalues --    1.27122   1.30189   1.31898   1.33624   1.34819
 Alpha virt. eigenvalues --    1.35933   1.38720   1.39277   1.42124   1.42306
 Alpha virt. eigenvalues --    1.43900   1.45311   1.46629   1.47954   1.49408
 Alpha virt. eigenvalues --    1.50110   1.51907   1.53893   1.55294   1.57959
 Alpha virt. eigenvalues --    1.60167   1.61948   1.62236   1.63527   1.65719
 Alpha virt. eigenvalues --    1.66808   1.67679   1.69320   1.69884   1.71267
 Alpha virt. eigenvalues --    1.73371   1.74603   1.74732   1.76764   1.77603
 Alpha virt. eigenvalues --    1.78510   1.80101   1.81685   1.82498   1.83371
 Alpha virt. eigenvalues --    1.85697   1.87456   1.88241   1.90700   1.92342
 Alpha virt. eigenvalues --    1.93539   1.95695   1.97042   1.98452   1.99745
 Alpha virt. eigenvalues --    2.01737   2.02451   2.03537   2.05499   2.07197
 Alpha virt. eigenvalues --    2.07409   2.09600   2.10206   2.11582   2.12311
 Alpha virt. eigenvalues --    2.14962   2.16764   2.19989   2.23584   2.26161
 Alpha virt. eigenvalues --    2.28591   2.30379   2.31885   2.33540   2.35697
 Alpha virt. eigenvalues --    2.38027   2.39429   2.41059   2.41196   2.46966
 Alpha virt. eigenvalues --    2.47375   2.48746   2.52270   2.54897   2.55610
 Alpha virt. eigenvalues --    2.58537   2.61285   2.63823   2.65118   2.67790
 Alpha virt. eigenvalues --    2.72141   2.73254   2.75975   2.82525   2.84163
 Alpha virt. eigenvalues --    2.86216   2.88423   2.93960   2.99009   3.07333
 Alpha virt. eigenvalues --    3.08378   3.16060   3.20771   3.36367   3.63441
 Alpha virt. eigenvalues --    3.67497   3.70184   3.73910   3.89582   3.97457
 Alpha virt. eigenvalues --    4.61948   4.64223   4.66487   4.66620   4.68576
 Alpha virt. eigenvalues --    4.70841   4.73024   4.74768   4.75518   4.79604
 Alpha virt. eigenvalues --    4.81631   4.84060   4.86880   4.92790   4.94623
          Condensed to atoms (all electrons):
               1          2          3          4          5          6
     1  B    3.535933  -0.024173   0.061627   0.131605  -0.343420  -0.091743
     2  F   -0.024173   9.609711  -0.112125  -0.176870   0.293242   0.025712
     3  F    0.061627  -0.112125   9.740094  -0.146740   0.020342  -0.060082
     4  F    0.131605  -0.176870  -0.146740   9.995619  -0.144992  -0.098057
     5  O   -0.343420   0.293242   0.020342  -0.144992  10.075746   0.098189
     6  C   -0.091743   0.025712  -0.060082  -0.098057   0.098189   5.013696
     7  C   -0.026408   0.016701   0.000891   0.002586  -0.028015   0.233059
     8  C    0.037868  -0.115262   0.036068   0.017122  -0.092303  -0.053064
     9  C    0.007555   0.017759  -0.035712   0.022002  -0.080458  -0.084606
    10  H    0.037005  -0.005591  -0.001065  -0.001984  -0.137390  -0.003962
    11  H    0.024906   0.021371   0.004023  -0.086830  -0.312887   0.173647
    12  H    0.004365   0.001903   0.000523  -0.001686   0.131805   0.100410
    13  H    0.010440  -0.000871  -0.000285  -0.000979  -0.095807  -0.068603
    14  H   -0.015322   0.001687  -0.001059  -0.006481  -0.181112  -0.084876
    15  H    0.044567   0.007849   0.033863   0.015660  -0.059298   0.009522
    16  H    0.009967  -0.007760  -0.001921  -0.000920  -0.167663  -0.107172
    17  H    0.005683   0.002201   0.002262   0.000293   0.064397   0.003167
    18  H    0.015920   0.007792  -0.002536   0.006702  -0.110492  -0.043859
    19  H    0.045169  -0.030554   0.033649   0.010723  -0.119727  -0.018023
               7          8          9         10         11         12
     1  B   -0.026408   0.037868   0.007555   0.037005   0.024906   0.004365
     2  F    0.016701  -0.115262   0.017759  -0.005591   0.021371   0.001903
     3  F    0.000891   0.036068  -0.035712  -0.001065   0.004023   0.000523
     4  F    0.002586   0.017122   0.022002  -0.001984  -0.086830  -0.001686
     5  O   -0.028015  -0.092303  -0.080458  -0.137390  -0.312887   0.131805
     6  C    0.233059  -0.053064  -0.084606  -0.003962   0.173647   0.100410
     7  C    4.470599  -0.027695   0.014019  -0.101743  -0.066159   0.262692
     8  C   -0.027695   5.054397   0.177676   0.028322  -0.026897  -0.029907
     9  C    0.014019   0.177676   4.662388   0.076923  -0.035449   0.000081
    10  H   -0.101743   0.028322   0.076923   1.672937  -0.365227  -0.111742
    11  H   -0.066159  -0.026897  -0.035449  -0.365227   2.206153  -0.084948
    12  H    0.262692  -0.029907   0.000081  -0.111742  -0.084948   1.412215
    13  H    0.307421   0.028794   0.012280   0.117600  -0.126852  -0.259500
    14  H    0.363594   0.008219  -0.024829  -0.077149   0.136249  -0.275182
    15  H    0.005103  -0.171328  -0.095014  -0.026945  -0.012150  -0.001828
    16  H    0.033030  -0.005751  -0.066325   0.031755   0.007188   0.000052
    17  H   -0.001672   0.107063   0.225676  -0.003934   0.000122  -0.000195
    18  H    0.008580  -0.114115   0.386693   0.007492  -0.010880  -0.000864
    19  H    0.000115   0.005122   0.285343   0.007968  -0.001285  -0.000454
              13         14         15         16         17         18
     1  B    0.010440  -0.015322   0.044567   0.009967   0.005683   0.015920
     2  F   -0.000871   0.001687   0.007849  -0.007760   0.002201   0.007792
     3  F   -0.000285  -0.001059   0.033863  -0.001921   0.002262  -0.002536
     4  F   -0.000979  -0.006481   0.015660  -0.000920   0.000293   0.006702
     5  O   -0.095807  -0.181112  -0.059298  -0.167663   0.064397  -0.110492
     6  C   -0.068603  -0.084876   0.009522  -0.107172   0.003167  -0.043859
     7  C    0.307421   0.363594   0.005103   0.033030  -0.001672   0.008580
     8  C    0.028794   0.008219  -0.171328  -0.005751   0.107063  -0.114115
     9  C    0.012280  -0.024829  -0.095014  -0.066325   0.225676   0.386693
    10  H    0.117600  -0.077149  -0.026945   0.031755  -0.003934   0.007492
    11  H   -0.126852   0.136249  -0.012150   0.007188   0.000122  -0.010880
    12  H   -0.259500  -0.275182  -0.001828   0.000052  -0.000195  -0.000864
    13  H    1.415682  -0.199746   0.001063  -0.009487  -0.000566   0.007235
    14  H   -0.199746   1.529829  -0.000672   0.039253   0.000981  -0.007302
    15  H    0.001063  -0.000672   2.107822  -0.388431  -0.098415   0.139978
    16  H   -0.009487   0.039253  -0.388431   2.211240  -0.070601  -0.150336
    17  H   -0.000566   0.000981  -0.098415  -0.070601   1.412634  -0.247885
    18  H    0.007235  -0.007302   0.139978  -0.150336  -0.247885   1.528331
    19  H    0.000334   0.000558  -0.127847   0.109165  -0.261167  -0.289180
              19
     1  B    0.045169
     2  F   -0.030554
     3  F    0.033649
     4  F    0.010723
     5  O   -0.119727
     6  C   -0.018023
     7  C    0.000115
     8  C    0.005122
     9  C    0.285343
    10  H    0.007968
    11  H   -0.001285
    12  H   -0.000454
    13  H    0.000334
    14  H    0.000558
    15  H   -0.127847
    16  H    0.109165
    17  H   -0.261167
    18  H   -0.289180
    19  H    1.486696
 Mulliken charges:
               1
     1  B    1.528457
     2  F   -0.532723
     3  F   -0.571817
     4  F   -0.536773
     5  O   -0.810156
     6  C    1.056644
     7  C    0.533302
     8  C    1.135671
     9  C    0.533998
    10  H   -0.143268
    11  H   -0.444095
    12  H   -0.147742
    13  H   -0.138154
    14  H   -0.206641
    15  H   -0.383499
    16  H   -0.465283
    17  H   -0.140044
    18  H   -0.131272
    19  H   -0.136605
 Sum of Mulliken charges =  -0.00000
 Mulliken charges with hydrogens summed into heavy atoms:
               1
     1  B    1.528457
     2  F   -0.532723
     3  F   -0.571817
     4  F   -0.536773
     5  O   -0.810156
     6  C    0.469280
     7  C    0.040765
     8  C    0.286889
     9  C    0.126078
 APT charges:
               1
     1  B    2.149331
     2  F   -0.760352
     3  F   -0.759201
     4  F   -0.764147
     5  O   -1.117035
     6  C    0.587048
     7  C   -0.000299
     8  C    0.602124
     9  C    0.001080
    10  H   -0.019422
    11  H    0.040908
    12  H    0.012019
    13  H    0.005154
    14  H    0.000558
    15  H   -0.016244
    16  H   -0.007401
    17  H    0.009789
    18  H    0.008198
    19  H    0.027891
 Sum of APT charges =   0.00000
 APT charges with hydrogens summed into heavy atoms:
               1
     1  B    2.149331
     2  F   -0.760352
     3  F   -0.759201
     4  F   -0.764147
     5  O   -1.117035
     6  C    0.608534
     7  C    0.017432
     8  C    0.578480
     9  C    0.046958
 Electronic spatial extent (au):  <R**2>=           1263.5728
 Charge=             -0.0000 electrons
 Dipole moment (field-independent basis, Debye):
    X=              6.1873    Y=              3.9613    Z=              1.4916  Tot=              7.4966
 Quadrupole moment (field-independent basis, Debye-Ang):
   XX=            -52.1081   YY=            -51.3459   ZZ=            -54.9997
   XY=             -3.2472   XZ=              1.1162   YZ=              0.4932
 Traceless Quadrupole moment (field-independent basis, Debye-Ang):
   XX=              0.7098   YY=              1.4720   ZZ=             -2.1818
   XY=             -3.2472   XZ=              1.1162   YZ=              0.4932
 Octapole moment (field-independent basis, Debye-Ang**2):
  XXX=              6.3970  YYY=              7.9201  ZZZ=              1.4568  XYY=             -0.5680
  XXY=             -5.0326  XXZ=              1.3631  XZZ=              2.7172  YZZ=             -2.1337
  YYZ=              2.7034  XYZ=             -0.6526
 Hexadecapole moment (field-independent basis, Debye-Ang**3):
 XXXX=           -720.2291 YYYY=           -572.9117 ZZZZ=           -199.6979 XXXY=              0.1727
 XXXZ=              7.1234 YYYX=              4.6319 YYYZ=              2.5593 ZZZX=              1.8819
 ZZZY=              3.2597 XXYY=           -214.3782 XXZZ=           -167.5771 YYZZ=           -129.5107
 XXYZ=              0.1622 YYXZ=              1.4702 ZZXY=              0.3800
 N-N= 5.238767280084D+02 E-N=-2.364251922710D+03  KE= 5.548036419032D+02
  Exact polarizability:      87.494      -3.908      86.449       0.402      -0.257      78.899
 Approx polarizability:      72.925      -1.580      73.712       0.707       0.372      70.588
 D2PCM: C-PCM CHGder 2nd derivatives, FixD1E=F FixD2E=F DoIter=F DoCFld=F I1PDM=0
 Calling FoFJK, ICntrl=    100127 FMM=F ISym2X=0 I1Cent= 0 IOpClX= 0 NMat=1 NMatS=1 NMatT=0.
 Full mass-weighted force constant matrix:
 Low frequencies ---   -8.8297   -0.0016   -0.0014   -0.0007    5.5753   11.1365
 Low frequencies ---   21.5136   50.2926   74.2182
 Diagonal vibrational polarizability:
       49.2187370      43.4426952      23.2543465
 Harmonic frequencies (cm**-1), IR intensities (KM/Mole), Raman scattering
 activities (A**4/AMU), depolarization ratios for plane and unpolarized
 incident light, reduced masses (AMU), force constants (mDyne/A),
 Dipole strengths (10**-40 esu**2-cm**2),
 Rotational strengths (10**-44 esu**2-cm**2),
 E-M angle = Angle between electric and magnetic dipole transition moments (deg),
 and normal coordinates:
                      1                      2                      3
                      A                      A                      A
 Frequencies --     21.3606                50.2687                74.2118
 Red. masses --      6.9601                 2.3507                 2.7620
 Frc consts  --      0.0019                 0.0035                 0.0090
 IR Inten    --      0.3111                 1.2340                 0.8133
 Dip. str.   --     58.0949                97.9319                43.7183
 Rot. str.   --     -0.3183                 9.9534                -1.1933
 E-M angle   --     92.5046                40.9220               103.1680
  Atom  AN      X      Y      Z        X      Y      Z        X      Y      Z
     1   5     0.00   0.01  -0.01    -0.03  -0.02   0.02     0.01  -0.02   0.02
     2   9     0.20  -0.12  -0.17    -0.04  -0.03   0.02     0.04   0.01   0.01
     3   9    -0.17   0.20  -0.15    -0.01   0.02   0.02    -0.07  -0.10  -0.00
     4   9    -0.03  -0.02   0.24    -0.07  -0.04   0.04     0.07   0.01  -0.02
     5   8     0.01  -0.02   0.08    -0.01  -0.04  -0.02    -0.03   0.02   0.13
     6   6     0.07  -0.02  -0.10     0.00  -0.05  -0.09     0.01   0.05   0.03
     7   6    -0.05   0.05  -0.22     0.05   0.22   0.02    -0.13  -0.04  -0.15
     8   6     0.03  -0.04   0.13    -0.02  -0.06   0.04    -0.07   0.03   0.10
     9   6    -0.07  -0.04   0.23     0.15   0.01  -0.07     0.15   0.06  -0.11
    10   1     0.18  -0.07  -0.11    -0.08  -0.25   0.01     0.15   0.15  -0.04
    11   1     0.10  -0.03  -0.13     0.06  -0.09  -0.33     0.02   0.06   0.17
    12   1     0.00   0.04  -0.35     0.05   0.18  -0.03    -0.07   0.02  -0.23
    13   1    -0.15   0.10  -0.21     0.13   0.42  -0.08    -0.27  -0.15  -0.06
    14   1    -0.07   0.06  -0.19     0.02   0.26   0.27    -0.19  -0.05  -0.29
    15   1     0.11  -0.08   0.16    -0.19  -0.10  -0.01    -0.28   0.05   0.03
    16   1     0.01  -0.01   0.06     0.00  -0.10   0.23    -0.04  -0.02   0.30
    17   1    -0.10  -0.05   0.27     0.13  -0.00  -0.02     0.11   0.06  -0.11
    18   1    -0.13   0.02   0.21     0.33   0.04  -0.03     0.39   0.02  -0.04
    19   1    -0.05  -0.09   0.28     0.13   0.05  -0.26     0.12   0.10  -0.34
                      4                      5                      6
                      A                      A                      A
 Frequencies --    168.7415               203.9269               218.6716
 Red. masses --      2.3784                 3.0209                 1.1298
 Frc consts  --      0.0399                 0.0740                 0.0318
 IR Inten    --      3.1116                 2.5914                 1.0163
 Dip. str.   --     73.5652                50.6958                18.5418
 Rot. str.   --     -7.8065                14.7078                -9.6882
 E-M angle   --    106.8323                63.3240               119.7896
  Atom  AN      X      Y      Z        X      Y      Z        X      Y      Z
     1   5    -0.02   0.00   0.04     0.04   0.03   0.01    -0.02  -0.01  -0.00
     2   9     0.07   0.10   0.03     0.09   0.14   0.02    -0.02  -0.00  -0.00
     3   9    -0.09  -0.07   0.00     0.08   0.08   0.03    -0.02  -0.01  -0.01
     4   9    -0.04   0.00  -0.03    -0.11  -0.00  -0.03    -0.02  -0.02  -0.00
     5   8    -0.00  -0.05   0.13     0.05  -0.05   0.02    -0.00  -0.02  -0.01
     6   6     0.04  -0.02   0.02     0.07  -0.01   0.02     0.01   0.02   0.00
     7   6    -0.01   0.10  -0.02     0.02  -0.00  -0.03     0.01   0.04   0.00
     8   6     0.10   0.02  -0.08    -0.13  -0.07   0.05     0.04  -0.02  -0.01
     9   6    -0.03  -0.10  -0.07    -0.11  -0.18  -0.08     0.04   0.02   0.03
    10   1     0.07  -0.09   0.04     0.09   0.04  -0.01     0.00   0.06  -0.01
    11   1     0.08  -0.04  -0.06     0.09  -0.01   0.07     0.05   0.01   0.05
    12   1    -0.00   0.03  -0.15     0.12   0.22   0.04     0.17   0.52   0.27
    13   1    -0.09   0.24  -0.06     0.08  -0.20   0.04     0.25  -0.42   0.14
    14   1     0.01   0.11   0.11    -0.18   0.02  -0.21    -0.38   0.08  -0.37
    15   1     0.27   0.20  -0.02    -0.28  -0.13   0.00     0.08  -0.01   0.00
    16   1     0.09   0.00  -0.31    -0.16   0.03   0.20     0.04  -0.04  -0.04
    17   1     0.18  -0.01  -0.37    -0.39  -0.19   0.02     0.15   0.03  -0.01
    18   1    -0.31  -0.42  -0.14     0.13  -0.04  -0.02    -0.04  -0.03   0.01
    19   1    -0.04   0.05   0.29    -0.06  -0.39  -0.34     0.02   0.11   0.12
                      7                      8                      9
                      A                      A                      A
 Frequencies --    262.0474               275.2038               302.7691
 Red. masses --      1.4455                 7.1019                 3.3675
 Frc consts  --      0.0585                 0.3169                 0.1819
 IR Inten    --      0.6237                 5.6207                 1.5281
 Dip. str.   --      9.4958                81.4790                20.1354
 Rot. str.   --     -5.6012                 5.8909                -2.0951
 E-M angle   --    120.7242                48.3560               102.0282
  Atom  AN      X      Y      Z        X      Y      Z        X      Y      Z
     1   5    -0.03  -0.01   0.02     0.05  -0.09   0.02    -0.03  -0.00   0.03
     2   9     0.01   0.03   0.02     0.30   0.07  -0.05    -0.01   0.10   0.06
     3   9    -0.09  -0.07  -0.00     0.14  -0.16   0.08    -0.15  -0.09  -0.03
     4   9    -0.01  -0.00   0.02    -0.25  -0.20   0.08     0.02   0.01   0.10
     5   8     0.01  -0.00   0.01    -0.04   0.02  -0.10     0.03   0.03  -0.08
     6   6     0.02   0.01  -0.01    -0.07   0.08   0.00     0.09   0.05  -0.12
     7   6     0.03   0.00  -0.00    -0.06   0.01   0.00     0.23  -0.10  -0.02
     8   6     0.08   0.03  -0.08    -0.08   0.06  -0.10    -0.12  -0.02   0.04
     9   6    -0.00   0.02  -0.00    -0.03   0.26   0.02    -0.04   0.03  -0.02
    10   1     0.02   0.01  -0.01    -0.09   0.13  -0.01     0.09   0.07  -0.13
    11   1     0.03   0.01  -0.01    -0.07   0.08   0.06     0.07   0.06  -0.07
    12   1     0.03   0.01   0.03    -0.10  -0.10  -0.04     0.09  -0.21   0.17
    13   1     0.06  -0.02   0.00    -0.13   0.08  -0.01     0.35  -0.13  -0.04
    14   1     0.04  -0.00  -0.02     0.04  -0.00   0.04     0.40  -0.14  -0.03
    15   1     0.18   0.09  -0.04    -0.06   0.02  -0.10    -0.27  -0.14  -0.01
    16   1     0.08   0.02  -0.19    -0.06   0.01  -0.09    -0.13   0.04   0.22
    17   1    -0.42  -0.08   0.39     0.23   0.21   0.14     0.19   0.07  -0.19
    18   1     0.22   0.49   0.05    -0.14   0.34  -0.01    -0.12  -0.19  -0.03
    19   1     0.08  -0.36  -0.33    -0.09   0.48   0.11    -0.10   0.25   0.10
                     10                     11                     12
                      A                      A                      A
 Frequencies --    321.8867               375.5079               415.6089
 Red. masses --      4.1438                 3.2698                 4.9891
 Frc consts  --      0.2530                 0.2716                 0.5077
 IR Inten    --      0.6909                 2.8485                 8.4679
 Dip. str.   --      8.5625                30.2627                81.2824
 Rot. str.   --      1.3332                -3.7616                 9.1334
 E-M angle   --     51.0865               119.0824                38.8285
  Atom  AN      X      Y      Z        X      Y      Z        X      Y      Z
     1   5     0.08   0.08   0.04    -0.02   0.04   0.02     0.07  -0.06   0.09
     2   9     0.12   0.11   0.02     0.05  -0.12  -0.07     0.04  -0.06   0.12
     3   9    -0.00  -0.03   0.03     0.04  -0.05   0.08    -0.06   0.19  -0.01
     4   9     0.20   0.09   0.11    -0.08   0.04  -0.05     0.06  -0.08  -0.18
     5   8    -0.08  -0.03  -0.08    -0.02   0.14   0.13    -0.05  -0.12   0.17
     6   6    -0.18  -0.21  -0.10    -0.04  -0.07  -0.14     0.07  -0.11  -0.03
     7   6    -0.12  -0.01   0.03     0.09  -0.06  -0.01     0.09  -0.03  -0.02
     8   6    -0.04  -0.04  -0.05     0.02   0.17   0.10    -0.14   0.01  -0.11
     9   6    -0.04   0.01  -0.03    -0.03  -0.01  -0.04    -0.10   0.22  -0.03
    10   1    -0.26  -0.45   0.01     0.03  -0.36  -0.04     0.11  -0.21   0.00
    11   1    -0.24  -0.21  -0.38    -0.17  -0.07  -0.40     0.09  -0.12  -0.14
    12   1    -0.04   0.23   0.17     0.05   0.05   0.27     0.08   0.01   0.05
    13   1     0.10  -0.11   0.01     0.36  -0.20  -0.02     0.18  -0.05  -0.04
    14   1    -0.36   0.04   0.01     0.04  -0.06  -0.06     0.06  -0.02   0.00
    15   1    -0.04  -0.06  -0.05     0.02   0.25   0.10    -0.12   0.15  -0.10
    16   1    -0.03  -0.07  -0.04     0.03   0.17   0.06    -0.12  -0.03  -0.15
    17   1    -0.02  -0.01   0.02    -0.22   0.06  -0.21     0.11   0.12   0.22
    18   1    -0.05   0.05  -0.03     0.03  -0.15  -0.02    -0.14   0.45  -0.05
    19   1    -0.04   0.02  -0.03     0.01  -0.16  -0.05    -0.15   0.40  -0.05
                     13                     14                     15
                      A                      A                      A
 Frequencies --    472.1327               491.5627               534.0563
 Red. masses --      8.3472                 6.8079                 4.0407
 Frc consts  --      1.0963                 0.9692                 0.6790
 IR Inten    --      6.9880                 9.6120                16.7013
 Dip. str.   --     59.0469                78.0088               124.7589
 Rot. str.   --    -10.8819                21.1031                19.1444
 E-M angle   --    117.3768                40.1508                37.2420
  Atom  AN      X      Y      Z        X      Y      Z        X      Y      Z
     1   5    -0.14   0.05   0.21     0.08  -0.16   0.08     0.10   0.09   0.06
     2   9     0.24  -0.16  -0.05     0.10   0.02   0.26     0.01  -0.11   0.07
     3   9    -0.17   0.06   0.30    -0.10   0.13  -0.12    -0.10  -0.06  -0.02
     4   9     0.01   0.19  -0.21     0.03  -0.24  -0.11    -0.09   0.08  -0.04
     5   8    -0.07  -0.04  -0.19     0.02   0.17  -0.15     0.23   0.06  -0.14
     6   6    -0.04   0.16  -0.03    -0.17   0.09  -0.09     0.11  -0.17   0.13
     7   6     0.02   0.02   0.00    -0.08  -0.00   0.03    -0.06  -0.00   0.01
     8   6     0.01  -0.18  -0.04     0.10   0.12   0.11    -0.01   0.06  -0.01
     9   6     0.08  -0.10   0.04     0.05  -0.10   0.02    -0.06   0.06  -0.03
    10   1    -0.11   0.41  -0.12    -0.19  -0.01  -0.04     0.03  -0.24   0.18
    11   1     0.07   0.16   0.22    -0.23   0.10  -0.15    -0.05  -0.15  -0.02
    12   1    -0.10  -0.13   0.08    -0.14  -0.02   0.14     0.18   0.17  -0.36
    13   1     0.01   0.02   0.00    -0.01  -0.04   0.02    -0.32   0.08   0.04
    14   1     0.21  -0.02  -0.02    -0.03  -0.02  -0.01    -0.39   0.07   0.05
    15   1     0.03  -0.27  -0.03     0.11  -0.01   0.11    -0.21  -0.13  -0.08
    16   1     0.01  -0.18  -0.01     0.11   0.11   0.12    -0.05   0.20   0.24
    17   1     0.14  -0.12   0.08    -0.19   0.00  -0.26    -0.03   0.07  -0.05
    18   1     0.08  -0.09   0.04     0.11  -0.35   0.04    -0.13   0.05  -0.04
    19   1     0.05  -0.03   0.03     0.13  -0.34   0.03    -0.06   0.08   0.05
                     16                     17                     18
                      A                      A                      A
 Frequencies --    625.9642               778.6659               812.5231
 Red. masses --      7.1373                 2.2862                 1.3484
 Frc consts  --      1.6477                 0.8167                 0.5245
 IR Inten    --    278.6915               269.6269                84.6048
 Dip. str.   --   1776.1583              1381.4003               415.4003
 Rot. str.   --    -40.0416               -84.8585                10.0773
 E-M angle   --    141.1595               109.0622                83.2775
  Atom  AN      X      Y      Z        X      Y      Z        X      Y      Z
     1   5     0.45   0.27   0.03     0.13   0.08   0.01    -0.08  -0.05  -0.01
     2   9     0.01  -0.13   0.17    -0.04   0.03  -0.07     0.03  -0.01   0.04
     3   9     0.03  -0.10  -0.19    -0.05   0.01   0.08     0.03  -0.01  -0.04
     4   9    -0.16   0.15   0.01     0.02  -0.09  -0.01    -0.01   0.05   0.00
     5   8    -0.17  -0.08   0.05    -0.09  -0.06  -0.08     0.03   0.00   0.03
     6   6    -0.06   0.10  -0.07     0.05  -0.10   0.01    -0.04  -0.04  -0.05
     7   6    -0.00   0.02  -0.01     0.02  -0.02  -0.02    -0.03  -0.03  -0.01
     8   6    -0.02  -0.07  -0.02     0.00   0.11   0.08     0.03   0.00  -0.02
     9   6     0.05  -0.06   0.03    -0.01   0.04   0.01     0.01   0.00  -0.02
    10   1    -0.09   0.27  -0.14     0.11   0.35  -0.19     0.24   0.29  -0.24
    11   1     0.03   0.09   0.10     0.04  -0.06   0.47    -0.10   0.02   0.40
    12   1    -0.19  -0.11   0.27     0.12   0.13  -0.04     0.00   0.13   0.13
    13   1     0.18  -0.04  -0.03     0.19   0.20  -0.15     0.31   0.21  -0.21
    14   1     0.24  -0.03  -0.01    -0.17   0.06   0.29    -0.19   0.06   0.37
    15   1     0.15  -0.01   0.04     0.19   0.02   0.13    -0.22   0.01  -0.10
    16   1     0.02  -0.24  -0.23     0.03  -0.01  -0.14     0.03   0.01   0.23
    17   1     0.12  -0.08   0.09    -0.15   0.13  -0.23    -0.05  -0.02   0.07
    18   1     0.11  -0.02   0.04     0.16  -0.19   0.07    -0.19   0.10  -0.08
    19   1     0.03   0.00  -0.03     0.02  -0.08  -0.12     0.05  -0.08   0.17
                     19                     20                     21
                      A                      A                      A
 Frequencies --    821.9499               875.2310               927.0109
 Red. masses --      1.3692                 2.6882                 2.5896
 Frc consts  --      0.5450                 1.2133                 1.3111
 IR Inten    --     70.6758                32.0761                27.5404
 Dip. str.   --    343.0305               146.2065               118.5205
 Rot. str.   --     36.1768                33.4526                -8.9155
 E-M angle   --     62.9047                57.3821                96.5723
  Atom  AN      X      Y      Z        X      Y      Z        X      Y      Z
     1   5     0.09   0.05   0.00     0.13   0.08  -0.00    -0.02   0.02   0.00
     2   9    -0.03   0.01  -0.04    -0.06   0.02  -0.07     0.02  -0.00   0.02
     3   9    -0.03   0.01   0.04    -0.06   0.01   0.08     0.02   0.00  -0.02
     4   9     0.01  -0.05  -0.00     0.01  -0.10  -0.01     0.00  -0.02  -0.00
     5   8    -0.03  -0.03   0.01     0.12   0.13   0.06    -0.17   0.17  -0.01
     6   6     0.00   0.03   0.00    -0.02   0.03  -0.05     0.02  -0.06   0.10
     7   6    -0.00   0.02   0.00    -0.08  -0.02   0.00     0.16  -0.04  -0.04
     8   6     0.05   0.03  -0.04    -0.04  -0.09  -0.07    -0.05  -0.04  -0.06
     9   6     0.04   0.00  -0.02     0.01  -0.11   0.00     0.07  -0.09   0.02
    10   1    -0.08  -0.04   0.04     0.20   0.02  -0.10    -0.14   0.00   0.10
    11   1     0.06   0.00  -0.09    -0.21   0.08   0.01    -0.27   0.01   0.09
    12   1    -0.06  -0.06   0.03    -0.15   0.04   0.24     0.46   0.17  -0.49
    13   1    -0.05  -0.07   0.05     0.20   0.06  -0.10    -0.10   0.14  -0.05
    14   1     0.10  -0.02  -0.11    -0.07   0.01   0.22    -0.20   0.05  -0.00
    15   1    -0.43  -0.02  -0.19     0.01   0.03  -0.05    -0.11   0.20  -0.07
    16   1     0.13  -0.13   0.45    -0.14   0.16  -0.14    -0.03  -0.08  -0.04
    17   1    -0.17  -0.02   0.08     0.43  -0.25   0.35     0.15  -0.17   0.24
    18   1    -0.38   0.12  -0.14     0.06   0.20   0.01    -0.08   0.09  -0.03
    19   1     0.15  -0.27   0.38    -0.11   0.30  -0.05     0.06  -0.03   0.16
                     22                     23                     24
                      A                      A                      A
 Frequencies --   1033.0589              1048.9824              1116.1846
 Red. masses --      3.0560                 2.3245                 2.2256
 Frc consts  --      1.9216                 1.5070                 1.6337
 IR Inten    --    133.8231                36.2161                18.5935
 Dip. str.   --    516.7892               137.7337                66.4558
 Rot. str.   --    -21.4579                -9.9521               -80.2060
 E-M angle   --    102.3038               113.4151               132.8696
  Atom  AN      X      Y      Z        X      Y      Z        X      Y      Z
     1   5    -0.05   0.01   0.02    -0.03  -0.04   0.00    -0.05   0.07  -0.02
     2   9     0.02  -0.00   0.01     0.01   0.00   0.01     0.01  -0.01   0.02
     3   9     0.02  -0.00  -0.02     0.01   0.00  -0.01     0.01  -0.00  -0.01
     4   9    -0.00  -0.01  -0.00    -0.00   0.03   0.00     0.01  -0.03  -0.00
     5   8    -0.13   0.15  -0.05    -0.03  -0.07  -0.07     0.01   0.01  -0.03
     6   6     0.28  -0.08   0.02     0.06  -0.05  -0.02    -0.08  -0.09   0.19
     7   6    -0.16   0.03   0.03    -0.04   0.02   0.03     0.01   0.10  -0.17
     8   6    -0.02  -0.10  -0.03    -0.08   0.24   0.01     0.05   0.00   0.05
     9   6     0.03   0.04   0.01     0.06  -0.15   0.03    -0.04  -0.02  -0.04
    10   1     0.40  -0.07  -0.02     0.02   0.05  -0.06    -0.08  -0.05   0.18
    11   1     0.22  -0.08  -0.16     0.32  -0.11   0.01    -0.05  -0.11   0.21
    12   1    -0.39  -0.11   0.45    -0.13  -0.09   0.10    -0.24  -0.08   0.25
    13   1     0.10  -0.16   0.06    -0.06  -0.09   0.09     0.47  -0.12  -0.20
    14   1     0.12  -0.03   0.16     0.07  -0.02  -0.05     0.53  -0.01  -0.17
    15   1     0.03   0.06  -0.01    -0.18   0.37  -0.03     0.02  -0.02   0.04
    16   1    -0.00  -0.14  -0.04    -0.09   0.26  -0.09     0.04   0.02   0.06
    17   1    -0.17   0.08  -0.10     0.38  -0.28   0.37     0.07  -0.06   0.06
    18   1    -0.07  -0.11  -0.01     0.10   0.16   0.04    -0.03   0.14  -0.04
    19   1     0.09  -0.17   0.04    -0.00   0.14   0.17    -0.09   0.15  -0.04
                     25                     26                     27
                      A                      A                      A
 Frequencies --   1124.3289              1143.2581              1162.4554
 Red. masses --      2.1731                 9.9958                 3.2573
 Frc consts  --      1.6186                 7.6976                 2.5933
 IR Inten    --     16.7116               440.2688               292.3857
 Dip. str.   --     59.2970              1536.3177              1003.4304
 Rot. str.   --     21.3788                -5.5525               100.8870
 E-M angle   --     77.7128                90.4243                80.3465
  Atom  AN      X      Y      Z        X      Y      Z        X      Y      Z
     1   5    -0.05   0.08   0.01    -0.11   0.13   0.80    -0.17   0.30  -0.11
     2   9     0.01  -0.01   0.01    -0.08   0.05  -0.18     0.05  -0.04   0.07
     3   9     0.01  -0.01  -0.01     0.12  -0.05  -0.22     0.02  -0.01  -0.01
     4   9     0.01  -0.03  -0.00     0.02  -0.07  -0.04     0.03  -0.11  -0.00
     5   8    -0.03   0.02  -0.02     0.01  -0.03  -0.01    -0.01  -0.02   0.05
     6   6     0.03  -0.02  -0.09    -0.03   0.02   0.01     0.01  -0.03  -0.07
     7   6     0.01   0.01   0.08     0.01  -0.01  -0.01     0.01   0.02   0.06
     8   6     0.11  -0.06   0.18     0.03   0.03  -0.06     0.06   0.04  -0.13
     9   6    -0.08  -0.02  -0.16    -0.03  -0.01   0.04    -0.04  -0.02   0.10
    10   1    -0.06   0.19  -0.16    -0.01   0.00   0.02    -0.01   0.16  -0.14
    11   1     0.16  -0.04   0.10    -0.07   0.03  -0.03     0.04  -0.02   0.08
    12   1     0.04  -0.07  -0.12     0.03   0.03  -0.01     0.01  -0.08  -0.09
    13   1    -0.26  -0.04   0.18     0.03   0.03  -0.03    -0.20  -0.06   0.15
    14   1    -0.08   0.00  -0.09    -0.01   0.00   0.02    -0.03   0.01  -0.11
    15   1     0.20   0.07   0.22    -0.10  -0.14  -0.10    -0.26  -0.28  -0.24
    16   1     0.13  -0.10   0.07     0.01   0.12   0.22    -0.01   0.26   0.27
    17   1     0.08  -0.13   0.20     0.12   0.00  -0.04     0.10   0.06  -0.18
    18   1    -0.29   0.44  -0.23     0.13  -0.09   0.09     0.33  -0.20   0.21
    19   1    -0.17   0.33   0.01    -0.06   0.05  -0.16    -0.09   0.06  -0.24
                     28                     29                     30
                      A                      A                      A
 Frequencies --   1192.7173              1207.2140              1323.7737
 Red. masses --      2.4224                 1.8396                 1.1018
 Frc consts  --      2.0304                 1.5796                 1.1375
 IR Inten    --    280.6546                22.7702                 9.4832
 Dip. str.   --    938.7328                75.2470                28.5792
 Rot. str.   --    -10.0935                 8.7381                 9.2699
 E-M angle   --     92.7235                85.3406                73.2382
  Atom  AN      X      Y      Z        X      Y      Z        X      Y      Z
     1   5    -0.12   0.20  -0.01     0.00   0.00  -0.03     0.00  -0.01  -0.00
     2   9     0.02  -0.02   0.03     0.01  -0.00   0.01     0.00   0.00   0.00
     3   9     0.01  -0.01  -0.02     0.00   0.00   0.00     0.00   0.00   0.00
     4   9     0.02  -0.06  -0.00     0.00   0.00   0.00     0.00   0.00   0.00
     5   8     0.07  -0.08  -0.03    -0.07  -0.05  -0.03    -0.02  -0.03  -0.02
     6   6     0.00   0.09   0.03     0.07   0.13   0.07    -0.01   0.00   0.01
     7   6    -0.02  -0.06  -0.02    -0.04  -0.11  -0.04     0.01   0.04   0.04
     8   6    -0.14   0.01   0.07     0.10   0.05   0.02    -0.00   0.04   0.00
     9   6     0.11   0.02  -0.04    -0.08  -0.04  -0.01    -0.01  -0.02  -0.01
    10   1     0.06  -0.16   0.12     0.04  -0.27   0.24     0.72  -0.16  -0.08
    11   1    -0.13   0.10  -0.23    -0.00   0.11  -0.38    -0.54   0.13   0.01
    12   1     0.06   0.13   0.05     0.09   0.23   0.10     0.01  -0.04  -0.07
    13   1     0.10   0.12  -0.13     0.18   0.19  -0.22    -0.08  -0.04   0.10
    14   1    -0.11  -0.01   0.18    -0.20  -0.02   0.36     0.10   0.00  -0.18
    15   1     0.19   0.28   0.18    -0.05  -0.19  -0.04     0.04  -0.13   0.01
    16   1    -0.11  -0.15  -0.37     0.14  -0.01   0.24     0.08  -0.19   0.02
    17   1    -0.24  -0.00   0.11     0.18  -0.06   0.00     0.04  -0.03   0.02
    18   1    -0.25   0.01  -0.13     0.12   0.13   0.03     0.05   0.04   0.01
    19   1     0.20  -0.19   0.32    -0.16   0.23  -0.14    -0.02   0.03   0.03
                     31                     32                     33
                      A                      A                      A
 Frequencies --   1330.6611              1383.9642              1395.3402
 Red. masses --      1.0995                 1.2028                 1.2249
 Frc consts  --      1.1471                 1.3574                 1.4052
 IR Inten    --      3.4952                 1.3842                 8.0771
 Dip. str.   --     10.4788                 3.9900                23.0932
 Rot. str.   --      8.2026                 0.4807                -7.5229
 E-M angle   --     74.1089                86.2395               109.0521
  Atom  AN      X      Y      Z        X      Y      Z        X      Y      Z
     1   5    -0.00   0.01  -0.00    -0.00   0.01   0.00    -0.01   0.00  -0.00
     2   9    -0.00  -0.00   0.00    -0.00  -0.00   0.00     0.00  -0.00   0.00
     3   9    -0.00  -0.00   0.00    -0.00  -0.00  -0.00     0.00  -0.00  -0.00
     4   9     0.00  -0.00   0.00    -0.00  -0.01  -0.00     0.00  -0.00   0.00
     5   8     0.04  -0.00  -0.02     0.00   0.04   0.00     0.01   0.01   0.01
     6   6    -0.00   0.01  -0.01    -0.07   0.01   0.02     0.02  -0.01  -0.01
     7   6    -0.01  -0.00   0.00    -0.05  -0.03   0.07     0.03   0.01  -0.04
     8   6     0.02  -0.03  -0.00    -0.01   0.01  -0.01    -0.01   0.02  -0.01
     9   6    -0.05  -0.00   0.05    -0.03   0.02  -0.02    -0.08   0.06  -0.07
    10   1    -0.04   0.00  -0.00     0.29  -0.02  -0.06    -0.15  -0.02   0.04
    11   1    -0.05   0.02   0.03     0.55  -0.15  -0.10    -0.06   0.02   0.09
    12   1     0.00   0.02   0.00     0.20   0.12  -0.34    -0.10  -0.05   0.21
    13   1     0.00   0.02  -0.01     0.32   0.15  -0.12    -0.19  -0.04   0.05
    14   1     0.01  -0.01  -0.02     0.19  -0.11  -0.23    -0.13   0.06   0.12
    15   1    -0.25   0.74  -0.04     0.03  -0.11  -0.00     0.14  -0.12   0.04
    16   1     0.20  -0.51   0.07     0.07  -0.21  -0.01     0.10  -0.25   0.11
    17   1     0.04   0.03  -0.08     0.11  -0.05   0.14     0.32  -0.14   0.41
    18   1     0.11  -0.07   0.09     0.12  -0.13   0.03     0.33  -0.34   0.06
    19   1    -0.09   0.06  -0.18     0.03  -0.12   0.08     0.07  -0.32   0.26
                     34                     35                     36
                      A                      A                      A
 Frequencies --   1415.9850              1437.3460              1458.7673
 Red. masses --      1.2852                 1.2655                 1.0406
 Frc consts  --      1.5183                 1.5404                 1.3047
 IR Inten    --     31.3827                10.6844                 7.9776
 Dip. str.   --     88.4177                29.6548                21.8169
 Rot. str.   --      6.6623                -2.8118                18.0448
 E-M angle   --     77.3065               102.4764                46.5903
  Atom  AN      X      Y      Z        X      Y      Z        X      Y      Z
     1   5     0.00   0.01   0.00     0.02   0.00  -0.01    -0.01   0.01  -0.00
     2   9    -0.00  -0.00  -0.00    -0.00  -0.00  -0.00     0.00  -0.00   0.00
     3   9    -0.00  -0.00   0.00    -0.00   0.00   0.00     0.00  -0.00  -0.00
     4   9    -0.00  -0.00  -0.00    -0.00  -0.00   0.00     0.00  -0.00  -0.00
     5   8     0.00   0.03  -0.01    -0.03  -0.03  -0.03     0.00  -0.00  -0.00
     6   6    -0.09   0.00   0.04    -0.03   0.01   0.03     0.01   0.01   0.00
     7   6     0.10  -0.02  -0.05     0.02   0.00   0.00     0.01   0.02   0.01
     8   6    -0.01   0.00  -0.01     0.07  -0.07   0.04    -0.03   0.00  -0.00
     9   6     0.02  -0.02   0.02    -0.02   0.07  -0.01    -0.02  -0.01   0.02
    10   1     0.37  -0.10  -0.02     0.27   0.05  -0.06    -0.03  -0.05   0.04
    11   1     0.47  -0.15  -0.03    -0.01  -0.01  -0.19     0.00   0.02   0.02
    12   1    -0.15  -0.11   0.42    -0.02  -0.07  -0.00    -0.13  -0.37  -0.17
    13   1    -0.39   0.18   0.00    -0.00   0.03  -0.01     0.28  -0.07  -0.03
    14   1    -0.34   0.09  -0.01    -0.09   0.02  -0.05    -0.32   0.08  -0.06
    15   1     0.01  -0.03  -0.01    -0.18   0.36  -0.02     0.15   0.01   0.06
    16   1     0.03  -0.13  -0.01    -0.17   0.57  -0.03    -0.01  -0.05   0.09
    17   1    -0.07   0.03  -0.12     0.22  -0.04   0.24     0.42   0.07  -0.31
    18   1    -0.06   0.10  -0.01    -0.15  -0.29  -0.04    -0.06   0.36  -0.01
    19   1    -0.02   0.08  -0.06     0.06  -0.26  -0.20     0.09  -0.38  -0.06
                     37                     38                     39
                      A                      A                      A
 Frequencies --   1459.6163              1470.8678              1473.2818
 Red. masses --      1.0380                 1.0915                 1.0763
 Frc consts  --      1.3029                 1.3913                 1.3764
 IR Inten    --      8.1529                 1.7946                 1.7137
 Dip. str.   --     22.2835                 4.8674                 4.6405
 Rot. str.   --    -18.7442                 0.8189                 0.1585
 E-M angle   --    147.7356                53.4841                86.7054
  Atom  AN      X      Y      Z        X      Y      Z        X      Y      Z
     1   5    -0.00   0.00  -0.00     0.00  -0.00   0.01     0.00   0.00  -0.00
     2   9     0.00  -0.00   0.00    -0.00   0.00  -0.00    -0.00  -0.00  -0.00
     3   9     0.00  -0.00  -0.00     0.00  -0.00  -0.00    -0.00  -0.00   0.00
     4   9     0.00  -0.00   0.00    -0.00   0.00  -0.00    -0.00  -0.00   0.00
     5   8     0.00   0.00   0.00    -0.00  -0.00  -0.00     0.00   0.00  -0.00
     6   6    -0.01  -0.02  -0.01    -0.01  -0.00   0.02    -0.05   0.01   0.02
     7   6    -0.01  -0.02  -0.02     0.01   0.00  -0.00     0.01   0.03  -0.04
     8   6    -0.01  -0.00   0.02     0.03  -0.05   0.03    -0.01   0.00  -0.01
     9   6    -0.02   0.00   0.02    -0.04  -0.00  -0.04     0.00  -0.00   0.01
    10   1     0.02   0.05  -0.05     0.05   0.14  -0.06     0.16   0.11  -0.08
    11   1    -0.01  -0.02  -0.00    -0.01  -0.02  -0.17     0.14  -0.05  -0.18
    12   1     0.17   0.45   0.18    -0.02  -0.07  -0.02     0.09  -0.00  -0.26
    13   1    -0.33   0.05   0.05     0.03  -0.04   0.01    -0.01  -0.60   0.24
    14   1     0.41  -0.09   0.10    -0.07   0.02   0.03     0.06   0.08   0.60
    15   1    -0.06  -0.04   0.00    -0.27   0.07  -0.07     0.08   0.03   0.02
    16   1    -0.02   0.01  -0.11    -0.06   0.15  -0.25     0.02  -0.07   0.10
    17   1     0.37   0.06  -0.24    -0.11   0.07  -0.22    -0.02  -0.00   0.01
    18   1    -0.06   0.28  -0.01     0.53   0.25   0.12    -0.03  -0.02  -0.00
    19   1     0.09  -0.35  -0.05     0.01   0.03   0.57    -0.01   0.03  -0.04
                     40                     41                     42
                      A                      A                      A
 Frequencies --   1495.6129              1503.6740              3064.2324
 Red. masses --      1.0817                 1.0959                 1.0362
 Frc consts  --      1.4256                 1.4599                 5.7325
 IR Inten    --     17.1703                19.9619                12.3283
 Dip. str.   --     45.8002                52.9608                16.0505
 Rot. str.   --     27.0416               -12.3667                -3.2973
 E-M angle   --     35.8640               111.2954                97.2604
  Atom  AN      X      Y      Z        X      Y      Z        X      Y      Z
     1   5     0.01   0.00  -0.00    -0.01  -0.01  -0.00     0.00   0.00   0.00
     2   9    -0.00   0.00  -0.00     0.00   0.00   0.00    -0.00   0.00  -0.00
     3   9    -0.00   0.00   0.00     0.00   0.00  -0.00    -0.00  -0.00   0.00
     4   9    -0.00   0.00   0.00    -0.00   0.00   0.00    -0.00  -0.00  -0.00
     5   8    -0.01  -0.02  -0.01     0.02  -0.00   0.01    -0.00   0.00   0.00
     6   6    -0.01  -0.01   0.01     0.01  -0.04   0.06     0.00   0.00  -0.00
     7   6    -0.00  -0.01   0.01     0.01  -0.01   0.00    -0.04  -0.01   0.03
     8   6    -0.04  -0.03  -0.06    -0.01   0.03  -0.00     0.00   0.00   0.00
     9   6    -0.00  -0.01  -0.01     0.01  -0.01   0.01    -0.00   0.00  -0.00
    10   1     0.05   0.06  -0.04    -0.08   0.64  -0.22    -0.00  -0.00  -0.01
    11   1    -0.01  -0.01  -0.07    -0.18  -0.05  -0.60    -0.00  -0.00   0.00
    12   1     0.04   0.12   0.06    -0.05  -0.04   0.08     0.46  -0.26   0.19
    13   1    -0.07   0.10  -0.03     0.01   0.13  -0.06    -0.14  -0.22  -0.48
    14   1     0.11  -0.04  -0.08    -0.06  -0.00  -0.12     0.12   0.60  -0.06
    15   1     0.52   0.32   0.15     0.04  -0.12   0.01     0.01   0.00  -0.02
    16   1    -0.09   0.22   0.62     0.07  -0.18   0.00    -0.02  -0.01   0.00
    17   1    -0.09   0.02  -0.08     0.03  -0.02   0.03    -0.00  -0.00  -0.00
    18   1     0.17   0.08   0.04    -0.10  -0.02  -0.02    -0.00   0.00   0.00
    19   1    -0.00   0.05   0.19    -0.01   0.01  -0.11     0.00   0.00  -0.00
                     43                     44                     45
                      A                      A                      A
 Frequencies --   3072.4860              3101.3783              3109.2855
 Red. masses --      1.0372                 1.0603                 1.0692
 Frc consts  --      5.7690                 6.0087                 6.0903
 IR Inten    --     13.4328                13.4446                31.2347
 Dip. str.   --     17.4415                17.2943                40.0760
 Rot. str.   --     -0.0311                 3.7377                 2.0600
 E-M angle   --     90.1633                82.2182                87.1191
  Atom  AN      X      Y      Z        X      Y      Z        X      Y      Z
     1   5     0.00   0.00   0.00     0.00   0.00  -0.00     0.00   0.00  -0.00
     2   9    -0.00   0.00  -0.00    -0.00  -0.00  -0.00    -0.00  -0.00  -0.00
     3   9    -0.00   0.00  -0.00    -0.00   0.00   0.00    -0.00   0.00   0.00
     4   9    -0.00  -0.00  -0.00    -0.00  -0.00  -0.00     0.00  -0.00   0.00
     5   8     0.00   0.00   0.00     0.00  -0.00  -0.00    -0.00   0.00  -0.00
     6   6    -0.00  -0.00  -0.00     0.00   0.00   0.02    -0.01  -0.00  -0.07
     7   6    -0.00  -0.00   0.00    -0.00   0.00  -0.00     0.01   0.00   0.01
     8   6     0.00   0.00  -0.00    -0.02  -0.01  -0.06    -0.00  -0.00  -0.02
     9   6     0.02  -0.04   0.03     0.00   0.00   0.01     0.00   0.00   0.00
    10   1     0.00   0.00   0.00    -0.04  -0.08  -0.18     0.19   0.35   0.82
    11   1     0.00   0.00  -0.00     0.02   0.07  -0.00    -0.07  -0.31   0.02
    12   1     0.00  -0.00   0.00     0.03  -0.02   0.01    -0.06   0.04  -0.03
    13   1    -0.00  -0.00  -0.00    -0.00  -0.00  -0.00    -0.03  -0.04  -0.09
    14   1     0.00   0.00  -0.00     0.00   0.01  -0.00    -0.00  -0.01   0.01
    15   1     0.01  -0.00  -0.01    -0.25  -0.04   0.75    -0.06  -0.01   0.19
    16   1    -0.02  -0.01   0.00     0.53   0.20  -0.04     0.08   0.03  -0.01
    17   1     0.05   0.63   0.22    -0.01  -0.05  -0.02    -0.00  -0.01  -0.01
    18   1     0.16  -0.03  -0.55     0.02  -0.00  -0.08     0.01  -0.00  -0.02
    19   1    -0.44  -0.14   0.04    -0.03  -0.01   0.01    -0.00  -0.00   0.00
                     46                     47                     48
                      A                      A                      A
 Frequencies --   3148.5393              3156.5194              3159.2909
 Red. masses --      1.1026                 1.1009                 1.1027
 Frc consts  --      6.4401                 6.4629                 6.4846
 IR Inten    --     22.0350                18.8400                26.7757
 Dip. str.   --     27.9198                23.8111                33.8110
 Rot. str.   --    -13.3268                10.4709                13.5334
 E-M angle   --     97.9997                80.4658                81.9417
  Atom  AN      X      Y      Z        X      Y      Z        X      Y      Z
     1   5    -0.00  -0.00  -0.00    -0.00   0.00  -0.00     0.00   0.00  -0.00
     2   9    -0.00   0.00  -0.00    -0.00  -0.00   0.00    -0.00  -0.00   0.00
     3   9     0.00   0.00   0.00    -0.00  -0.00   0.00    -0.00   0.00   0.00
     4   9     0.00   0.00   0.00     0.00  -0.00   0.00     0.00   0.00   0.00
     5   8    -0.00   0.00   0.00    -0.00   0.00   0.00     0.00  -0.00   0.00
     6   6     0.00   0.01   0.00     0.00   0.00   0.00    -0.00   0.01  -0.01
     7   6     0.02  -0.09   0.01     0.00  -0.00   0.00    -0.06  -0.02  -0.07
     8   6     0.00   0.00  -0.00    -0.01  -0.01  -0.00     0.00   0.00  -0.00
     9   6    -0.00   0.00   0.00    -0.00  -0.06  -0.07    -0.00  -0.01  -0.00
    10   1    -0.01  -0.02  -0.05     0.00  -0.00  -0.00     0.02   0.04   0.08
    11   1    -0.02  -0.10   0.01    -0.00  -0.00   0.00    -0.03  -0.12   0.01
    12   1    -0.51   0.27  -0.21    -0.04   0.02  -0.02     0.45  -0.26   0.17
    13   1     0.06   0.07   0.20    -0.01  -0.02  -0.04     0.19   0.31   0.70
    14   1     0.16   0.72  -0.08     0.00   0.01  -0.00     0.03   0.20  -0.03
    15   1    -0.01  -0.00   0.04    -0.00  -0.00   0.01    -0.01  -0.00   0.04
    16   1    -0.04  -0.01   0.00     0.15   0.06  -0.01    -0.03  -0.01   0.00
    17   1    -0.00  -0.02  -0.01     0.05   0.66   0.21     0.00   0.05   0.02
    18   1     0.01  -0.00  -0.02    -0.19   0.01   0.64    -0.01  -0.00   0.03
    19   1     0.01   0.00  -0.00     0.18   0.04  -0.03     0.04   0.01  -0.00
                     49                     50                     51
                      A                      A                      A
 Frequencies --   3165.1221              3186.3716              3216.9824
 Red. masses --      1.1063                 1.1060                 1.1009
 Frc consts  --      6.5300                 6.6161                 6.7127
 IR Inten    --      1.9248                24.3249                 4.7973
 Dip. str.   --      2.4261                30.4552                 5.9492
 Rot. str.   --     -5.2791                -0.8731                 0.9209
 E-M angle   --    111.3740                90.7711                80.7141
  Atom  AN      X      Y      Z        X      Y      Z        X      Y      Z
     1   5     0.00   0.00   0.00    -0.00   0.00   0.00     0.00  -0.00   0.00
     2   9    -0.00   0.00   0.00     0.00  -0.00  -0.00     0.00   0.00   0.00
     3   9    -0.00  -0.00  -0.00     0.00  -0.00  -0.00     0.00   0.00  -0.00
     4   9     0.00   0.00   0.00     0.00  -0.00   0.00    -0.00  -0.00  -0.00
     5   8     0.00  -0.00   0.00     0.00   0.00  -0.00     0.00   0.00  -0.00
     6   6     0.00   0.00  -0.00     0.00   0.00  -0.00    -0.02  -0.09  -0.02
     7   6    -0.00  -0.01  -0.00    -0.00  -0.00   0.00    -0.00  -0.01  -0.01
     8   6    -0.07  -0.02   0.04    -0.04  -0.01   0.03    -0.00  -0.00   0.00
     9   6     0.04   0.02  -0.01    -0.07  -0.03   0.04    -0.00  -0.00   0.00
    10   1     0.01   0.02   0.03     0.00   0.00   0.01     0.06   0.12   0.29
    11   1    -0.01  -0.05   0.00    -0.01  -0.03   0.00     0.22   0.90  -0.08
    12   1     0.01  -0.00   0.00    -0.00   0.00  -0.00    -0.02   0.01  -0.01
    13   1     0.01   0.02   0.05     0.00   0.00   0.00     0.02   0.03   0.08
    14   1     0.01   0.06  -0.01     0.00   0.01  -0.00     0.03   0.11  -0.02
    15   1     0.14   0.02  -0.46     0.09   0.02  -0.29     0.00   0.00  -0.01
    16   1     0.64   0.23  -0.03     0.40   0.14  -0.02     0.02   0.01  -0.00
    17   1    -0.01  -0.17  -0.06     0.00   0.12   0.05    -0.00   0.00  -0.00
    18   1    -0.04   0.01   0.16     0.11  -0.02  -0.42     0.00  -0.00  -0.00
    19   1    -0.46  -0.14   0.04     0.68   0.21  -0.05     0.01   0.00  -0.00

 -------------------
 - Thermochemistry -
 -------------------
 Temperature   298.150 Kelvin.  Pressure   1.00000 Atm.
 Atom     1 has atomic number  5 and mass  11.00931
 Atom     2 has atomic number  9 and mass  18.99840
 Atom     3 has atomic number  9 and mass  18.99840
 Atom     4 has atomic number  9 and mass  18.99840
 Atom     5 has atomic number  8 and mass  15.99491
 Atom     6 has atomic number  6 and mass  12.00000
 Atom     7 has atomic number  6 and mass  12.00000
 Atom     8 has atomic number  6 and mass  12.00000
 Atom     9 has atomic number  6 and mass  12.00000
 Atom    10 has atomic number  1 and mass   1.00783
 Atom    11 has atomic number  1 and mass   1.00783
 Atom    12 has atomic number  1 and mass   1.00783
 Atom    13 has atomic number  1 and mass   1.00783
 Atom    14 has atomic number  1 and mass   1.00783
 Atom    15 has atomic number  1 and mass   1.00783
 Atom    16 has atomic number  1 and mass   1.00783
 Atom    17 has atomic number  1 and mass   1.00783
 Atom    18 has atomic number  1 and mass   1.00783
 Atom    19 has atomic number  1 and mass   1.00783
 Molecular mass:   142.07768 amu.
 Principal axes and moments of inertia in atomic units:
                           1         2         3
     Eigenvalues --  1030.247521274.531891794.24803
           X            0.98942  -0.14502  -0.00372
           Y            0.14500   0.98941  -0.00589
           Z            0.00453   0.00529   0.99998
 This molecule is an asymmetric top.
 Rotational symmetry number  1.
 Warning -- assumption of classical behavior for rotation
           may cause significant error
 Rotational temperatures (Kelvin)      0.08407     0.06796     0.04827
 Rotational constants (GHZ):           1.75175     1.41600     1.00585
 Zero-point vibrational energy     398276.3 (Joules/Mol)
                                   95.19032 (Kcal/Mol)
 Warning -- explicit consideration of  15 degrees of freedom as
           vibrations may cause significant error
 Vibrational temperatures:     30.73    72.33   106.77   242.78   293.41
          (Kelvin)            314.62   377.03   395.96   435.62   463.12
                              540.27   597.97   679.29   707.25   768.39
                              900.62  1120.33  1169.04  1182.60  1259.26
                             1333.76  1486.34  1509.25  1605.94  1617.66
                             1644.89  1672.51  1716.05  1736.91  1904.62
                             1914.52  1991.22  2007.58  2037.29  2068.02
                             2098.84  2100.06  2116.25  2119.72  2151.85
                             2163.45  4408.75  4420.62  4462.19  4473.57
                             4530.05  4541.53  4545.52  4553.90  4584.48
                             4628.52
 
 Zero-point correction=                           0.151695 (Hartree/Particle)
 Thermal correction to Energy=                    0.162529
 Thermal correction to Enthalpy=                  0.163473
 Thermal correction to Gibbs Free Energy=         0.114204
 Sum of electronic and zero-point Energies=           -557.997456
 Sum of electronic and thermal Energies=              -557.986623
 Sum of electronic and thermal Enthalpies=            -557.985678
 Sum of electronic and thermal Free Energies=         -558.034947
 
                     E (Thermal)             CV                S
                      KCal/Mol        Cal/Mol-Kelvin    Cal/Mol-Kelvin
 Total                  101.988             38.055            103.695
 Electronic               0.000              0.000              0.000
 Translational            0.889              2.981             40.765
 Rotational               0.889              2.981             29.245
 Vibrational            100.211             32.094             33.685
 Vibration     1          0.593              1.985              6.504
 Vibration     2          0.595              1.977              4.807
 Vibration     3          0.599              1.966              4.038
 Vibration     4          0.625              1.881              2.449
 Vibration     5          0.640              1.834              2.097
 Vibration     6          0.646              1.813              1.970
 Vibration     7          0.669              1.742              1.648
 Vibration     8          0.677              1.719              1.563
 Vibration     9          0.694              1.668              1.402
 Vibration    10          0.707              1.632              1.301
 Vibration    11          0.746              1.522              1.057
 Vibration    12          0.779              1.436              0.907
 Vibration    13          0.829              1.312              0.732
 Vibration    14          0.847              1.269              0.680
 Vibration    15          0.889              1.175              0.578
                       Q            Log10(Q)             Ln(Q)
 Total Bot       0.294947D-52        -52.530256       -120.955385
 Total V=0       0.175687D+18         17.244739         39.707478
 Vib (Bot)       0.806433D-66        -66.093432       -152.185751
 Vib (Bot)    1  0.969698D+01          0.986637          2.271815
 Vib (Bot)    2  0.411225D+01          0.614080          1.413971
 Vib (Bot)    3  0.277748D+01          0.443650          1.021543
 Vib (Bot)    4  0.119478D+01          0.077286          0.177958
 Vib (Bot)    5  0.976297D+00         -0.010418         -0.023989
 Vib (Bot)    6  0.905071D+00         -0.043317         -0.099742
 Vib (Bot)    7  0.740459D+00         -0.130499         -0.300486
 Vib (Bot)    8  0.700371D+00         -0.154672         -0.356146
 Vib (Bot)    9  0.627142D+00         -0.202634         -0.466583
 Vib (Bot)   10  0.583341D+00         -0.234077         -0.538983
 Vib (Bot)   11  0.483002D+00         -0.316051         -0.727734
 Vib (Bot)   12  0.423900D+00         -0.372737         -0.858258
 Vib (Bot)   13  0.356617D+00         -0.447798         -1.031093
 Vib (Bot)   14  0.336843D+00         -0.472572         -1.088138
 Vib (Bot)   15  0.298328D+00         -0.525307         -1.209563
 Vib (V=0)       0.480356D+04          3.681563          8.477112
 Vib (V=0)    1  0.102099D+02          1.009020          2.323354
 Vib (V=0)    2  0.464254D+01          0.666755          1.535261
 Vib (V=0)    3  0.332212D+01          0.521416          1.200604
 Vib (V=0)    4  0.179518D+01          0.254108          0.585105
 Vib (V=0)    5  0.159688D+01          0.203273          0.468054
 Vib (V=0)    6  0.153400D+01          0.185825          0.427878
 Vib (V=0)    7  0.139346D+01          0.144096          0.331793
 Vib (V=0)    8  0.136053D+01          0.133709          0.307877
 Vib (V=0)    9  0.130206D+01          0.114632          0.263951
 Vib (V=0)   10  0.126830D+01          0.103222          0.237679
 Vib (V=0)   11  0.119519D+01          0.077437          0.178306
 Vib (V=0)   12  0.115551D+01          0.062773          0.144540
 Vib (V=0)   13  0.111415D+01          0.046942          0.108089
 Vib (V=0)   14  0.110288D+01          0.042528          0.097924
 Vib (V=0)   15  0.108224D+01          0.034322          0.079030
 Electronic      0.100000D+01          0.000000          0.000000
 Translational   0.665645D+08          7.823243         18.013682
 Rotational      0.549456D+06          5.739933         13.216684
 ***** Axes restored to original set *****
 -------------------------------------------------------------------
 Center     Atomic                   Forces (Hartrees/Bohr)
 Number     Number              X              Y              Z
 -------------------------------------------------------------------
      1        5          -0.000012019   -0.000000631    0.000014733
      2        9          -0.000001439    0.000001821   -0.000016274
      3        9          -0.000007931   -0.000000878    0.000008394
      4        9          -0.000008976   -0.000006232    0.000005809
      5        8          -0.000021275   -0.000001517   -0.000062443
      6        6           0.000011802   -0.000037285    0.000014407
      7        6          -0.000007632    0.000023249   -0.000002548
      8        6           0.000054599    0.000037320    0.000066974
      9        6          -0.000013596   -0.000019205   -0.000007121
     10        1           0.000005047    0.000003298    0.000002136
     11        1          -0.000003580   -0.000001451   -0.000011308
     12        1           0.000008006   -0.000006298    0.000000014
     13        1          -0.000006357   -0.000001019    0.000001885
     14        1           0.000003087   -0.000018753    0.000000131
     15        1          -0.000004828    0.000001657   -0.000007215
     16        1          -0.000007751    0.000006905   -0.000009131
     17        1           0.000001902    0.000011727   -0.000003202
     18        1           0.000003451    0.000000632   -0.000002769
     19        1           0.000007489    0.000006661    0.000007527
 -------------------------------------------------------------------
 Cartesian Forces:  Max     0.000066974 RMS     0.000017953
 FormGI is forming the generalized inverse of G from B-inverse, IUseBI=4.

 GradGradGradGradGradGradGradGradGradGradGradGradGradGradGradGradGradGrad
 Berny optimization.
 Internal  Forces:  Max     0.000079271 RMS     0.000011867
 Search for a local minimum.
 Step number   1 out of a maximum of    2
 All quantities printed in internal units (Hartrees-Bohrs-Radians)
 Second derivative matrix not updated -- analytic derivatives used.
 ITU=  0
     Eigenvalues ---    0.00061   0.00148   0.00246   0.00285   0.00338
     Eigenvalues ---    0.00988   0.04088   0.04147   0.04153   0.04267
     Eigenvalues ---    0.04363   0.04370   0.05010   0.05409   0.06887
     Eigenvalues ---    0.07837   0.08870   0.09958   0.10133   0.11866
     Eigenvalues ---    0.12216   0.12398   0.12478   0.12946   0.13588
     Eigenvalues ---    0.15381   0.16166   0.16412   0.18538   0.19852
     Eigenvalues ---    0.22716   0.24910   0.26776   0.29862   0.30622
     Eigenvalues ---    0.31391   0.31989   0.33754   0.34249   0.34460
     Eigenvalues ---    0.34557   0.34682   0.34886   0.34917   0.35060
     Eigenvalues ---    0.35125   0.35467   0.35719   0.37578   0.39195
     Eigenvalues ---    0.41885
 Angle between quadratic step and forces=  78.63 degrees.
 Linear search not attempted -- first point.
 Iteration  1 RMS(Cart)=  0.00104593 RMS(Int)=  0.00000077
 Iteration  2 RMS(Cart)=  0.00000080 RMS(Int)=  0.00000001
 Variable       Old X    -DE/DX   Delta X   Delta X   Delta X     New X
                                 (Linear)    (Quad)   (Total)
    R1        2.61239   0.00001   0.00000   0.00006   0.00006   2.61245
    R2        2.62242   0.00001   0.00000   0.00000   0.00000   2.62242
    R3        2.61539   0.00001   0.00000   0.00001   0.00001   2.61540
    R4        3.03423   0.00002   0.00000   0.00017   0.00017   3.03441
    R5        2.77315   0.00004   0.00000   0.00012   0.00012   2.77326
    R6        2.77302   0.00008   0.00000   0.00031   0.00031   2.77333
    R7        2.85541  -0.00000   0.00000  -0.00002  -0.00002   2.85539
    R8        2.07117   0.00000   0.00000   0.00000   0.00000   2.07117
    R9        2.05918   0.00001   0.00000   0.00001   0.00001   2.05919
   R10        2.07387   0.00001   0.00000   0.00003   0.00003   2.07390
   R11        2.07158   0.00000   0.00000  -0.00000  -0.00000   2.07157
   R12        2.07347  -0.00000   0.00000  -0.00001  -0.00001   2.07346
   R13        2.85297  -0.00000   0.00000  -0.00003  -0.00003   2.85294
   R14        2.07184  -0.00000   0.00000  -0.00004  -0.00004   2.07180
   R15        2.06718  -0.00001   0.00000  -0.00004  -0.00004   2.06714
   R16        2.07405   0.00001   0.00000   0.00002   0.00002   2.07407
   R17        2.07080   0.00000   0.00000   0.00001   0.00001   2.07081
   R18        2.06692  -0.00000   0.00000   0.00001   0.00001   2.06693
    A1        1.97478   0.00000   0.00000   0.00004   0.00004   1.97482
    A2        1.96073  -0.00000   0.00000   0.00002   0.00002   1.96075
    A3        1.84278  -0.00000   0.00000  -0.00017  -0.00017   1.84261
    A4        1.97579  -0.00001   0.00000  -0.00009  -0.00009   1.97570
    A5        1.85004   0.00001   0.00000   0.00004   0.00004   1.85008
    A6        1.84570   0.00000   0.00000   0.00016   0.00016   1.84586
    A7        2.07942  -0.00002   0.00000   0.00019   0.00019   2.07961
    A8        2.05005   0.00001   0.00000  -0.00025  -0.00025   2.04980
    A9        1.95930   0.00001   0.00000   0.00008   0.00008   1.95938
   A10        1.91705   0.00002   0.00000   0.00005   0.00005   1.91710
   A11        1.86766  -0.00001   0.00000   0.00000   0.00000   1.86767
   A12        1.85044  -0.00001   0.00000  -0.00012  -0.00012   1.85032
   A13        1.96990   0.00000   0.00000   0.00009   0.00009   1.96999
   A14        1.95109  -0.00001   0.00000  -0.00014  -0.00014   1.95095
   A15        1.90205   0.00001   0.00000   0.00011   0.00011   1.90216
   A16        1.89535   0.00000   0.00000  -0.00005  -0.00005   1.89530
   A17        1.92833  -0.00001   0.00000  -0.00006  -0.00006   1.92827
   A18        1.95447   0.00002   0.00000   0.00021   0.00021   1.95468
   A19        1.89568   0.00000   0.00000  -0.00005  -0.00005   1.89563
   A20        1.88544  -0.00001   0.00000  -0.00016  -0.00016   1.88528
   A21        1.90322   0.00000   0.00000   0.00010   0.00010   1.90332
   A22        1.95728   0.00001   0.00000  -0.00022  -0.00022   1.95706
   A23        1.86678  -0.00000   0.00000  -0.00005  -0.00005   1.86672
   A24        1.83497  -0.00001   0.00000  -0.00007  -0.00007   1.83489
   A25        1.96073   0.00000   0.00000   0.00013   0.00013   1.96086
   A26        1.92844  -0.00001   0.00000   0.00004   0.00004   1.92848
   A27        1.91038   0.00001   0.00000   0.00018   0.00018   1.91055
   A28        1.87154   0.00001   0.00000   0.00012   0.00012   1.87166
   A29        1.93633  -0.00000   0.00000  -0.00002  -0.00002   1.93632
   A30        1.95786   0.00001   0.00000   0.00003   0.00003   1.95790
   A31        1.89589  -0.00001   0.00000  -0.00006  -0.00006   1.89582
   A32        1.89283  -0.00001   0.00000  -0.00016  -0.00016   1.89267
   A33        1.90766   0.00000   0.00000   0.00008   0.00008   1.90774
    D1       -2.48774   0.00001   0.00000   0.00205   0.00205  -2.48569
    D2        1.33235   0.00001   0.00000   0.00200   0.00200   1.33435
    D3        1.69585  -0.00000   0.00000   0.00207   0.00207   1.69791
    D4       -0.76725   0.00000   0.00000   0.00201   0.00201  -0.76523
    D5       -0.40636   0.00000   0.00000   0.00206   0.00206  -0.40429
    D6       -2.86945   0.00001   0.00000   0.00201   0.00201  -2.86744
    D7        2.21873  -0.00001   0.00000   0.00037   0.00037   2.21910
    D8       -1.92039   0.00000   0.00000   0.00051   0.00051  -1.91988
    D9        0.10790   0.00000   0.00000   0.00058   0.00058   0.10848
   D10       -1.56856  -0.00001   0.00000   0.00029   0.00029  -1.56827
   D11        0.57550  -0.00000   0.00000   0.00043   0.00043   0.57593
   D12        2.60379   0.00000   0.00000   0.00050   0.00050   2.60429
   D13       -1.01320  -0.00001   0.00000  -0.00061  -0.00061  -1.01381
   D14        1.14374  -0.00001   0.00000  -0.00063  -0.00063   1.14311
   D15       -3.10945  -0.00001   0.00000  -0.00049  -0.00049  -3.10994
   D16        2.76232   0.00000   0.00000  -0.00071  -0.00071   2.76162
   D17       -1.36392   0.00000   0.00000  -0.00073  -0.00073  -1.36465
   D18        0.66607   0.00001   0.00000  -0.00058  -0.00058   0.66549
   D19        3.14062   0.00001   0.00000   0.00080   0.00080   3.14142
   D20       -1.06517   0.00000   0.00000   0.00067   0.00067  -1.06449
   D21        1.06009   0.00001   0.00000   0.00090   0.00090   1.06100
   D22        1.05812  -0.00000   0.00000   0.00070   0.00070   1.05882
   D23        3.13552  -0.00000   0.00000   0.00058   0.00058   3.13609
   D24       -1.02241   0.00000   0.00000   0.00080   0.00080  -1.02161
   D25       -1.09352  -0.00000   0.00000   0.00060   0.00060  -1.09291
   D26        0.98388  -0.00000   0.00000   0.00047   0.00047   0.98436
   D27        3.10914   0.00000   0.00000   0.00070   0.00070   3.10985
   D28       -3.02725   0.00000   0.00000   0.00022   0.00022  -3.02702
   D29       -0.95948   0.00000   0.00000   0.00021   0.00021  -0.95927
   D30        1.17961   0.00001   0.00000   0.00032   0.00032   1.17994
   D31        1.15262   0.00000   0.00000   0.00036   0.00036   1.15298
   D32       -3.06280  -0.00000   0.00000   0.00035   0.00035  -3.06245
   D33       -0.92371   0.00001   0.00000   0.00046   0.00046  -0.92325
   D34       -0.98629  -0.00000   0.00000   0.00002   0.00002  -0.98627
   D35        1.08148  -0.00000   0.00000   0.00000   0.00000   1.08148
   D36       -3.06262   0.00000   0.00000   0.00012   0.00012  -3.06250
         Item               Value     Threshold  Converged?
 Maximum Force            0.000079     0.000450     YES
 RMS     Force            0.000012     0.000300     YES
 Maximum Displacement     0.004951     0.001800     NO 
 RMS     Displacement     0.001046     0.001200     YES
 Predicted change in Energy=-6.382795D-08
                           ----------------------------
                           ! Non-Optimized Parameters !
                           ! (Angstroms and Degrees)  !
 --------------------------                            --------------------------
 ! Name  Definition              Value          Derivative Info.                !
 --------------------------------------------------------------------------------
 ! R1    R(1,2)                  1.3824         -DE/DX =    0.0                 !
 ! R2    R(1,3)                  1.3877         -DE/DX =    0.0                 !
 ! R3    R(1,4)                  1.384          -DE/DX =    0.0                 !
 ! R4    R(1,5)                  1.6057         -DE/DX =    0.0                 !
 ! R5    R(5,6)                  1.4675         -DE/DX =    0.0                 !
 ! R6    R(5,8)                  1.4676         -DE/DX =    0.0001              !
 ! R7    R(6,7)                  1.511          -DE/DX =    0.0                 !
 ! R8    R(6,10)                 1.096          -DE/DX =    0.0                 !
 ! R9    R(6,11)                 1.0897         -DE/DX =    0.0                 !
 ! R10   R(7,12)                 1.0975         -DE/DX =    0.0                 !
 ! R11   R(7,13)                 1.0962         -DE/DX =    0.0                 !
 ! R12   R(7,14)                 1.0972         -DE/DX =    0.0                 !
 ! R13   R(8,9)                  1.5097         -DE/DX =    0.0                 !
 ! R14   R(8,15)                 1.0964         -DE/DX =    0.0                 !
 ! R15   R(8,16)                 1.0939         -DE/DX =    0.0                 !
 ! R16   R(9,17)                 1.0976         -DE/DX =    0.0                 !
 ! R17   R(9,18)                 1.0958         -DE/DX =    0.0                 !
 ! R18   R(9,19)                 1.0938         -DE/DX =    0.0                 !
 ! A1    A(2,1,3)              113.1489         -DE/DX =    0.0                 !
 ! A2    A(2,1,4)              112.3425         -DE/DX =    0.0                 !
 ! A3    A(2,1,5)              105.5738         -DE/DX =    0.0                 !
 ! A4    A(3,1,4)              113.1994         -DE/DX =    0.0                 !
 ! A5    A(3,1,5)              106.0018         -DE/DX =    0.0                 !
 ! A6    A(4,1,5)              105.7597         -DE/DX =    0.0                 !
 ! A7    A(1,5,6)              119.1527         -DE/DX =    0.0                 !
 ! A8    A(1,5,8)              117.4451         -DE/DX =    0.0                 !
 ! A9    A(6,5,8)              112.2643         -DE/DX =    0.0                 !
 ! A10   A(5,6,7)              109.8419         -DE/DX =    0.0                 !
 ! A11   A(5,6,10)             107.0094         -DE/DX =    0.0                 !
 ! A12   A(5,6,11)             106.0154         -DE/DX =    0.0                 !
 ! A13   A(7,6,10)             112.8721         -DE/DX =    0.0                 !
 ! A14   A(7,6,11)             111.7814         -DE/DX =    0.0                 !
 ! A15   A(10,6,11)            108.9858         -DE/DX =    0.0                 !
 ! A16   A(6,7,12)             108.5925         -DE/DX =    0.0                 !
 ! A17   A(6,7,13)             110.4816         -DE/DX =    0.0                 !
 ! A18   A(6,7,14)             111.9949         -DE/DX =    0.0                 !
 ! A19   A(12,7,13)            108.6116         -DE/DX =    0.0                 !
 ! A20   A(12,7,14)            108.0188         -DE/DX =    0.0                 !
 ! A21   A(13,7,14)            109.0521         -DE/DX =    0.0                 !
 ! A22   A(5,8,9)              112.1311         -DE/DX =    0.0                 !
 ! A23   A(5,8,15)             106.9554         -DE/DX =    0.0                 !
 ! A24   A(5,8,16)             105.1317         -DE/DX =    0.0                 !
 ! A25   A(9,8,15)             112.3488         -DE/DX =    0.0                 !
 ! A26   A(9,8,16)             110.4939         -DE/DX =    0.0                 !
 ! A27   A(15,8,16)            109.4665         -DE/DX =    0.0                 !
 ! A28   A(8,9,17)             107.238          -DE/DX =    0.0                 !
 ! A29   A(8,9,18)             110.9427         -DE/DX =    0.0                 !
 ! A30   A(8,9,19)             112.1792         -DE/DX =    0.0                 !
 ! A31   A(17,9,18)            108.6227         -DE/DX =    0.0                 !
 ! A32   A(17,9,19)            108.4422         -DE/DX =    0.0                 !
 ! A33   A(18,9,19)            109.3052         -DE/DX =    0.0                 !
 ! D1    D(2,1,5,6)           -142.4196         -DE/DX =    0.0                 !
 ! D2    D(2,1,5,8)             76.4526         -DE/DX =    0.0                 !
 ! D3    D(3,1,5,6)             97.2833         -DE/DX =    0.0                 !
 ! D4    D(3,1,5,8)            -43.8446         -DE/DX =    0.0                 !
 ! D5    D(4,1,5,6)            -23.1644         -DE/DX =    0.0                 !
 ! D6    D(4,1,5,8)           -164.2922         -DE/DX =    0.0                 !
 ! D7    D(1,5,6,7)            127.1452         -DE/DX =    0.0                 !
 ! D8    D(1,5,6,10)          -110.0011         -DE/DX =    0.0                 !
 ! D9    D(1,5,6,11)             6.2152         -DE/DX =    0.0                 !
 ! D10   D(8,5,6,7)            -89.8551         -DE/DX =    0.0                 !
 ! D11   D(8,5,6,10)            32.9985         -DE/DX =    0.0                 !
 ! D12   D(8,5,6,11)           149.2148         -DE/DX =    0.0                 !
 ! D13   D(1,5,8,9)            -58.087          -DE/DX =    0.0                 !
 ! D14   D(1,5,8,15)            65.4952         -DE/DX =    0.0                 !
 ! D15   D(1,5,8,16)          -178.1865         -DE/DX =    0.0                 !
 ! D16   D(6,5,8,9)            158.2291         -DE/DX =    0.0                 !
 ! D17   D(6,5,8,15)           -78.1887         -DE/DX =    0.0                 !
 ! D18   D(6,5,8,16)            38.1296         -DE/DX =    0.0                 !
 ! D19   D(5,6,7,12)           179.9903         -DE/DX =    0.0                 !
 ! D20   D(5,6,7,13)           -60.9909         -DE/DX =    0.0                 !
 ! D21   D(5,6,7,14)            60.7906         -DE/DX =    0.0                 !
 ! D22   D(10,6,7,12)           60.6661         -DE/DX =    0.0                 !
 ! D23   D(10,6,7,13)          179.6848         -DE/DX =    0.0                 !
 ! D24   D(10,6,7,14)          -58.5337         -DE/DX =    0.0                 !
 ! D25   D(11,6,7,12)          -62.6192         -DE/DX =    0.0                 !
 ! D26   D(11,6,7,13)           56.3995         -DE/DX =    0.0                 !
 ! D27   D(11,6,7,14)          178.181          -DE/DX =    0.0                 !
 ! D28   D(5,8,9,17)          -173.4357         -DE/DX =    0.0                 !
 ! D29   D(5,8,9,18)           -54.9621         -DE/DX =    0.0                 !
 ! D30   D(5,8,9,19)            67.6053         -DE/DX =    0.0                 !
 ! D31   D(15,8,9,17)           66.0609         -DE/DX =    0.0                 !
 ! D32   D(15,8,9,18)         -175.4656         -DE/DX =    0.0                 !
 ! D33   D(15,8,9,19)          -52.8982         -DE/DX =    0.0                 !
 ! D34   D(16,8,9,17)          -56.5092         -DE/DX =    0.0                 !
 ! D35   D(16,8,9,18)           61.9644         -DE/DX =    0.0                 !
 ! D36   D(16,8,9,19)         -175.4682         -DE/DX =    0.0                 !
 --------------------------------------------------------------------------------
 GradGradGradGradGradGradGradGradGradGradGradGradGradGradGradGradGradGrad


 ----------------------------------------------------------------------

 Electric dipole moment (input orientation):
 (Debye = 10**-18 statcoulomb cm , SI units = C m)
                  (au)            (Debye)         (10**-30 SI)
   Tot        0.294939D+01      0.749660D+01      0.250060D+02
   x          0.250318D+01      0.636246D+01      0.212229D+02
   y         -0.133642D+01     -0.339685D+01     -0.113307D+02
   z          0.804323D+00      0.204438D+01      0.681933D+01

 Dipole polarizability, Alpha (input orientation).
 (esu units = cm**3 , SI units = C**2 m**2 J**-1)
 Alpha(0;0):
               (au)            (10**-24 esu)      (10**-40 SI)
   iso        0.842809D+02      0.124891D+02      0.138960D+02
   aniso      0.106061D+02      0.157167D+01      0.174872D+01
   xx         0.830788D+02      0.123110D+02      0.136978D+02
   yx         0.105846D+01      0.156848D+00      0.174516D+00
   yy         0.905568D+02      0.134191D+02      0.149308D+02
   zx         0.860534D+00      0.127518D+00      0.141883D+00
   zy         0.153234D+01      0.227070D+00      0.252649D+00
   zz         0.792071D+02      0.117373D+02      0.130595D+02

 ----------------------------------------------------------------------

 Dipole orientation:
     5         -0.71937807         -0.13808413         -3.53235763
     9          1.56987451          0.66434224         -4.50189573
     9         -2.66185226          1.58081427         -3.91870699
     9         -1.32517796         -2.56588197         -4.29331835
     8         -0.32343616         -0.29128314         -0.52797081
     6         -1.52969162         -2.34663320          0.89006638
     6          0.42025799         -3.70835057          2.47018866
     6         -0.31513621          2.09530730          0.88403309
     6          1.70302508          3.88619808         -0.04288832
     1         -3.03582670         -1.49482263          2.02836089
     1         -2.37531617         -3.58863569         -0.51797122
     1         -0.52169254         -5.23307984          3.51367840
     1          1.88169256         -4.53990618          1.26016853
     1          1.31991301         -2.44777572          3.84890364
     1         -2.21732385          2.90018783          0.72159456
     1          0.04011555          1.55893648          2.84855453
     1          1.72369029          5.50965142          1.24771558
     1          3.56722992          2.98546087         -0.00259432
     1          1.31788775          4.57423575         -1.95349620

 Electric dipole moment (dipole orientation):
 (Debye = 10**-18 statcoulomb cm , SI units = C m)
                  (au)            (Debye)         (10**-30 SI)
   Tot        0.294939D+01      0.749660D+01      0.250060D+02
   x          0.000000D+00      0.000000D+00      0.000000D+00
   y          0.000000D+00      0.000000D+00      0.000000D+00
   z          0.294939D+01      0.749660D+01      0.250060D+02

 Dipole polarizability, Alpha (dipole orientation).
 (esu units = cm**3 , SI units = C**2 m**2 J**-1)
 Alpha(0;0):
               (au)            (10**-24 esu)      (10**-40 SI)
   iso        0.842809D+02      0.124891D+02      0.138960D+02
   aniso      0.106061D+02      0.157167D+01      0.174872D+01
   xx         0.798304D+02      0.118296D+02      0.131623D+02
   yx         0.293358D+01      0.434712D+00      0.483683D+00
   yy         0.894805D+02      0.132596D+02      0.147533D+02
   zx         0.133107D+00      0.197244D-01      0.219463D-01
   zy        -0.227402D+01     -0.336976D+00     -0.374936D+00
   zz         0.835318D+02      0.123781D+02      0.137725D+02

 ----------------------------------------------------------------------
 Unable to Open any file for archive entry.
 1\1\GINC-B-DFT-2--EB5F355BDB9C-LEVGXOI5VD\Freq\RwB97XD\Aug-CC-pVDZ\C4H
 10B1F3O1\ROOT\24-May-2026\0\\#N Geom=AllCheck Guess=TCheck SCRF=Check 
 GenChk RwB97XD/Aug-CC-pVDZ Freq\\BF3OEt2_CDCl3 | solvent model: CDCl3 
 as chloroform\\0,1\B,-1.7737565531,0.6706783213,-0.2197811041\F,-1.555
 0944042,1.6253268887,-1.1954383707\F,-2.1185698364,1.2155806032,1.0090
 251533\F,-2.6428603543,-0.3212036471,-0.6396570584\O,-0.3579843814,-0.
 0543942374,-0.0007743784\C,-0.3268158332,-1.4994728876,0.2527849228\C,
 0.6129739601,-2.1709026506,-0.7214592457\C,0.6596933216,0.6675528488,0
 .7715224566\C,0.9932856465,2.0073250311,0.1607817094\H,-0.0253099692,-
 1.6352011262,1.2977352509\H,-1.3520100658,-1.8482797284,0.1315686953\H
 ,0.6214768723,-3.248415973,-0.5134234876\H,0.2722266855,-2.0161342603,
 -1.7518277628\H,1.6403782038,-1.7981828478,-0.6242874571\H,0.278545444
 9,0.759558182,1.7953847682\H,1.5378272377,0.0152578742,0.7668629566\H,
 1.8372556163,2.4216714942,0.727020644\H,1.2955248051,1.8959920599,-0.8
 866331045\H,0.1567526036,2.7092250551,0.223010412\\Version=ES64L-G16Re
 vC.01\State=1-A\HF=-558.1491516\RMSD=2.910e-09\RMSF=1.795e-05\ZeroPoin
 t=0.1516954\Thermal=0.162529\ETot=-557.9866226\HTot=-557.9856784\GTot=
 -558.0349474\Dipole=2.5031847,-1.3364232,0.8043228\DipoleDeriv=2.34688
 46,-0.1763496,0.1273012,-0.1785167,2.0749138,-0.0742455,0.0707091,-0.0
 46205,2.0261959,-0.599649,-0.0271434,0.009502,0.0021664,-0.8464882,0.3
 232955,-0.0338239,0.3578399,-0.8349194,-0.6813785,0.1296991,0.1396251,
 0.1297026,-0.6367168,-0.1956452,0.2089038,-0.2590847,-0.9595092,-0.912
 4439,-0.2410672,-0.1773009,-0.2350648,-0.8240094,-0.129481,-0.1889193,
 -0.1185333,-0.5559869,-1.2172169,0.0197077,-0.2835137,0.1305271,-1.538
 3823,-0.0987971,-0.2897826,-0.0867638,-0.5955045,0.1986927,-0.1496107,
 -0.0566306,-0.1438193,1.2046187,0.0719702,-0.0574807,-0.0369255,0.3578
 319,0.0382957,0.0972445,0.0599848,0.0410263,-0.0534354,-0.0346814,0.07
 79578,-0.0633792,0.0142427,0.6524244,0.4544651,0.1799072,0.3618424,0.6
 348235,0.1711032,0.2195307,0.2728068,0.5191253,0.028635,-0.0879957,-0.
 0096611,-0.074209,-0.0813361,0.0172106,0.0028459,0.0219612,0.0559424,0
 .0737887,0.0506375,-0.047089,0.0203664,-0.0059745,-0.0615959,-0.016112
 1,0.0285544,-0.1260803,0.0162522,-0.067841,0.0374572,-0.0237993,0.0102
 601,-0.0239985,0.0117646,-0.0301538,0.0962111,0.0914555,-0.0004383,0.0
 229223,0.0129606,-0.1267503,0.0263747,0.0181741,0.0363207,0.0713531,0.
 0407657,0.0293383,-0.064555,0.0254541,0.0852779,0.0402511,-0.0272412,-
 0.0041673,-0.1105815,-0.1183382,-0.0594433,0.0037601,-0.0980937,0.0633
 937,-0.0173097,-0.024658,-0.0397816,0.0566175,0.0308985,-0.0590473,0.0
 967107,-0.0583853,0.0185797,0.0167271,0.0032719,-0.0172602,-0.0982094,
 -0.0462718,0.0487962,-0.0259118,0.0821807,-0.0452472,0.0128955,0.00102
 93,-0.030536,0.0693171,-0.0349887,-0.084418,-0.0921486,-0.0630081,0.03
 33922,-0.020818,-0.0994081,-0.0245887,0.0309629,0.0877499,0.0096454,0.
 0513669,0.0065562,0.0400511,-0.0381769,0.0755387,0.0162709,-0.103207,0
 .004444,0.1138206,0.0282733,0.0621134,-0.0069706,0.0149214,0.0477001,0
 .0236251,0.0861986\Polar=83.0788274,1.0584596,90.5567905,0.860534,1.53
 23443,79.2070652\AAT=0.029487,-0.1755989,-0.5092571,0.2504502,-0.01079
 ,-1.4465912,0.4716276,1.2553331,-0.0208811,-0.0251225,0.4407799,0.5383
 581,-0.338101,0.1823932,0.486192,-0.453982,-0.4284146,-0.1766965,0.024
 3322,-0.3150073,0.2997587,0.2870031,-0.1168056,0.4813438,-0.4171811,-0
 .7225926,0.1090605,-0.0246513,0.1204605,-0.0613714,-0.2674114,-0.03682
 6,0.9429897,0.1521285,-0.5818757,0.0678794,0.0901701,0.0813071,-0.1983
 14,0.2015656,-0.0090133,-0.0725365,0.0685659,-0.0587937,-0.0827768,0.0
 600055,-0.0891758,0.0097633,-0.1419217,-0.0147573,0.1138116,-0.1262259
 ,-0.124065,-0.0284453,-0.0849724,0.0086086,-0.0042821,-0.1074082,-0.00
 93164,-0.1002251,0.1307834,0.078773,0.0807432,-0.1307946,0.0028588,0.0
 608914,-0.0963142,0.0114578,0.2637012,-0.0319482,-0.1040297,0.104549,-
 0.0298343,0.0709743,0.1284165,0.000295,-0.0314387,-0.0786855,-0.169694
 9,0.0709734,0.0748187,0.0479548,0.1285684,0.0747552,0.0129083,0.007762
 ,0.0300872,0.1021809,-0.0606303,-0.0216135,-0.018495,-0.06546,0.068579
 2,0.0243592,0.0200523,-0.0644581,-0.1028524,0.0926628,-0.01788,-0.0268
 775,0.0055648,0.2473281,-0.1259838,-0.0247137,-0.0815769,-0.2121872,-0
 .0387723,0.0482347,0.0698921,-0.0772831,0.0199444,0.127347,-0.0210803,
 0.0165171,0.1757661,0.1736738,-0.0361062,-0.0230643,0.105094,-0.274479
 4,0.016244,0.0381204,0.0776931,-0.0150872,-0.1389673,-0.0225345,0.0558
 451,-0.0366818,-0.0437192,-0.1298901,-0.0643089,-0.020521,0.039722,0.1
 291619,0.0080509,-0.0340041,-0.0091899,0.0680087,0.0832836,0.0721006,0
 .0406681,0.0092316,-0.1098743,-0.0593208,-0.0811162,0.1686186,-0.05631
 44,-0.1137289,0.0127595,0.215656,0.06754,-0.146485,0.0715886,0.0674139
 ,-0.1732618,-0.0233689,0.1197461,0.0097039,0.052443,-0.1513412,0.04722
 34,-0.0626701,0.0367737,0.0094124,-0.007145,-0.0028516,-0.0157916,-0.2
 378825,0.1302341,0.0483748,-0.0334672\GPTens=-0.4146987,-5.6669837,-18
 .8525214,11.6986246,-0.1731205,-46.2129395,17.4236491,43.8522843,1.100
 408\OptRot=0.364238,-0.7445514,0.0264586,-0.7445514,0.3313653,-1.24582
 94,0.0264586,-1.2458294,-0.1830145\DQPolar=111.0152027,-48.8831449,-62
 .1320578,-25.8213978,8.499653,4.7359833,33.3590633,-60.4724571,27.1133
 938,112.3210256,4.2924031,3.3332209,-2.9744519,-14.2477546,17.2222066,
 4.690026,84.3841671,-29.4209917\Quadrupole=-1.5276458,2.8849972,-1.357
 3514,1.1706406,0.9690744,0.3822899\PG=C01 [X(C4H10B1F3O1)]\NImag=0\\0.
 24799253,0.10545257,0.39825328,-0.02372701,0.01487447,0.42457339,-0.04
 655632,-0.02147870,0.02034825,0.05696715,-0.02706364,-0.13301373,0.093
 06768,0.03402738,0.18490953,0.02512628,0.09021519,-0.14100680,-0.02940
 430,-0.13527072,0.18937799,-0.05318137,0.01543103,0.04297194,0.0060568
 9,-0.00070138,0.01329293,0.06766287,0.01410640,-0.07225721,-0.06483992
 ,-0.00389134,0.00833504,0.01599703,-0.02711165,0.09169026,0.03673007,-
 0.05980902,-0.18731568,0.01642239,0.00611014,-0.04825765,-0.06187493,0
 .09518382,0.26089452,-0.11440425,-0.08739752,-0.03487848,-0.00498296,-
 0.02283686,0.00459403,0.00624784,-0.00558202,-0.00650729,0.16123274,-0
 .08169677,-0.14113187,-0.04011324,-0.02948043,-0.03748833,0.01065837,-
 0.01238691,-0.01780840,-0.02877690,0.12162318,0.19584310,-0.03443397,-
 0.04178800,-0.06241676,0.01020816,0.01734653,0.00727342,-0.01465667,-0
 .03163919,-0.02184232,0.05535150,0.05616402,0.07672620,-0.02518177,-0.
 01817104,0.00894940,-0.00528265,0.01798218,-0.01052408,-0.02519259,0.0
 2520864,0.01590708,-0.04009396,-0.00597736,-0.01267961,0.33183788,-0.0
 1504628,-0.04780173,-0.01138838,0.02339537,-0.02310794,0.02066440,0.02
 484431,-0.01079027,-0.01341279,-0.01031741,0.00473396,-0.00111462,0.00
 813218,0.43345175,0.00225744,-0.00663722,-0.02645628,-0.01295087,0.018
 10222,-0.00601336,0.01510885,-0.01245028,-0.00125106,-0.01782077,-0.00
 187069,-0.00071416,0.10760291,0.01125651,0.20905884,0.00958884,0.01361
 117,-0.00129117,-0.00212664,0.00211629,-0.00213314,-0.00256688,0.00014
 869,0.00163247,-0.00144145,0.00048201,-0.00093365,-0.09247221,0.007014
 40,-0.02096997,0.63554264,0.03487381,-0.01636656,0.01029881,-0.0043116
 4,0.00573163,-0.00498532,-0.00674362,0.00478911,0.00367713,-0.00534046
 ,-0.00830754,-0.00129778,-0.00471407,-0.14007330,0.01277445,0.04280123
 ,0.39276886,-0.00096951,0.00149735,-0.00398723,-0.00200206,0.00204453,
 -0.00077847,0.00261968,-0.00098756,-0.00133764,-0.00110361,0.00241497,
 0.00030330,-0.01757620,0.03248036,-0.06713816,0.05072775,0.01455552,0.
 59189259,-0.00112873,-0.00054581,0.00011578,0.00020658,-0.00009258,0.0
 0006178,0.00022401,-0.00005701,-0.00010959,-0.00006140,0.00079051,-0.0
 0055720,0.00277047,0.00334479,-0.00132392,-0.14470723,0.03585740,0.061
 72154,0.55514015,-0.00648927,-0.00069914,-0.00235771,0.00069329,-0.000
 65204,0.00089827,0.00206995,-0.00088539,-0.00104465,0.00065634,0.00141
 099,-0.00000378,0.02693540,-0.04300836,-0.01919301,0.02756386,-0.08597
 332,-0.03502031,0.02591940,0.55934968,0.00202238,-0.00060615,0.0006134
 4,-0.00019007,0.00050649,-0.00060296,-0.00069553,0.00044632,0.00055670
 ,-0.00050194,0.00041491,-0.00031939,-0.00591948,0.00630463,0.00791984,
 0.06454666,-0.04417303,-0.15123208,0.03100701,-0.03021670,0.55295625,-
 0.02620600,0.00153933,-0.01155715,0.00186748,-0.00369051,0.00292000,0.
 00340816,-0.00352715,-0.00396195,0.00149923,0.00058415,0.00054350,-0.1
 0978983,-0.00924836,-0.03805440,0.00079462,-0.02370604,0.00484475,0.00
 097885,0.00423820,-0.00141095,0.52373951,-0.01605088,0.02290718,0.0011
 1947,0.00039456,-0.00579153,0.00231323,0.00334230,-0.00430756,-0.00260
 024,0.00874521,0.00104463,0.00208346,0.00682960,-0.09994373,-0.0047406
 2,-0.02389230,-0.02944974,-0.01447822,-0.00024686,0.00018491,-0.000468
 86,-0.10307218,0.53696188,-0.01441597,0.00795868,-0.00187985,0.0016770
 2,-0.00164241,0.00132578,0.00233520,-0.00323398,-0.00422970,0.00445609
 ,0.00056981,0.00190409,-0.05388935,-0.02668341,-0.09983910,0.01015559,
 -0.00604770,0.00260975,0.00072740,0.00047218,-0.00151181,-0.07484181,-
 0.03227139,0.55250215,0.00044656,-0.00178488,-0.00011273,-0.00341032,-
 0.00071664,-0.00121825,-0.00066097,0.00035565,0.00049687,-0.00028966,-
 0.00003120,-0.00014255,-0.01031622,-0.03254417,0.00468786,-0.00399052,
 0.00203172,-0.00155995,0.00007183,-0.00039948,0.00002820,-0.08087601,-
 0.01060527,0.01309785,0.57799833,-0.00029762,0.00166461,-0.00086178,-0
 .00277397,-0.00126752,-0.00179196,-0.00036439,-0.00051178,0.00064058,-
 0.00016142,-0.00023832,0.00003491,-0.00840189,-0.01789741,0.00145131,-
 0.00213851,0.00063623,-0.00033006,-0.00011295,-0.00003442,0.00008635,-
 0.01792614,-0.19260546,0.05845468,-0.03437610,0.52035481,0.00234367,-0
 .00056201,0.00053131,-0.00268012,-0.00113259,-0.00176831,-0.00050344,0
 .00037402,0.00053750,-0.00057137,-0.00019794,-0.00022257,-0.00661370,-
 0.02513868,0.00865422,-0.00411570,0.00086792,-0.00183506,0.00001669,-0
 .00032389,0.00036604,0.01735154,0.06813467,-0.11305483,0.00947972,0.02
 508105,0.57968429,0.00011018,-0.00119816,-0.00081080,-0.00002706,0.000
 37289,-0.00019332,-0.00009035,0.00010823,0.00041559,-0.00067120,0.0014
 2176,0.00002365,0.00008845,-0.00083207,-0.00020838,-0.07538659,0.00977
 986,-0.07595931,0.00730650,-0.00206590,0.02162547,-0.00036279,-0.00193
 903,0.00086412,-0.00002578,0.00010760,0.00005345,0.07445081,-0.0060642
 1,0.00063062,0.00080402,0.00140488,-0.00156041,0.00100767,0.00053554,-
 0.00033027,-0.00064387,0.00038503,0.00106262,0.00003745,0.01280919,-0.
 02733284,0.03391079,0.00193876,-0.04764767,0.01775712,-0.00519074,0.00
 376151,-0.01458717,0.00296261,0.00191964,0.00409528,-0.00027043,-0.000
 09629,-0.00041174,-0.00973448,0.06758287,0.00184866,-0.00085337,-0.000
 46450,-0.00024552,0.00040787,-0.00017635,-0.00025385,0.00018431,0.0003
 1041,-0.00025701,0.00004608,-0.00005218,-0.00210521,0.00536117,-0.0023
 9228,-0.07379281,0.02779251,-0.29775239,-0.00691202,0.00133115,-0.0174
 8096,-0.00232834,-0.00165618,0.00181403,0.00045097,-0.00020371,0.00018
 037,0.07909028,-0.03070338,0.31721757,0.00074534,0.00119170,0.00015847
 ,-0.00011761,-0.00034898,0.00008288,0.00001471,-0.00031068,-0.00029662
 ,-0.00462664,0.00465108,-0.00224593,0.00407674,0.00162136,0.00008282,-
 0.30971285,-0.09240319,-0.03252467,-0.01623372,-0.00447337,-0.00241542
 ,-0.00002472,0.00071034,0.00031883,0.00029930,0.00022878,0.00002879,-0
 .00438869,-0.00123126,0.00034144,0.32907869,-0.00449423,-0.00351250,-0
 .00115704,0.00056867,0.00057953,-0.00013705,0.00058684,0.00032411,0.00
 034231,0.00217427,0.00057302,0.00061734,-0.03227390,-0.02544618,-0.006
 60237,-0.07580865,-0.07104648,-0.00777346,0.01533921,0.00664533,0.0016
 9649,0.00238998,-0.00341905,0.00519984,-0.00145031,-0.00051503,-0.0015
 5633,0.00378216,0.00324589,-0.00023274,0.08847549,0.09332712,0.0008242
 7,0.00085622,0.00157077,-0.00009809,-0.00027698,0.00000337,-0.00012006
 ,0.00002440,-0.00029211,-0.00167985,0.00090526,-0.00104753,0.00590786,
 0.00548737,0.00070793,-0.03679756,-0.01418253,-0.05668095,0.02306978,0
 .00677496,0.00297976,-0.00110353,-0.00056929,-0.00066379,0.00043783,0.
 00008628,0.00018642,-0.02739128,-0.00974620,-0.00120234,0.03435633,0.0
 1199715,0.05528470,0.00155691,-0.00024017,0.00036233,-0.00018759,0.000
 26366,-0.00024353,-0.00039002,0.00021017,0.00026096,-0.00024383,-0.000
 18004,-0.00001697,-0.00282534,0.00571151,0.00275780,0.00053273,0.01720
 481,-0.00678541,-0.04441800,0.00054616,0.00165645,-0.00122917,-0.00011
 061,-0.00040676,0.00018993,0.00002809,0.00015621,0.00055379,-0.0002333
 2,0.00011090,0.00023007,-0.00055278,-0.00066892,0.04530600,-0.00171483
 ,0.00055306,-0.00055805,0.00015552,-0.00022920,0.00021381,0.00047398,-
 0.00026066,-0.00027211,0.00029855,0.00012512,0.00009692,0.00262738,-0.
 00240176,-0.00213514,-0.00275472,-0.01335742,0.00538317,0.00281944,-0.
 31057745,0.05060931,0.00092613,0.00069089,0.00055139,-0.00005304,-0.00
 003380,-0.00006702,-0.00018208,0.00039610,-0.00027223,0.00019675,0.000
 40817,0.00009558,-0.00366795,0.33561420,-0.00165028,0.00014707,-0.0005
 8295,0.00020252,-0.00027407,0.00032235,0.00045275,-0.00021918,-0.00026
 978,0.00023289,0.00015249,0.00012013,0.00409296,-0.00619320,-0.0018170
 4,-0.00290484,-0.01820103,0.00441528,0.00108247,0.05301625,-0.05576080
 ,0.00092177,0.00027737,0.00054478,-0.00010890,-0.00002688,-0.00015888,
 -0.00078374,0.00059661,0.00021037,-0.00001372,0.00031291,0.00058133,-0
 .00205954,-0.05482045,0.05629807,0.00010508,0.00018377,0.00009987,-0.0
 0004527,-0.00003166,0.00001801,0.00001520,-0.00004702,-0.00007995,0.00
 004013,-0.00015524,-0.00008536,0.00072249,-0.00109686,-0.00109497,0.00
 653906,-0.00404499,0.02345148,-0.07626628,0.01325598,-0.08536023,-0.00
 027993,-0.00000477,-0.00030180,0.00009263,0.00001096,-0.00008455,-0.00
 222857,0.00286709,0.00277929,0.00106776,-0.00067824,-0.00025046,-0.001
 19359,-0.00034723,0.00063583,0.07889220,0.00054340,-0.00007338,-0.0000
 8521,-0.00010991,0.00010046,-0.00002896,-0.00012109,0.00006692,0.00012
 746,-0.00015385,-0.00007722,0.00003744,-0.00106146,0.00234051,0.000201
 44,-0.00398091,-0.00031741,-0.01652481,0.01209849,-0.05095168,0.039587
 77,-0.00043352,-0.00022658,-0.00042744,0.00005162,0.00001091,0.0000580
 7,0.00217774,-0.00072109,-0.00212739,-0.00038509,0.00016669,0.00080730
 ,0.00980488,-0.00229985,0.02879187,-0.01552190,0.05100266,-0.00034421,
 0.00008600,-0.00033720,0.00005852,-0.00007761,0.00012746,0.00003287,-0
 .00000455,0.00004869,0.00010840,-0.00008544,0.00014608,-0.00033639,-0.
 00011395,0.00181838,-0.00686294,0.00459345,-0.02143669,-0.08204061,0.0
 3681254,-0.28816546,0.00005485,0.00017972,0.00017080,0.00001708,-0.000
 01180,-0.00003615,0.00307695,-0.00211369,-0.00122031,-0.00014626,0.000
 10982,0.00085818,-0.00096248,-0.00055104,-0.00339437,0.08674033,-0.039
 35344,0.31234150,-0.00020176,-0.00066632,-0.00014419,0.00004661,0.0001
 6830,-0.00007974,0.00010202,0.00008252,0.00008524,-0.00008496,0.000504
 22,-0.00011148,0.00130253,-0.00000492,-0.00045109,-0.01929515,-0.00823
 695,-0.00234922,-0.28380104,-0.08765568,-0.02466429,-0.00058233,0.0001
 0929,-0.00061779,0.00018291,0.00004394,0.00005869,0.00086300,0.0002508
 7,-0.00004288,-0.00059818,0.00208470,0.00318318,0.00169216,0.00124809,
 -0.00002593,-0.00758331,-0.00310421,0.00048025,0.30715017,0.00071184,-
 0.00000846,0.00021416,-0.00009690,0.00005975,-0.00007050,-0.00020442,0
 .00009890,0.00009831,-0.00010999,-0.00022934,0.00003419,-0.00099349,0.
 00203557,0.00086604,0.01692029,0.00394067,0.00159535,-0.08955309,-0.07
 783731,-0.00902458,0.00051615,-0.00059797,-0.00065877,-0.00014568,0.00
 013152,0.00003666,-0.00084529,0.00012877,0.00050807,0.00195109,-0.0007
 5065,-0.00245512,-0.02893014,-0.00866224,-0.00361047,0.00562665,0.0009
 2455,0.00034997,0.09521393,0.08157009,0.00017979,0.00038929,0.00003660
 ,-0.00002562,-0.00007766,0.00003645,-0.00006573,-0.00003546,-0.0000173
 3,0.00014361,-0.00044074,0.00017490,-0.00188544,0.00017907,0.00046664,
 0.02266660,0.01083200,0.00212062,-0.02617968,-0.01087011,-0.05030476,0
 .00076154,-0.00026642,0.00024086,-0.00030668,0.00005913,-0.00001005,-0
 .00046305,0.00063332,0.00092836,0.00221500,-0.00286084,-0.00238192,0.0
 0549379,0.00161189,-0.00063933,-0.02657527,-0.01129960,-0.00103968,0.0
 2417109,0.01311698,0.05121304,0.00234872,-0.00180759,-0.00191072,-0.00
 029753,0.00046370,0.00012761,-0.00060699,0.00027884,0.00068840,-0.0003
 0426,0.00023986,0.00033636,-0.00176278,-0.01293583,-0.03322289,-0.0005
 1645,0.00338661,-0.00166910,-0.00033330,-0.00046984,0.00026252,-0.0875
 0891,0.01368328,0.10292932,-0.00075657,0.00160954,0.00568026,0.0002805
 5,0.00022589,0.00075824,0.00003357,-0.00003816,-0.00002234,0.00026215,
 -0.00005324,-0.00002180,0.00005966,0.00006784,0.00005309,0.00026493,-0
 .00001228,-0.00002097,0.09367985,0.00194378,-0.00085142,0.00094491,-0.
 00000597,0.00046442,-0.00034718,-0.00020766,0.00003965,0.00018952,-0.0
 0038401,-0.00016853,-0.00011098,-0.00370841,-0.00746562,-0.02028569,0.
 00000217,0.00335323,-0.00239285,0.00039066,-0.00042624,0.00010975,0.01
 055087,-0.05249344,-0.01785253,-0.01079209,0.00354803,0.02921617,0.000
 12506,-0.00054150,0.00066940,0.00003375,0.00000795,0.00019623,0.000080
 14,-0.00006228,-0.00005341,-0.00013974,-0.00004855,0.00012642,-0.00017
 143,0.00002708,0.00007521,-0.00373582,0.05829946,0.00303153,-0.0025231
 0,-0.00199157,-0.00049047,0.00049073,0.00001160,0.00064923,0.00073679,
 0.00175140,-0.00060454,0.00013439,0.00013281,-0.00711618,-0.00942415,-
 0.02003252,-0.00019824,0.00254209,-0.00066509,0.00000037,-0.00030504,0
 .00034276,0.09410711,-0.01860407,-0.28012638,0.00533685,-0.00086303,-0
 .00912517,0.00011175,-0.00072780,0.00014157,0.00004125,-0.00023877,0.0
 0017949,0.00012826,-0.00009144,-0.00005208,-0.00003968,0.00013604,0.00
 008586,0.00006495,0.00003586,-0.00002347,-0.09582904,0.02539813,0.3063
 7589,0.00397761,-0.00412529,0.00067003,-0.00009445,0.00091688,-0.00055
 494,-0.00041989,0.00048837,0.00028802,-0.00183778,-0.00044702,-0.00058
 336,-0.03078719,0.00701474,-0.00814876,-0.00078021,0.00346440,-0.00081
 746,0.00029815,-0.00026774,-0.00000338,-0.22170097,0.13146972,0.006158
 45,0.00831931,-0.00624407,0.00035402,-0.00047756,-0.00075334,0.0006733
 1,0.00016704,-0.00007648,0.00040957,0.00017834,0.00002382,-0.00001605,
 0.00009171,0.00013379,0.00010154,0.00058967,-0.00006039,-0.00015379,-0
 .00612560,0.00695840,0.00023693,0.24731468,0.00094550,-0.00292840,-0.0
 0039900,0.00006017,0.00072202,-0.00019065,0.00000890,0.00047982,0.0003
 6560,-0.00130322,-0.00005477,-0.00040444,-0.02288534,0.00658487,-0.005
 37148,-0.00261363,0.00043818,0.00006588,-0.00069679,-0.00031483,-0.000
 74197,0.14315045,-0.15005556,-0.00186689,0.02264386,-0.01903684,-0.001
 19621,-0.00113552,-0.00068299,-0.00010410,0.00009582,0.00000083,0.0000
 1148,0.00002957,0.00013640,0.00018285,0.00013774,0.00013655,0.00011949
 ,0.00013364,-0.00090321,-0.00108488,0.00102784,-0.00019925,0.00140873,
 -0.13703821,0.16821554,0.00258228,-0.00346857,-0.00113676,-0.00008548,
 0.00050424,-0.00013682,0.00030735,0.00064824,0.00118635,-0.00144816,-0
 .00009618,-0.00025858,-0.02689913,0.00840413,-0.00517664,-0.00016044,0
 .00164238,0.00095010,-0.00068029,-0.00016198,-0.00024860,0.01300374,-0
 .00736161,-0.05128611,-0.01136968,0.00986803,0.00066342,0.00061451,0.0
 0016446,-0.00006694,-0.00000123,0.00004085,-0.00011482,0.00025751,0.00
 014230,0.00009735,0.00011831,0.00010090,-0.00001532,0.00040046,-0.0010
 6460,-0.00075877,0.02276301,-0.01702626,0.00210726,0.00036640,0.006324
 72,0.05327363,0.00111053,0.00124431,-0.00014155,-0.00094328,-0.0006733
 6,-0.00053134,-0.00038951,-0.00021562,0.00022899,-0.00020060,-0.000280
 25,-0.00002570,0.00144275,-0.00131510,0.00123899,-0.00032588,0.0005956
 1,-0.00017650,-0.00001647,-0.00010428,0.00004146,-0.00757551,-0.000722
 34,-0.00484534,-0.20758983,-0.08043409,-0.10895225,0.00003995,0.000004
 72,-0.00000422,0.00002389,-0.00013969,-0.00000138,0.00002626,-0.000021
 02,-0.00003537,-0.00000424,0.00001615,-0.00000947,-0.00000174,0.000017
 42,0.00000569,0.00016938,0.00016113,0.00026876,0.00063283,-0.00007417,
 0.00011191,0.22191995,0.00142345,-0.00178178,0.00063096,0.00067288,0.0
 0086865,0.00012741,-0.00015838,0.00040793,0.00012294,-0.00033564,0.000
 15834,-0.00016411,-0.00263256,-0.00779671,0.00216877,-0.00163595,0.001
 09306,-0.00053276,-0.00000232,-0.00014890,0.00008161,-0.02116499,-0.00
 841706,-0.01766198,-0.07827077,-0.08371264,-0.05087741,0.00002192,-0.0
 0008679,0.00007853,0.00005361,-0.00064541,0.00008819,0.00006347,-0.000
 04252,-0.00005640,0.00000363,0.00002652,-0.00001091,0.00003522,0.00001
 449,-0.00004436,0.00005995,0.00067096,0.00046503,0.00036709,0.00054896
 ,-0.00078590,0.08812725,0.09188624,-0.00029105,0.00070024,-0.00071884,
 -0.00059800,-0.00035620,0.00034422,0.00016319,-0.00002999,0.00004277,0
 .00009971,-0.00011902,0.00009322,0.00171941,0.00385317,0.00023063,0.00
 050181,-0.00009561,0.00053347,0.00001975,0.00010604,-0.00006478,0.0099
 5718,0.00341612,0.00528803,-0.10988649,-0.05315597,-0.11832189,-0.0000
 2356,0.00000955,-0.00005186,-0.00001783,0.00022265,-0.00004861,-0.0000
 3680,0.00002093,0.00004456,0.00000832,0.00000061,0.00000534,-0.0000168
 3,0.00000446,0.00000542,-0.00013888,-0.00082467,-0.00003124,0.00004459
 ,-0.00010684,0.00060628,0.11917760,0.05599933,0.12404058,-0.00052698,-
 0.00022543,0.00115904,0.00030365,0.00027969,-0.00035371,-0.00009926,-0
 .00025298,-0.00038692,0.00013405,0.00017764,-0.00007161,0.00070361,0.0
 0127485,0.00038352,0.00020552,-0.00028947,0.00002679,-0.00001171,0.000
 02525,-0.00002176,-0.00434517,-0.00063254,0.00743471,-0.06637926,0.010
 14094,0.07273666,-0.00000220,0.00009578,-0.00006517,-0.00001250,0.0000
 6606,-0.00001810,-0.00002058,0.00001720,-0.00000494,-0.00002015,-0.000
 01382,-0.00001489,-0.00002462,-0.00000151,0.00001378,0.00074495,-0.001
 55672,0.00075508,0.00014811,-0.00024124,-0.00070459,0.00771435,-0.0013
 7164,-0.02355463,0.06704082,-0.00016668,-0.00015759,-0.00008331,-0.000
 29424,-0.00007931,0.00008045,0.00005333,0.00011557,-0.00011680,-0.0000
 4247,-0.00000227,0.00003509,0.00079268,0.00234015,-0.00102687,0.000346
 11,-0.00003577,0.00014519,-0.00007243,0.00005773,-0.00005230,-0.009005
 14,0.00277452,0.03270236,0.01031658,-0.05074792,-0.03193569,0.00000577
 ,0.00013118,-0.00008731,-0.00001286,0.00010240,-0.00001932,0.00001581,
 0.00001685,-0.00002268,0.00001077,-0.00003341,-0.00002937,0.00004296,-
 0.00001550,0.00000894,-0.00150813,-0.00535287,0.00190514,0.00017746,0.
 00115539,-0.00049863,0.00450403,-0.00199940,-0.01094158,-0.00850451,0.
 05358737,-0.00032844,0.00036292,-0.00068944,-0.00061301,-0.00018815,0.
 00037976,0.00014852,-0.00000492,0.00013694,0.00011173,-0.00001610,0.00
 011089,0.00058697,0.00005994,0.00161302,-0.00005472,-0.00037193,0.0001
 0977,0.00001019,0.00004120,-0.00002422,0.00225904,-0.00294732,-0.01323
 587,0.07425431,-0.02779789,-0.29854929,-0.00001911,-0.00011016,0.00000
 277,0.00001807,0.00002124,0.00004258,-0.00001616,0.00002085,0.00001802
 ,0.00000294,0.00000141,0.00002902,0.00000774,0.00002422,-0.00001513,-0
 .00006322,0.00247091,0.00046876,-0.00021433,0.00003945,0.00037127,0.00
 517744,-0.00068837,-0.01244968,-0.08017489,0.02871822,0.32187542,-0.00
 059512,-0.00101295,-0.00026132,-0.00137669,-0.00043536,-0.00098717,-0.
 00013386,0.00000798,0.00006118,0.00008894,0.00016083,0.00008090,0.0007
 5962,0.00098749,0.00012582,0.00011866,-0.00020501,0.00010102,-0.000018
 66,0.00002172,-0.00000709,0.00819348,-0.00800754,-0.00083575,-0.213305
 66,0.14106129,0.01526144,-0.00003243,-0.00000258,-0.00004607,-0.000022
 20,0.00004506,-0.00003726,-0.00002022,0.00000724,0.00000392,-0.0000045
 7,-0.00000816,-0.00000664,-0.00002091,-0.00000420,0.00002534,0.0003686
 4,0.00045589,-0.00045391,0.00050621,-0.00224537,0.00082352,-0.01603283
 ,0.01474378,0.00287253,-0.00555261,0.00334097,-0.00109308,0.22708020,-
 0.00091635,-0.00342500,-0.00011083,0.00107038,0.00141897,0.00064653,0.
 00065332,0.00080423,-0.00018143,0.00008231,0.00055480,0.00003555,-0.00
 049774,0.00157903,-0.00041814,-0.00012032,-0.00017575,0.00010059,0.000
 01069,0.00009893,0.00002713,0.02491615,-0.01917597,-0.00165772,0.13604
 064,-0.15964869,-0.01036905,0.00002955,0.00014065,-0.00013868,-0.00004
 433,-0.00004573,-0.00008099,-0.00004325,-0.00001360,0.00000033,-0.0000
 2894,-0.00002660,-0.00002563,-0.00007815,0.00007328,0.00007422,-0.0004
 8246,0.00119893,-0.00047554,-0.00200213,-0.00424271,0.00262350,-0.0106
 9071,0.00895607,0.00129679,0.00101242,-0.00185710,0.00036448,-0.148911
 08,0.17378628,-0.00078594,-0.00083998,0.00165834,0.00046677,0.00071597
 ,-0.00046167,0.00008769,-0.00014990,-0.00065201,0.00027503,0.00025595,
 -0.00011154,0.00077818,-0.00058157,0.00036109,-0.00001569,-0.00022134,
 -0.00009111,-0.00002943,0.00004459,-0.00001897,-0.01346689,0.00844018,
 -0.00057284,0.01641770,-0.01071924,-0.04772136,-0.00002321,0.00002774,
 0.00005466,0.00001779,-0.00000202,0.00003754,0.00001237,0.00002134,0.0
 0002299,0.00001791,-0.00000345,0.00001388,0.00005184,-0.00000024,-0.00
 003245,-0.00069986,-0.00050308,0.00045012,0.00118919,0.00294826,-0.000
 05629,-0.01152771,0.01105942,0.00045237,0.02286163,-0.01878152,-0.0001
 9460,-0.01562739,0.00828890,0.04686187\\0.00001202,0.00000063,-0.00001
 473,0.00000144,-0.00000182,0.00001627,0.00000793,0.00000088,-0.0000083
 9,0.00000898,0.00000623,-0.00000581,0.00002127,0.00000152,0.00006244,-
 0.00001180,0.00003729,-0.00001441,0.00000763,-0.00002325,0.00000255,-0
 .00005460,-0.00003732,-0.00006697,0.00001360,0.00001920,0.00000712,-0.
 00000505,-0.00000330,-0.00000214,0.00000358,0.00000145,0.00001131,-0.0
 0000801,0.00000630,-0.00000001,0.00000636,0.00000102,-0.00000188,-0.00
 000309,0.00001875,-0.00000013,0.00000483,-0.00000166,0.00000721,0.0000
 0775,-0.00000691,0.00000913,-0.00000190,-0.00001173,0.00000320,-0.0000
 0345,-0.00000063,0.00000277,-0.00000749,-0.00000666,-0.00000753\\\@
 The archive entry for this job was punched.


 A warm smile is the universal language of kindness.
                             -- William Arthur Ward
 Job cpu time:       0 days  1 hours  6 minutes 11.8 seconds.
 Elapsed time:       0 days  0 hours  3 minutes 23.7 seconds.
 File lengths (MBytes):  RWF=   1440 Int=      0 D2E=      0 Chk=     32 Scr=     32
 Normal termination of Gaussian 16 at Sun May 24 17:27:47 2026.
