 Entering Gaussian System, Link 0=g16
 Initial command:
 /inspire/hdd/project/materialscienceresearch/lipenghui-253107030018/software/g16/l1.exe "/inspire/hdd/project/materialscienceresearch/lipenghui-253107030018/g16/tmp/Gau-351649.inp" -scrdir="/inspire/hdd/project/materialscienceresearch/lipenghui-253107030018/g16/tmp/"
 Entering Link 1 = /inspire/hdd/project/materialscienceresearch/lipenghui-253107030018/software/g16/l1.exe PID=    351682.
  
 Copyright (c) 1988-2019, Gaussian, Inc.  All Rights Reserved.
  
 This is part of the Gaussian(R) 16 program.  It is based on
 the Gaussian(R) 09 system (copyright 2009, Gaussian, Inc.),
 the Gaussian(R) 03 system (copyright 2003, Gaussian, Inc.),
 the Gaussian(R) 98 system (copyright 1998, Gaussian, Inc.),
 the Gaussian(R) 94 system (copyright 1995, Gaussian, Inc.),
 the Gaussian 92(TM) system (copyright 1992, Gaussian, Inc.),
 the Gaussian 90(TM) system (copyright 1990, Gaussian, Inc.),
 the Gaussian 88(TM) system (copyright 1988, Gaussian, Inc.),
 the Gaussian 86(TM) system (copyright 1986, Carnegie Mellon
 University), and the Gaussian 82(TM) system (copyright 1983,
 Carnegie Mellon University). Gaussian is a federally registered
 trademark of Gaussian, Inc.
  
 This software contains proprietary and confidential information,
 including trade secrets, belonging to Gaussian, Inc.
  
 This software is provided under written license and may be
 used, copied, transmitted, or stored only in accord with that
 written license.
  
 The following legend is applicable only to US Government
 contracts under FAR:
  
                    RESTRICTED RIGHTS LEGEND
  
 Use, reproduction and disclosure by the US Government is
 subject to restrictions as set forth in subparagraphs (a)
 and (c) of the Commercial Computer Software - Restricted
 Rights clause in FAR 52.227-19.
  
 Gaussian, Inc.
 340 Quinnipiac St., Bldg. 40, Wallingford CT 06492
  
  
 ---------------------------------------------------------------
 Warning -- This program may not be used in any manner that
 competes with the business of Gaussian, Inc. or will provide
 assistance to any competitor of Gaussian, Inc.  The licensee
 of this program is prohibited from giving any competitor of
 Gaussian, Inc. access to this program.  By using this program,
 the user acknowledges that Gaussian, Inc. is engaged in the
 business of creating and licensing software in the field of
 computational chemistry and represents and warrants to the
 licensee that it is not a competitor of Gaussian, Inc. and that
 it will not use this program in any manner prohibited above.
 ---------------------------------------------------------------
  

 Cite this work as:
 Gaussian 16, Revision C.01,
 M. J. Frisch, G. W. Trucks, H. B. Schlegel, G. E. Scuseria, 
 M. A. Robb, J. R. Cheeseman, G. Scalmani, V. Barone, 
 G. A. Petersson, H. Nakatsuji, X. Li, M. Caricato, A. V. Marenich, 
 J. Bloino, B. G. Janesko, R. Gomperts, B. Mennucci, H. P. Hratchian, 
 J. V. Ortiz, A. F. Izmaylov, J. L. Sonnenberg, D. Williams-Young, 
 F. Ding, F. Lipparini, F. Egidi, J. Goings, B. Peng, A. Petrone, 
 T. Henderson, D. Ranasinghe, V. G. Zakrzewski, J. Gao, N. Rega, 
 G. Zheng, W. Liang, M. Hada, M. Ehara, K. Toyota, R. Fukuda, 
 J. Hasegawa, M. Ishida, T. Nakajima, Y. Honda, O. Kitao, H. Nakai, 
 T. Vreven, K. Throssell, J. A. Montgomery, Jr., J. E. Peralta, 
 F. Ogliaro, M. J. Bearpark, J. J. Heyd, E. N. Brothers, K. N. Kudin, 
 V. N. Staroverov, T. A. Keith, R. Kobayashi, J. Normand, 
 K. Raghavachari, A. P. Rendell, J. C. Burant, S. S. Iyengar, 
 J. Tomasi, M. Cossi, J. M. Millam, M. Klene, C. Adamo, R. Cammi, 
 J. W. Ochterski, R. L. Martin, K. Morokuma, O. Farkas, 
 J. B. Foresman, and D. J. Fox, Gaussian, Inc., Wallingford CT, 2019.
 
 ******************************************
 Gaussian 16:  ES64L-G16RevC.01  3-Jul-2019
                24-May-2026 
 ******************************************
 %nprocshared=20
 Will use up to   20 processors via shared memory.
 %mem=72GB
 %chk=/inspire/hdd/project/materialscienceresearch/lipenghui-253107030018/g16/00-
 B-DFT-Shift/04-output/BF3OEt2_D2O/BF3OEt2_D2O.chk
 ----------------------------------------------------------------------
 # nmr=giao wb97xd/aug-cc-pvdz opt freq integral=(acc2e=12,grid=ultrafi
 ne) scrf=(cpcm,solvent=water)
 ----------------------------------------------------------------------
 1/18=20,19=15,26=6,38=1/1,3;
 2/9=110,12=2,17=6,18=5,40=1/2;
 3/5=16,7=10,11=2,25=1,27=12,30=1,70=2101,71=1,72=1,74=-58,75=-5/1,2,3;
 4//1;
 5/5=2,38=5,53=1,87=12/2;
 6/7=2,8=2,9=2,10=2,28=1,87=12/1;
 7/87=12/1,2,3,16;
 1/18=20,19=15,26=6/3(2);
 2/9=110/2;
 99//99;
 2/9=110/2;
 3/5=16,7=10,11=2,25=1,27=12,30=1,70=2105,71=1,72=1,74=-58,75=-5/1,2,3;
 4/5=5,16=3,69=1/1;
 5/5=2,38=5,53=1,87=12/2;
 7/87=12/1,2,3,16;
 1/18=20,19=15,26=6/3(-5);
 2/9=110/2;
 6/7=2,8=2,9=2,10=2,19=2,28=1,87=12/1;
 99/9=1/99;
 -----------------------------------------
 BF3OEt2_D2O | solvent model: D2O as water
 -----------------------------------------
 Symbolic Z-matrix:
 Charge =  0 Multiplicity = 1
 B                    -1.66858   0.65829  -0.06802 
 F                    -1.7366    1.9078   -0.96747 
 F                    -1.88813   1.08044   1.39747 
 F                    -2.88846  -0.18822  -0.48146 
 O                    -0.3892   -0.03478  -0.25232 
 C                    -0.46788  -1.42858   0.04401 
 C                     0.74837  -2.25754  -0.4052 
 C                     0.70127   0.58399   0.42796 
 C                     0.91694   2.0707    0.10017 
 H                    -0.65787  -1.59574   1.13135 
 H                    -1.33239  -1.88114  -0.50048 
 H                     0.51279  -3.34717  -0.40293 
 H                     1.05982  -1.98375  -1.43937 
 H                     1.62093  -2.12975   0.27396 
 H                     0.60793   0.46168   1.53361 
 H                     1.65837   0.08909   0.13394 
 H                     1.88627   2.43335   0.5146 
 H                     0.94291   2.23982  -1.00078 
 H                     0.12706   2.71749   0.54337 
 

 GradGradGradGradGradGradGradGradGradGradGradGradGradGradGradGradGradGrad
 Berny optimization.
 Initialization pass.
                           ----------------------------
                           !    Initial Parameters    !
                           ! (Angstroms and Degrees)  !
 --------------------------                            --------------------------
 ! Name  Definition              Value          Derivative Info.                !
 --------------------------------------------------------------------------------
 ! R1    R(1,2)                  1.5411         estimate D2E/DX2                !
 ! R2    R(1,3)                  1.5408         estimate D2E/DX2                !
 ! R3    R(1,4)                  1.5413         estimate D2E/DX2                !
 ! R4    R(1,5)                  1.4667         estimate D2E/DX2                !
 ! R5    R(5,6)                  1.4271         estimate D2E/DX2                !
 ! R6    R(5,8)                  1.4265         estimate D2E/DX2                !
 ! R7    R(6,7)                  1.5389         estimate D2E/DX2                !
 ! R8    R(6,10)                 1.1164         estimate D2E/DX2                !
 ! R9    R(6,11)                 1.1174         estimate D2E/DX2                !
 ! R10   R(7,12)                 1.1148         estimate D2E/DX2                !
 ! R11   R(7,13)                 1.1142         estimate D2E/DX2                !
 ! R12   R(7,14)                 1.1131         estimate D2E/DX2                !
 ! R13   R(8,9)                  1.5376         estimate D2E/DX2                !
 ! R14   R(8,15)                 1.1163         estimate D2E/DX2                !
 ! R15   R(8,16)                 1.1169         estimate D2E/DX2                !
 ! R16   R(9,17)                 1.1148         estimate D2E/DX2                !
 ! R17   R(9,18)                 1.1142         estimate D2E/DX2                !
 ! R18   R(9,19)                 1.113          estimate D2E/DX2                !
 ! A1    A(2,1,3)              109.0681         estimate D2E/DX2                !
 ! A2    A(2,1,4)              104.7032         estimate D2E/DX2                !
 ! A3    A(2,1,5)              110.3836         estimate D2E/DX2                !
 ! A4    A(3,1,4)              107.0273         estimate D2E/DX2                !
 ! A5    A(3,1,5)              111.9184         estimate D2E/DX2                !
 ! A6    A(4,1,5)              113.4001         estimate D2E/DX2                !
 ! A7    A(1,5,6)              112.7884         estimate D2E/DX2                !
 ! A8    A(1,5,8)              113.6987         estimate D2E/DX2                !
 ! A9    A(6,5,8)              111.5166         estimate D2E/DX2                !
 ! A10   A(5,6,7)              114.9554         estimate D2E/DX2                !
 ! A11   A(5,6,10)             110.9687         estimate D2E/DX2                !
 ! A12   A(5,6,11)             109.6955         estimate D2E/DX2                !
 ! A13   A(7,6,10)             109.7641         estimate D2E/DX2                !
 ! A14   A(7,6,11)             104.5398         estimate D2E/DX2                !
 ! A15   A(10,6,11)            106.3956         estimate D2E/DX2                !
 ! A16   A(6,7,12)             111.033          estimate D2E/DX2                !
 ! A17   A(6,7,13)             111.0681         estimate D2E/DX2                !
 ! A18   A(6,7,14)             112.3092         estimate D2E/DX2                !
 ! A19   A(12,7,13)            107.5262         estimate D2E/DX2                !
 ! A20   A(12,7,14)            106.059          estimate D2E/DX2                !
 ! A21   A(13,7,14)            108.6016         estimate D2E/DX2                !
 ! A22   A(5,8,9)              115.1494         estimate D2E/DX2                !
 ! A23   A(5,8,15)             111.1554         estimate D2E/DX2                !
 ! A24   A(5,8,16)             109.7153         estimate D2E/DX2                !
 ! A25   A(9,8,15)             109.1965         estimate D2E/DX2                !
 ! A26   A(9,8,16)             104.6032         estimate D2E/DX2                !
 ! A27   A(15,8,16)            106.4897         estimate D2E/DX2                !
 ! A28   A(8,9,17)             110.9302         estimate D2E/DX2                !
 ! A29   A(8,9,18)             111.1421         estimate D2E/DX2                !
 ! A30   A(8,9,19)             112.1772         estimate D2E/DX2                !
 ! A31   A(17,9,18)            107.3192         estimate D2E/DX2                !
 ! A32   A(17,9,19)            106.2605         estimate D2E/DX2                !
 ! A33   A(18,9,19)            108.7726         estimate D2E/DX2                !
 ! D1    D(2,1,5,6)           -153.845          estimate D2E/DX2                !
 ! D2    D(2,1,5,8)             77.9211         estimate D2E/DX2                !
 ! D3    D(3,1,5,6)             84.4748         estimate D2E/DX2                !
 ! D4    D(3,1,5,8)            -43.7591         estimate D2E/DX2                !
 ! D5    D(4,1,5,6)            -36.727          estimate D2E/DX2                !
 ! D6    D(4,1,5,8)           -164.9609         estimate D2E/DX2                !
 ! D7    D(1,5,6,7)            167.8746         estimate D2E/DX2                !
 ! D8    D(1,5,6,10)           -66.8319         estimate D2E/DX2                !
 ! D9    D(1,5,6,11)            50.4426         estimate D2E/DX2                !
 ! D10   D(8,5,6,7)            -62.7613         estimate D2E/DX2                !
 ! D11   D(8,5,6,10)            62.5323         estimate D2E/DX2                !
 ! D12   D(8,5,6,11)           179.8068         estimate D2E/DX2                !
 ! D13   D(1,5,8,9)            -54.7332         estimate D2E/DX2                !
 ! D14   D(1,5,8,15)            70.0989         estimate D2E/DX2                !
 ! D15   D(1,5,8,16)          -172.386          estimate D2E/DX2                !
 ! D16   D(6,5,8,9)            176.3833         estimate D2E/DX2                !
 ! D17   D(6,5,8,15)           -58.7846         estimate D2E/DX2                !
 ! D18   D(6,5,8,16)            58.7305         estimate D2E/DX2                !
 ! D19   D(5,6,7,12)          -164.4459         estimate D2E/DX2                !
 ! D20   D(5,6,7,13)           -44.8499         estimate D2E/DX2                !
 ! D21   D(5,6,7,14)            76.9909         estimate D2E/DX2                !
 ! D22   D(10,6,7,12)           69.6361         estimate D2E/DX2                !
 ! D23   D(10,6,7,13)         -170.7679         estimate D2E/DX2                !
 ! D24   D(10,6,7,14)          -48.9272         estimate D2E/DX2                !
 ! D25   D(11,6,7,12)          -44.133          estimate D2E/DX2                !
 ! D26   D(11,6,7,13)           75.463          estimate D2E/DX2                !
 ! D27   D(11,6,7,14)         -162.6963         estimate D2E/DX2                !
 ! D28   D(5,8,9,17)          -169.4774         estimate D2E/DX2                !
 ! D29   D(5,8,9,18)           -50.1609         estimate D2E/DX2                !
 ! D30   D(5,8,9,19)            71.8607         estimate D2E/DX2                !
 ! D31   D(15,8,9,17)           64.6753         estimate D2E/DX2                !
 ! D32   D(15,8,9,18)         -176.0082         estimate D2E/DX2                !
 ! D33   D(15,8,9,19)          -53.9867         estimate D2E/DX2                !
 ! D34   D(16,8,9,17)          -48.9842         estimate D2E/DX2                !
 ! D35   D(16,8,9,18)           70.3323         estimate D2E/DX2                !
 ! D36   D(16,8,9,19)         -167.6462         estimate D2E/DX2                !
 --------------------------------------------------------------------------------
 Trust Radius=3.00D-01 FncErr=5.00D-06 GrdErr=5.00D-06 EigMax=2.50D+02 EigMin=1.00D-04
 Number of steps in this run=     97 maximum allowed number of steps=    114.
 GradGradGradGradGradGradGradGradGradGradGradGradGradGradGradGradGradGrad

                          Input orientation:                          
 ---------------------------------------------------------------------
 Center     Atomic      Atomic             Coordinates (Angstroms)
 Number     Number       Type             X           Y           Z
 ---------------------------------------------------------------------
      1          5           0       -1.668578    0.658294   -0.068017
      2          9           0       -1.736601    1.907804   -0.967472
      3          9           0       -1.888130    1.080442    1.397468
      4          9           0       -2.888462   -0.188219   -0.481460
      5          8           0       -0.389196   -0.034782   -0.252324
      6          6           0       -0.467876   -1.428577    0.044008
      7          6           0        0.748365   -2.257544   -0.405198
      8          6           0        0.701272    0.583985    0.427955
      9          6           0        0.916943    2.070699    0.100171
     10          1           0       -0.657873   -1.595740    1.131351
     11          1           0       -1.332394   -1.881140   -0.500475
     12          1           0        0.512791   -3.347170   -0.402925
     13          1           0        1.059816   -1.983745   -1.439370
     14          1           0        1.620931   -2.129751    0.273956
     15          1           0        0.607926    0.461676    1.533613
     16          1           0        1.658368    0.089091    0.133942
     17          1           0        1.886270    2.433346    0.514603
     18          1           0        0.942905    2.239820   -1.000776
     19          1           0        0.127062    2.717492    0.543365
 ---------------------------------------------------------------------
                    Distance matrix (angstroms):
                    1          2          3          4          5
     1  B    0.000000
     2  F    1.541078   0.000000
     3  F    1.540798   2.510066   0.000000
     4  F    1.541310   2.440554   2.478010   0.000000
     5  O    1.466677   2.469935   2.492457   2.514434   0.000000
     6  C    2.410242   3.710013   3.184988   2.770170   1.427119
     7  C    3.802291   4.882759   4.619833   4.185025   2.501617
     8  C    2.422333   3.105308   2.809169   3.782793   1.426455
     9  C    2.950948   2.864907   3.245308   4.463419   2.502659
    10  H    2.746029   4.224161   2.957415   3.091570   2.103172
    11  H    2.597838   3.838954   3.561179   2.299498   2.088119
    12  H    4.573213   5.743973   5.348793   4.642592   3.436303
    13  H    4.037959   4.815266   5.111485   4.441892   2.703178
    14  H    4.325622   5.395926   4.886832   4.967376   2.950674
    15  H    2.790403   3.720688   2.575209   4.087495   2.104826
    16  H    3.381324   4.005826   3.893189   4.596660   2.087358
    17  H    4.015869   3.949422   4.105593   5.537401   3.443483
    18  H    3.192351   2.700203   3.887221   4.565571   2.740162
    19  H    2.799716   2.532087   2.733208   4.311242   2.911126
                    6          7          8          9         10
     6  C    0.000000
     7  C    1.538900   0.000000
     8  C    2.358968   2.961528   0.000000
     9  C    3.763750   4.360906   1.537620   0.000000
    10  H    1.116404   2.185514   2.663314   4.121426   0.000000
    11  H    1.117437   2.116676   3.327855   4.586646   1.788655
    12  H    2.200558   1.114803   4.022420   5.456166   2.606140
    13  H    2.200560   1.114217   3.195105   4.339253   3.116025
    14  H    2.215318   1.113082   2.869469   4.262579   2.492637
    15  H    2.636158   3.342584   1.116312   2.176971   2.448882
    16  H    2.613870   2.573999   1.116869   2.116039   3.032895
    17  H    4.547297   4.913788   2.198150   1.114837   4.804849
    18  H    4.066819   4.540797   2.200329   1.114163   4.671186
    19  H    4.218198   5.102624   2.212440   1.112957   4.423327
                   11         12         13         14         15
    11  H    0.000000
    12  H    2.358700   0.000000
    13  H    2.571910   1.797883   0.000000
    14  H    3.063279   1.779958   1.808771   0.000000
    15  H    3.659391   4.273937   3.875941   3.054244   0.000000
    16  H    3.637163   3.661757   2.670248   2.223570   1.789225
    17  H    5.477679   6.011877   4.900176   4.577136   2.561255
    18  H    4.733878   5.635324   4.247886   4.601936   3.114022
    19  H    4.936297   6.150153   5.186800   5.079369   2.510085
                   16         17         18         19
    16  H    0.000000
    17  H    2.385870   0.000000
    18  H    2.534780   1.795484   0.000000
    19  H    3.069368   1.782240   1.810564   0.000000
 Stoichiometry    C4H10BF3O
 Framework group  C1[X(C4H10BF3O)]
 Deg. of freedom    51
 Full point group                 C1      NOp   1
 Largest Abelian subgroup         C1      NOp   1
 Largest concise Abelian subgroup C1      NOp   1
                         Standard orientation:                         
 ---------------------------------------------------------------------
 Center     Atomic      Atomic             Coordinates (Angstroms)
 Number     Number       Type             X           Y           Z
 ---------------------------------------------------------------------
      1          5           0       -0.876547   -0.566638   -0.025366
      2          9           0       -1.904806   -0.016820   -1.032990
      3          9           0       -1.405118   -0.344947    1.404853
      4          9           0       -0.863288   -2.088216   -0.270846
      5          8           0        0.429692    0.067932   -0.230796
      6          6           0        1.515920   -0.750378    0.201807
      7          6           0        2.907813   -0.273618   -0.249354
      8          6           0        0.518835    1.384751    0.310329
      9          6           0       -0.564093    2.364063   -0.171842
     10          1           0        1.502103   -0.879264    1.310660
     11          1           0        1.414300   -1.773469   -0.235941
     12          1           0        3.666489   -1.081209   -0.126912
     13          1           0        2.901514    0.020716   -1.323974
     14          1           0        3.275052    0.587669    0.352537
     15          1           0        0.522743    1.362271    1.426408
     16          1           0        1.482760    1.855429   -0.000649
     17          1           0       -0.323820    3.407651    0.138085
     18          1           0       -0.645056    2.358385   -1.283045
     19          1           0       -1.562840    2.132486    0.261230
 ---------------------------------------------------------------------
 Rotational constants (GHZ):           1.7576319           1.3302101           0.9590643
 Standard basis: Aug-CC-pVDZ (5D, 7F)
 There are   315 symmetry adapted cartesian basis functions of A   symmetry.
 There are   297 symmetry adapted basis functions of A   symmetry.
   297 basis functions,   497 primitive gaussians,   315 cartesian basis functions
    37 alpha electrons       37 beta electrons
       nuclear repulsion energy       514.0244593470 Hartrees.
 NAtoms=   19 NActive=   19 NUniq=   19 SFac= 1.00D+00 NAtFMM=   60 NAOKFM=F Big=F
 Integral buffers will be    131072 words long.
 Raffenetti 2 integral format.
 Two-electron integral symmetry is turned on.
 Nuclear repulsion after empirical dispersion term =      514.0122201598 Hartrees.
 Force PCM accuracy= 1.00D-12.
 ------------------------------------------------------------------------------
 Polarizable Continuum Model (PCM)
 =================================
 Model                : C-PCM.
 Atomic radii         : UFF (Universal Force Field).
 Polarization charges : Total charges.
 Charge compensation  : None.
 Solution method      : On-the-fly selection.
 Cavity type          : Scaled VdW (van der Waals Surface) (Alpha=1.100).
 Cavity algorithm     : GePol (No added spheres)
                        Default sphere list used, NSphG=   19.
                        Lebedev-Laikov grids with approx.  5.0 points / Ang**2.
                        Smoothing algorithm: York/Karplus (Gamma=1.0000).
                        Polarization charges: spherical gaussians, with
                                              point-specific exponents (IZeta= 3).
                        Self-potential: point-specific (ISelfS= 7).
                        Self-field    : sphere-specific E.n sum rule (ISelfD= 2).
 1st derivatives      : Analytical E(r).r(x)/FMM algorithm (CHGder, D1EAlg=3).
                        Cavity 1st derivative terms included.
 Solvent              : Water, Eps=  78.355300 Eps(inf)=   1.777849
 ------------------------------------------------------------------------------
 Spheres list:
 ISph  on   Nord     Re0    Alpha      Xe            Ye            Ze
    1   B      1    2.0415  1.100     -0.876547     -0.566638     -0.025366
    2   F      2    1.6820  1.100     -1.904806     -0.016820     -1.032990
    3   F      3    1.6820  1.100     -1.405118     -0.344947      1.404853
    4   F      4    1.6820  1.100     -0.863288     -2.088216     -0.270846
    5   O      5    1.7500  1.100      0.429692      0.067932     -0.230796
    6   C      6    1.9255  1.100      1.515920     -0.750378      0.201807
    7   C      7    1.9255  1.100      2.907813     -0.273618     -0.249354
    8   C      8    1.9255  1.100      0.518835      1.384751      0.310329
    9   C      9    1.9255  1.100     -0.564093      2.364063     -0.171842
   10   H     10    1.4430  1.100      1.502103     -0.879264      1.310660
   11   H     11    1.4430  1.100      1.414300     -1.773469     -0.235941
   12   H     12    1.4430  1.100      3.666489     -1.081209     -0.126912
   13   H     13    1.4430  1.100      2.901514      0.020716     -1.323974
   14   H     14    1.4430  1.100      3.275052      0.587669      0.352537
   15   H     15    1.4430  1.100      0.522743      1.362271      1.426408
   16   H     16    1.4430  1.100      1.482760      1.855429     -0.000649
   17   H     17    1.4430  1.100     -0.323820      3.407651      0.138085
   18   H     18    1.4430  1.100     -0.645056      2.358385     -1.283045
   19   H     19    1.4430  1.100     -1.562840      2.132486      0.261230
 ------------------------------------------------------------------------------
 One-electron integrals computed using PRISM.
 NBasis=   297 RedAO= T EigKep=  3.04D-05  NBF=   297
 NBsUse=   297 1.00D-06 EigRej= -1.00D+00 NBFU=   297
 ExpMin= 2.38D-02 ExpMax= 1.47D+04 ExpMxC= 5.03D+02 IAcc=3 IRadAn=         5 AccDes= 0.00D+00
 Harris functional with IExCor= 4639 and IRadAn=       5 diagonalized for initial guess.
 HarFok:  IExCor= 4639 AccDes= 0.00D+00 IRadAn=         5 IDoV= 1 UseB2=F ITyADJ=14
 ICtDFT=  3500011 ScaDFX=  1.000000  1.000000  1.000000  1.000000
 FoFCou: FMM=F IPFlag=           0 FMFlag=      100000 FMFlg1=           0
         NFxFlg=           0 DoJE=T BraDBF=F KetDBF=T FulRan=T
         wScrn=  0.000000 ICntrl=       500 IOpCl=  0 I1Cent=   200000004 NGrid=           0
         NMat0=    1 NMatS0=      1 NMatT0=    0 NMatD0=    1 NMtDS0=    0 NMtDT0=    0
 Petite list used in FoFCou.
 Requested convergence on RMS density matrix=1.00D-08 within 128 cycles.
 Requested convergence on MAX density matrix=1.00D-06.
 Requested convergence on             energy=1.00D-06.
 No special actions if energy rises.
 Inv3:  Mode=1 IEnd=     6976875.
 Iteration    1 A*A^-1 deviation from unit magnitude is 3.11D-15 for   1508.
 Iteration    1 A*A^-1 deviation from orthogonality  is 3.27D-15 for   1508    972.
 Iteration    1 A^-1*A deviation from unit magnitude is 3.11D-15 for   1508.
 Iteration    1 A^-1*A deviation from orthogonality  is 1.51D-15 for   1515   1182.
 Error on total polarization charges =  0.01138
 SCF Done:  E(RwB97XD) =  -558.100352540     A.U. after   12 cycles
            NFock= 12  Conv=0.77D-08     -V/T= 2.0075

 **********************************************************************

            Population analysis using the SCF Density.

 **********************************************************************

 Orbital symmetries:
       Occupied  (A) (A) (A) (A) (A) (A) (A) (A) (A) (A) (A) (A)
                 (A) (A) (A) (A) (A) (A) (A) (A) (A) (A) (A) (A)
                 (A) (A) (A) (A) (A) (A) (A) (A) (A) (A) (A) (A)
                 (A)
       Virtual   (A) (A) (A) (A) (A) (A) (A) (A) (A) (A) (A) (A)
                 (A) (A) (A) (A) (A) (A) (A) (A) (A) (A) (A) (A)
                 (A) (A) (A) (A) (A) (A) (A) (A) (A) (A) (A) (A)
                 (A) (A) (A) (A) (A) (A) (A) (A) (A) (A) (A) (A)
                 (A) (A) (A) (A) (A) (A) (A) (A) (A) (A) (A) (A)
                 (A) (A) (A) (A) (A) (A) (A) (A) (A) (A) (A) (A)
                 (A) (A) (A) (A) (A) (A) (A) (A) (A) (A) (A) (A)
                 (A) (A) (A) (A) (A) (A) (A) (A) (A) (A) (A) (A)
                 (A) (A) (A) (A) (A) (A) (A) (A) (A) (A) (A) (A)
                 (A) (A) (A) (A) (A) (A) (A) (A) (A) (A) (A) (A)
                 (A) (A) (A) (A) (A) (A) (A) (A) (A) (A) (A) (A)
                 (A) (A) (A) (A) (A) (A) (A) (A) (A) (A) (A) (A)
                 (A) (A) (A) (A) (A) (A) (A) (A) (A) (A) (A) (A)
                 (A) (A) (A) (A) (A) (A) (A) (A) (A) (A) (A) (A)
                 (A) (A) (A) (A) (A) (A) (A) (A) (A) (A) (A) (A)
                 (A) (A) (A) (A) (A) (A) (A) (A) (A) (A) (A) (A)
                 (A) (A) (A) (A) (A) (A) (A) (A) (A) (A) (A) (A)
                 (A) (A) (A) (A) (A) (A) (A) (A) (A) (A) (A) (A)
                 (A) (A) (A) (A) (A) (A) (A) (A) (A) (A) (A) (A)
                 (A) (A) (A) (A) (A) (A) (A) (A) (A) (A) (A) (A)
                 (A) (A) (A) (A) (A) (A) (A) (A) (A) (A) (A) (A)
                 (A) (A) (A) (A) (A) (A) (A) (A)
 The electronic state is 1-A.
 Alpha  occ. eigenvalues --  -24.81096 -24.80896 -24.80412 -19.42219 -10.39239
 Alpha  occ. eigenvalues --  -10.39237 -10.31620 -10.31195  -7.04733  -1.30005
 Alpha  occ. eigenvalues --   -1.26325  -1.24686  -1.24225  -0.91754  -0.87702
 Alpha  occ. eigenvalues --   -0.78427  -0.76509  -0.69621  -0.64604  -0.63214
 Alpha  occ. eigenvalues --   -0.61663  -0.56623  -0.56498  -0.54992  -0.51331
 Alpha  occ. eigenvalues --   -0.50974  -0.50387  -0.49465  -0.49216  -0.48546
 Alpha  occ. eigenvalues --   -0.47493  -0.47094  -0.46258  -0.46065  -0.45607
 Alpha  occ. eigenvalues --   -0.43939  -0.43529
 Alpha virt. eigenvalues --    0.03702   0.04728   0.04856   0.05096   0.06698
 Alpha virt. eigenvalues --    0.06757   0.07071   0.07435   0.07576   0.09253
 Alpha virt. eigenvalues --    0.09287   0.09717   0.11082   0.11189   0.13701
 Alpha virt. eigenvalues --    0.13891   0.14311   0.14711   0.14765   0.15390
 Alpha virt. eigenvalues --    0.15762   0.16852   0.17644   0.17751   0.18237
 Alpha virt. eigenvalues --    0.18306   0.18701   0.19303   0.20127   0.21003
 Alpha virt. eigenvalues --    0.21865   0.22277   0.22684   0.22991   0.24232
 Alpha virt. eigenvalues --    0.24667   0.25210   0.25666   0.26754   0.26998
 Alpha virt. eigenvalues --    0.27802   0.28079   0.28731   0.29509   0.29690
 Alpha virt. eigenvalues --    0.31329   0.32072   0.32315   0.33099   0.33323
 Alpha virt. eigenvalues --    0.34417   0.35295   0.36043   0.36498   0.37228
 Alpha virt. eigenvalues --    0.38324   0.38429   0.39464   0.39949   0.40720
 Alpha virt. eigenvalues --    0.41112   0.41940   0.42339   0.42540   0.43233
 Alpha virt. eigenvalues --    0.43717   0.44661   0.45124   0.46061   0.46661
 Alpha virt. eigenvalues --    0.46864   0.48015   0.48916   0.50689   0.51637
 Alpha virt. eigenvalues --    0.52029   0.53242   0.53283   0.54007   0.54813
 Alpha virt. eigenvalues --    0.55887   0.56519   0.57296   0.57933   0.58449
 Alpha virt. eigenvalues --    0.59126   0.60132   0.60614   0.60933   0.62068
 Alpha virt. eigenvalues --    0.63624   0.63897   0.64475   0.65949   0.66476
 Alpha virt. eigenvalues --    0.67279   0.68062   0.69802   0.70213   0.70619
 Alpha virt. eigenvalues --    0.71761   0.72207   0.73358   0.74356   0.75228
 Alpha virt. eigenvalues --    0.76018   0.76697   0.77550   0.78199   0.78759
 Alpha virt. eigenvalues --    0.79257   0.80900   0.81091   0.82375   0.83421
 Alpha virt. eigenvalues --    0.84114   0.86278   0.86616   0.88609   0.89262
 Alpha virt. eigenvalues --    0.92083   0.93994   0.95811   0.96474   0.97710
 Alpha virt. eigenvalues --    0.99189   1.01399   1.03874   1.05354   1.06225
 Alpha virt. eigenvalues --    1.07576   1.10053   1.11047   1.13305   1.14592
 Alpha virt. eigenvalues --    1.19913   1.20049   1.20971   1.23236   1.24001
 Alpha virt. eigenvalues --    1.30017   1.30983   1.32666   1.33345   1.34559
 Alpha virt. eigenvalues --    1.36747   1.38103   1.39028   1.40204   1.41797
 Alpha virt. eigenvalues --    1.43263   1.44633   1.45439   1.47676   1.48234
 Alpha virt. eigenvalues --    1.48870   1.49666   1.52203   1.54290   1.54976
 Alpha virt. eigenvalues --    1.56609   1.57568   1.59439   1.61325   1.62347
 Alpha virt. eigenvalues --    1.63610   1.65697   1.67026   1.67520   1.68163
 Alpha virt. eigenvalues --    1.69786   1.70478   1.72463   1.73678   1.75546
 Alpha virt. eigenvalues --    1.76308   1.78157   1.78788   1.80744   1.82932
 Alpha virt. eigenvalues --    1.84255   1.85479   1.87034   1.87538   1.90035
 Alpha virt. eigenvalues --    1.91798   1.92461   1.95516   1.95985   1.96689
 Alpha virt. eigenvalues --    1.97186   1.99420   2.01327   2.03145   2.04583
 Alpha virt. eigenvalues --    2.06960   2.07476   2.08682   2.10230   2.12092
 Alpha virt. eigenvalues --    2.13907   2.15455   2.17576   2.19628   2.21054
 Alpha virt. eigenvalues --    2.22027   2.23461   2.26736   2.27722   2.28359
 Alpha virt. eigenvalues --    2.31969   2.33400   2.35682   2.39442   2.42308
 Alpha virt. eigenvalues --    2.44761   2.46820   2.48525   2.52236   2.52775
 Alpha virt. eigenvalues --    2.56979   2.58450   2.59776   2.61291   2.66337
 Alpha virt. eigenvalues --    2.68427   2.72014   2.76212   2.79312   2.80452
 Alpha virt. eigenvalues --    2.84946   2.86882   2.88464   2.95411   2.98124
 Alpha virt. eigenvalues --    3.03086   3.08162   3.22764   3.29158   3.39038
 Alpha virt. eigenvalues --    3.58051   3.67416   3.68166   3.83400   3.92287
 Alpha virt. eigenvalues --    4.63868   4.64087   4.65471   4.66396   4.70266
 Alpha virt. eigenvalues --    4.72508   4.74123   4.75756   4.77757   4.78623
 Alpha virt. eigenvalues --    4.79739   4.82390   4.85940   4.91445   4.92017
          Condensed to atoms (all electrons):
               1          2          3          4          5          6
     1  B    3.471954   0.044477   0.089712   0.156484  -0.228040  -0.098278
     2  F    0.044477   9.657864  -0.108101  -0.100755   0.133839   0.058962
     3  F    0.089712  -0.108101   9.790714  -0.147976  -0.024213  -0.042782
     4  F    0.156484  -0.100755  -0.147976   9.870940  -0.155193  -0.060098
     5  O   -0.228040   0.133839  -0.024213  -0.155193   9.845110   0.048505
     6  C   -0.098278   0.058962  -0.042782  -0.060098   0.048505   5.143424
     7  C    0.034060   0.006387  -0.018147   0.010785  -0.171305   0.286803
     8  C   -0.001796  -0.114821   0.025039   0.023941  -0.026057  -0.132748
     9  C    0.004136   0.017679  -0.018084   0.009602  -0.106043  -0.100231
    10  H   -0.068955   0.003435   0.028148  -0.007991   0.105931  -0.165478
    11  H    0.036162  -0.001218   0.015771  -0.007086  -0.309930   0.183483
    12  H    0.002698   0.001867  -0.001556  -0.001660   0.091393   0.068179
    13  H   -0.004877  -0.000164   0.000088  -0.001870  -0.098804  -0.124720
    14  H    0.015451  -0.001702   0.001277   0.003468  -0.095427   0.007745
    15  H   -0.083457   0.003119   0.012330   0.005566   0.103510   0.071819
    16  H    0.087010   0.002571  -0.003190  -0.002942  -0.303020  -0.148661
    17  H    0.007604   0.004797   0.001250  -0.000028   0.071228   0.006088
    18  H   -0.014311   0.000551   0.001867   0.004691  -0.048674   0.001965
    19  H    0.044578  -0.018629   0.029093   0.005262  -0.086996  -0.035189
               7          8          9         10         11         12
     1  B    0.034060  -0.001796   0.004136  -0.068955   0.036162   0.002698
     2  F    0.006387  -0.114821   0.017679   0.003435  -0.001218   0.001867
     3  F   -0.018147   0.025039  -0.018084   0.028148   0.015771  -0.001556
     4  F    0.010785   0.023941   0.009602  -0.007991  -0.007086  -0.001660
     5  O   -0.171305  -0.026057  -0.106043   0.105931  -0.309930   0.091393
     6  C    0.286803  -0.132748  -0.100231  -0.165478   0.183483   0.068179
     7  C    4.721853  -0.031893   0.012644  -0.114886  -0.147924   0.317014
     8  C   -0.031893   4.966117   0.169553   0.040923   0.009488  -0.029221
     9  C    0.012644   0.169553   4.803121   0.048939  -0.027055   0.011692
    10  H   -0.114886   0.040923   0.048939   1.652443  -0.223065  -0.062612
    11  H   -0.147924   0.009488  -0.027055  -0.223065   1.946131  -0.158866
    12  H    0.317014  -0.029221   0.011692  -0.062612  -0.158866   1.492142
    13  H    0.362164   0.023330   0.000627   0.104938  -0.089185  -0.235826
    14  H    0.273372   0.032880  -0.018039  -0.129231   0.122772  -0.308158
    15  H   -0.023884   0.009354  -0.092859  -0.016356  -0.001583  -0.000873
    16  H    0.062365   0.109302  -0.158373   0.016528   0.022448  -0.010174
    17  H    0.004197   0.046434   0.268176   0.001213  -0.002253   0.001620
    18  H   -0.015105  -0.124085   0.389640  -0.000705  -0.000463  -0.000681
    19  H    0.009696   0.041141   0.283716   0.001174  -0.002272   0.000320
              13         14         15         16         17         18
     1  B   -0.004877   0.015451  -0.083457   0.087010   0.007604  -0.014311
     2  F   -0.000164  -0.001702   0.003119   0.002571   0.004797   0.000551
     3  F    0.000088   0.001277   0.012330  -0.003190   0.001250   0.001867
     4  F   -0.001870   0.003468   0.005566  -0.002942  -0.000028   0.004691
     5  O   -0.098804  -0.095427   0.103510  -0.303020   0.071228  -0.048674
     6  C   -0.124720   0.007745   0.071819  -0.148661   0.006088   0.001965
     7  C    0.362164   0.273372  -0.023884   0.062365   0.004197  -0.015105
     8  C    0.023330   0.032880   0.009354   0.109302   0.046434  -0.124085
     9  C    0.000627  -0.018039  -0.092859  -0.158373   0.268176   0.389640
    10  H    0.104938  -0.129231  -0.016356   0.016528   0.001213  -0.000705
    11  H   -0.089185   0.122772  -0.001583   0.022448  -0.002253  -0.000463
    12  H   -0.235826  -0.308158  -0.000873  -0.010174   0.001620  -0.000681
    13  H    1.390346  -0.228102  -0.002246  -0.001686  -0.002093   0.001840
    14  H   -0.228102   1.385045  -0.014346   0.013546  -0.002449  -0.000233
    15  H   -0.002246  -0.014346   1.543295  -0.304702  -0.069735   0.107951
    16  H   -0.001686   0.013546  -0.304702   2.187672  -0.095322  -0.121430
    17  H   -0.002093  -0.002449  -0.069735  -0.095322   1.439476  -0.228797
    18  H    0.001840  -0.000233   0.107951  -0.121430  -0.228797   1.387416
    19  H    0.000881   0.001950  -0.134999   0.102273  -0.278885  -0.243632
              19
     1  B    0.044578
     2  F   -0.018629
     3  F    0.029093
     4  F    0.005262
     5  O   -0.086996
     6  C   -0.035189
     7  C    0.009696
     8  C    0.041141
     9  C    0.283716
    10  H    0.001174
    11  H   -0.002272
    12  H    0.000320
    13  H    0.000881
    14  H    0.001950
    15  H   -0.134999
    16  H    0.102273
    17  H   -0.278885
    18  H   -0.243632
    19  H    1.382889
 Mulliken charges:
               1
     1  B    1.505390
     2  F   -0.590157
     3  F   -0.631241
     4  F   -0.605143
     5  O   -0.745814
     6  C    1.031210
     7  C    0.421804
     8  C    0.963120
     9  C    0.501159
    10  H   -0.214393
    11  H   -0.365356
    12  H   -0.177297
    13  H   -0.094641
    14  H   -0.059822
    15  H   -0.111905
    16  H   -0.454216
    17  H   -0.172521
    18  H   -0.097805
    19  H   -0.102372
 Sum of Mulliken charges =  -0.00000
 Mulliken charges with hydrogens summed into heavy atoms:
               1
     1  B    1.505390
     2  F   -0.590157
     3  F   -0.631241
     4  F   -0.605143
     5  O   -0.745814
     6  C    0.451461
     7  C    0.090044
     8  C    0.396999
     9  C    0.128462
 Electronic spatial extent (au):  <R**2>=           1311.1056
 Charge=             -0.0000 electrons
 Dipole moment (field-independent basis, Debye):
    X=              9.1032    Y=              4.4749    Z=              0.6366  Tot=             10.1635
 Quadrupole moment (field-independent basis, Debye-Ang):
   XX=            -53.7664   YY=            -51.7709   ZZ=            -56.9522
   XY=             -5.0862   XZ=              0.0300   YZ=              0.3644
 Traceless Quadrupole moment (field-independent basis, Debye-Ang):
   XX=              0.3968   YY=              2.3922   ZZ=             -2.7890
   XY=             -5.0862   XZ=              0.0300   YZ=              0.3644
 Octapole moment (field-independent basis, Debye-Ang**2):
  XXX=             21.1889  YYY=             16.6657  ZZZ=             -1.6544  XYY=              6.2022
  XXY=             -4.9004  XXZ=              2.4769  XZZ=              5.2134  YZZ=             -0.9859
  YYZ=              2.9514  XYZ=              0.0250
 Hexadecapole moment (field-independent basis, Debye-Ang**3):
 XXXX=           -770.3111 YYYY=           -568.1460 ZZZZ=           -190.4342 XXXY=             -8.7902
 XXXZ=             -7.4293 YYYX=             -7.5999 YYYZ=              1.9461 ZZZX=              4.9294
 ZZZY=              0.8155 XXYY=           -222.9936 XXZZ=           -177.2958 YYZZ=           -128.3439
 XXYZ=              1.5925 YYXZ=              0.6626 ZZXY=              1.1453
 N-N= 5.140122201598D+02 E-N=-2.343364281813D+03  KE= 5.539492151667D+02
 D1PCM: C-PCM CHGder 1st derivatives, ID1Alg=3 FixD1E=F DoIter=F DoCFld=F I1PDM=0.
 Calling FoFJK, ICntrl=      2127 FMM=F ISym2X=0 I1Cent= 0 IOpClX= 0 NMat=1 NMatS=1 NMatT=0.
 ***** Axes restored to original set *****
 -------------------------------------------------------------------
 Center     Atomic                   Forces (Hartrees/Bohr)
 Number     Number              X              Y              Z
 -------------------------------------------------------------------
      1        5          -0.095627099    0.054401552    0.001132952
      2        9           0.008033374   -0.054257402    0.038595111
      3        9           0.014819418   -0.020427945   -0.061999316
      4        9           0.058294355    0.029851586    0.017641196
      5        8          -0.008300138    0.004132652   -0.006468656
      6        6          -0.010543629   -0.075658292    0.003362897
      7        6           0.014505729    0.007946225   -0.000224806
      8        6           0.064137819    0.030406401    0.026500892
      9        6          -0.010717012    0.009746474   -0.005519108
     10        1           0.002898188    0.010187772   -0.010369508
     11        1           0.007859639    0.019623880    0.005962439
     12        1          -0.004459196    0.013950861    0.001389285
     13        1          -0.003871682   -0.002274698    0.009368840
     14        1          -0.007473880   -0.000297523   -0.007087009
     15        1          -0.007046871   -0.003200950   -0.014001465
     16        1          -0.020053140   -0.002499022   -0.001555217
     17        1          -0.008658481   -0.011953752   -0.002088422
     18        1          -0.000551452   -0.002428188    0.011234669
     19        1           0.006754059   -0.007249630   -0.005874774
 -------------------------------------------------------------------
 Cartesian Forces:  Max     0.095627099 RMS     0.026556917

 GradGradGradGradGradGradGradGradGradGradGradGradGradGradGradGradGradGrad
 Berny optimization.
 FormGI is forming the generalized inverse of G from B-inverse, IUseBI=4.
 Internal  Forces:  Max     0.067262939 RMS     0.014820425
 Search for a local minimum.
 Step number   1 out of a maximum of   97
 All quantities printed in internal units (Hartrees-Bohrs-Radians)
 Mixed Optimization -- RFO/linear search
 Second derivative matrix not updated -- first step.
 ITU=  0
     Eigenvalues ---    0.00251   0.00268   0.01333   0.01339   0.01342
     Eigenvalues ---    0.02840   0.03984   0.03993   0.05267   0.05280
     Eigenvalues ---    0.05449   0.05478   0.05624   0.05636   0.09809
     Eigenvalues ---    0.09828   0.10871   0.11337   0.13172   0.13184
     Eigenvalues ---    0.16000   0.16000   0.16000   0.16000   0.16000
     Eigenvalues ---    0.16000   0.18004   0.18380   0.21989   0.21998
     Eigenvalues ---    0.25000   0.25000   0.25000   0.28403   0.28424
     Eigenvalues ---    0.28448   0.28617   0.28731   0.31825   0.31883
     Eigenvalues ---    0.31931   0.31941   0.32093   0.32097   0.32158
     Eigenvalues ---    0.32163   0.32276   0.32289   0.36141   0.41406
     Eigenvalues ---    0.41503
 RFO step:  Lambda=-5.85052149D-02 EMin= 2.51369611D-03
 Linear search not attempted -- first point.
 Maximum step size (   0.300) exceeded in Quadratic search.
    -- Step size scaled by   0.722
 Iteration  1 RMS(Cart)=  0.03454371 RMS(Int)=  0.00079422
 Iteration  2 RMS(Cart)=  0.00080279 RMS(Int)=  0.00035479
 Iteration  3 RMS(Cart)=  0.00000134 RMS(Int)=  0.00035479
 Iteration  4 RMS(Cart)=  0.00000000 RMS(Int)=  0.00035479
 Variable       Old X    -DE/DX   Delta X   Delta X   Delta X     New X
                                 (Linear)    (Quad)   (Total)
    R1        2.91222  -0.06687   0.00000  -0.14081  -0.14081   2.77141
    R2        2.91169  -0.06668   0.00000  -0.14031  -0.14031   2.77138
    R3        2.91265  -0.06726   0.00000  -0.14172  -0.14172   2.77094
    R4        2.77162   0.01657   0.00000   0.02847   0.02847   2.80009
    R5        2.69686   0.02647   0.00000   0.04042   0.04042   2.73728
    R6        2.69561   0.02795   0.00000   0.04260   0.04260   2.73820
    R7        2.90810  -0.01244   0.00000  -0.02605  -0.02605   2.88205
    R8        2.10970  -0.01212   0.00000  -0.02315  -0.02315   2.08655
    R9        2.11165  -0.01693   0.00000  -0.03244  -0.03244   2.07921
   R10        2.10667  -0.01269   0.00000  -0.02414  -0.02414   2.08254
   R11        2.10556  -0.01034   0.00000  -0.01964  -0.01964   2.08593
   R12        2.10342  -0.01021   0.00000  -0.01933  -0.01933   2.08409
   R13        2.90568  -0.01286   0.00000  -0.02683  -0.02683   2.87885
   R14        2.10952  -0.01293   0.00000  -0.02469  -0.02469   2.08484
   R15        2.11058  -0.01567   0.00000  -0.02997  -0.02997   2.08061
   R16        2.10674  -0.01219   0.00000  -0.02319  -0.02319   2.08354
   R17        2.10546  -0.01148   0.00000  -0.02180  -0.02180   2.08367
   R18        2.10318  -0.01135   0.00000  -0.02147  -0.02147   2.08172
    A1        1.90360   0.00679   0.00000   0.01626   0.01618   1.91978
    A2        1.82742   0.01114   0.00000   0.02899   0.02891   1.85633
    A3        1.92656  -0.00431   0.00000  -0.00830  -0.00839   1.91817
    A4        1.86798   0.00998   0.00000   0.02027   0.01985   1.88782
    A5        1.95334  -0.00785   0.00000  -0.01992  -0.02019   1.93315
    A6        1.97921  -0.01360   0.00000  -0.03206  -0.03232   1.94689
    A7        1.96853  -0.00069   0.00000   0.00342   0.00320   1.97173
    A8        1.98442   0.00461   0.00000   0.01944   0.01935   2.00377
    A9        1.94633  -0.00075   0.00000   0.00335   0.00314   1.94947
   A10        2.00635  -0.01017   0.00000  -0.02928  -0.02907   1.97728
   A11        1.93677  -0.00167   0.00000  -0.01897  -0.01882   1.91795
   A12        1.91455  -0.00697   0.00000  -0.03668  -0.03618   1.87837
   A13        1.91575   0.00680   0.00000   0.02513   0.02432   1.94006
   A14        1.82456   0.01283   0.00000   0.05172   0.05098   1.87555
   A15        1.85695   0.00055   0.00000   0.01463   0.01300   1.86995
   A16        1.93789  -0.01097   0.00000  -0.03812  -0.03818   1.89971
   A17        1.93850   0.00016   0.00000   0.00044   0.00031   1.93882
   A18        1.96017   0.00273   0.00000   0.01101   0.01103   1.97119
   A19        1.87669   0.00412   0.00000   0.00976   0.00957   1.88625
   A20        1.85108   0.00454   0.00000   0.01519   0.01527   1.86635
   A21        1.89546  -0.00016   0.00000   0.00293   0.00289   1.89834
   A22        2.00974  -0.00447   0.00000  -0.01395  -0.01375   1.99599
   A23        1.94003  -0.00445   0.00000  -0.02614  -0.02608   1.91394
   A24        1.91489  -0.00750   0.00000  -0.03719  -0.03704   1.87786
   A25        1.90584   0.00631   0.00000   0.02623   0.02573   1.93157
   A26        1.82567   0.00973   0.00000   0.04131   0.04083   1.86650
   A27        1.85860   0.00153   0.00000   0.01558   0.01405   1.87265
   A28        1.93610  -0.01240   0.00000  -0.04255  -0.04262   1.89348
   A29        1.93980   0.00086   0.00000   0.00291   0.00281   1.94261
   A30        1.95786   0.00167   0.00000   0.00708   0.00707   1.96493
   A31        1.87307   0.00482   0.00000   0.01294   0.01279   1.88586
   A32        1.85460   0.00573   0.00000   0.01887   0.01889   1.87349
   A33        1.89844  -0.00021   0.00000   0.00219   0.00215   1.90059
    D1       -2.68510   0.00063   0.00000   0.01102   0.01106  -2.67404
    D2        1.35998  -0.00177   0.00000  -0.01385  -0.01389   1.34609
    D3        1.47436   0.00036   0.00000   0.00972   0.00990   1.48426
    D4       -0.76374  -0.00204   0.00000  -0.01514  -0.01506  -0.77880
    D5       -0.64101   0.00310   0.00000   0.02153   0.02144  -0.61957
    D6       -2.87911   0.00070   0.00000  -0.00334  -0.00351  -2.88262
    D7        2.92996  -0.00114   0.00000  -0.01050  -0.01044   2.91952
    D8       -1.16644  -0.00141   0.00000  -0.01564  -0.01551  -1.18195
    D9        0.88039  -0.00603   0.00000  -0.03166  -0.03174   0.84865
   D10       -1.09539   0.00400   0.00000   0.02217   0.02216  -1.07323
   D11        1.09139   0.00373   0.00000   0.01703   0.01709   1.10848
   D12        3.13822  -0.00089   0.00000   0.00101   0.00086   3.13908
   D13       -0.95528   0.00194   0.00000   0.01504   0.01507  -0.94020
   D14        1.22346   0.00323   0.00000   0.01766   0.01763   1.24108
   D15       -3.00870  -0.00225   0.00000  -0.00215  -0.00201  -3.01072
   D16        3.07847  -0.00042   0.00000  -0.00939  -0.00945   3.06902
   D17       -1.02598   0.00088   0.00000  -0.00677  -0.00690  -1.03288
   D18        1.02504  -0.00460   0.00000  -0.02659  -0.02654   0.99850
   D19       -2.87012   0.00088   0.00000   0.00194   0.00197  -2.86815
   D20       -0.78278  -0.00109   0.00000  -0.01069  -0.01055  -0.79333
   D21        1.34374   0.00075   0.00000   0.00121   0.00135   1.34510
   D22        1.21538   0.00540   0.00000   0.02947   0.02991   1.24529
   D23       -2.98046   0.00343   0.00000   0.01683   0.01740  -2.96306
   D24       -0.85394   0.00527   0.00000   0.02874   0.02930  -0.82464
   D25       -0.77027  -0.00474   0.00000  -0.02468  -0.02538  -0.79565
   D26        1.31708  -0.00671   0.00000  -0.03731  -0.03790   1.27918
   D27       -2.83959  -0.00487   0.00000  -0.02541  -0.02600  -2.86559
   D28       -2.95794   0.00064   0.00000   0.00150   0.00147  -2.95646
   D29       -0.87547  -0.00089   0.00000  -0.00834  -0.00829  -0.88376
   D30        1.25421   0.00065   0.00000   0.00162   0.00166   1.25586
   D31        1.12880   0.00482   0.00000   0.02562   0.02598   1.15478
   D32       -3.07192   0.00329   0.00000   0.01578   0.01622  -3.05571
   D33       -0.94225   0.00483   0.00000   0.02574   0.02616  -0.91608
   D34       -0.85494  -0.00450   0.00000  -0.02412  -0.02460  -0.87953
   D35        1.22753  -0.00604   0.00000  -0.03396  -0.03436   1.19317
   D36       -2.92598  -0.00450   0.00000  -0.02399  -0.02441  -2.95039
         Item               Value     Threshold  Converged?
 Maximum Force            0.067263     0.000450     NO 
 RMS     Force            0.014820     0.000300     NO 
 Maximum Displacement     0.132696     0.001800     NO 
 RMS     Displacement     0.034476     0.001200     NO 
 Predicted change in Energy=-3.002865D-02
 GradGradGradGradGradGradGradGradGradGradGradGradGradGradGradGradGradGrad

                          Input orientation:                          
 ---------------------------------------------------------------------
 Center     Atomic      Atomic             Coordinates (Angstroms)
 Number     Number       Type             X           Y           Z
 ---------------------------------------------------------------------
      1          5           0       -1.694797    0.665751   -0.070547
      2          9           0       -1.740955    1.847667   -0.937588
      3          9           0       -1.896496    1.061040    1.327248
      4          9           0       -2.819598   -0.185048   -0.471852
      5          8           0       -0.398204   -0.031828   -0.237264
      6          6           0       -0.476733   -1.448404    0.054834
      7          6           0        0.751979   -2.227456   -0.402680
      8          6           0        0.720026    0.593496    0.439581
      9          6           0        0.919651    2.064244    0.096277
     10          1           0       -0.666372   -1.599908    1.131979
     11          1           0       -1.344678   -1.852672   -0.487233
     12          1           0        0.509701   -3.302503   -0.409408
     13          1           0        1.048357   -1.936788   -1.425473
     14          1           0        1.617718   -2.097468    0.268052
     15          1           0        0.616650    0.458587    1.529658
     16          1           0        1.634612    0.064664    0.129591
     17          1           0        1.891016    2.389713    0.503911
     18          1           0        0.936798    2.222163   -0.994849
     19          1           0        0.144865    2.710731    0.538178
 ---------------------------------------------------------------------
                    Distance matrix (angstroms):
                    1          2          3          4          5
     1  B    0.000000
     2  F    1.466566   0.000000
     3  F    1.466549   2.402594   0.000000
     4  F    1.466316   2.347831   2.375208   0.000000
     5  O    1.481744   2.413697   2.426302   2.437551   0.000000
     6  C    2.443164   3.667048   3.151519   2.713389   1.448508
     7  C    3.803640   4.807023   4.563034   4.114897   2.484163
     8  C    2.469174   3.086416   2.802274   3.737081   1.448995
     9  C    2.969672   2.862623   3.233016   4.400462   2.498301
    10  H    2.763501   4.162164   2.938023   3.034877   2.098956
    11  H    2.576562   3.748648   3.476574   2.226342   2.067311
    12  H    4.552107   5.645235   5.276956   4.561431   3.398712
    13  H    4.016706   4.726562   5.023605   4.351903   2.670815
    14  H    4.326984   5.319619   4.842290   4.888208   2.930215
    15  H    2.818929   3.684447   2.592262   4.028412   2.095817
    16  H    3.389148   3.963890   3.859517   4.501563   2.067905
    17  H    4.019963   3.944991   4.097378   5.456317   3.413756
    18  H    3.194064   2.704420   3.842902   4.492071   2.727020
    19  H    2.817241   2.545404   2.740670   4.265412   2.901356
                    6          7          8          9         10
     6  C    0.000000
     7  C    1.525115   0.000000
     8  C    2.397836   2.944180   0.000000
     9  C    3.780252   4.323860   1.523420   0.000000
    10  H    1.104155   2.181907   2.685617   4.124822   0.000000
    11  H    1.100271   2.131568   3.332525   4.561788   1.773650
    12  H    2.150873   1.102031   3.992973   5.406085   2.580282
    13  H    2.180763   1.103826   3.160469   4.282587   3.097474
    14  H    2.203060   1.102852   2.841930   4.223347   2.492189
    15  H    2.647113   3.311657   1.103248   2.173598   2.457986
    16  H    2.598604   2.513199   1.101010   2.123817   3.011662
    17  H    4.532002   4.841235   2.145169   1.102563   4.780353
    18  H    4.070990   4.492652   2.181085   1.102628   4.658517
    19  H    4.233015   5.063546   2.196182   1.101597   4.426321
                   11         12         13         14         15
    11  H    0.000000
    12  H    2.355161   0.000000
    13  H    2.571767   1.785418   0.000000
    14  H    3.066948   1.771656   1.793883   0.000000
    15  H    3.640958   4.232873   3.828445   3.021127   0.000000
    16  H    3.596222   3.590788   2.601486   2.166627   1.775277
    17  H    5.426777   5.928196   4.811570   4.501679   2.530892
    18  H    4.697562   5.571991   4.182673   4.551680   3.096100
    19  H    4.908651   6.098362   5.125589   5.035976   2.505548
                   16         17         18         19
    16  H    0.000000
    17  H    2.368905   0.000000
    18  H    2.531030   1.784626   0.000000
    19  H    3.063978   1.775746   1.793329   0.000000
 Stoichiometry    C4H10BF3O
 Framework group  C1[X(C4H10BF3O)]
 Deg. of freedom    51
 Full point group                 C1      NOp   1
 Largest Abelian subgroup         C1      NOp   1
 Largest concise Abelian subgroup C1      NOp   1
                         Standard orientation:                         
 ---------------------------------------------------------------------
 Center     Atomic      Atomic             Coordinates (Angstroms)
 Number     Number       Type             X           Y           Z
 ---------------------------------------------------------------------
      1          5           0       -0.913645   -0.572060   -0.025746
      2          9           0       -1.869414   -0.025004   -0.994276
      3          9           0       -1.402457   -0.353291    1.339527
      4          9           0       -0.862813   -2.017507   -0.266954
      5          8           0        0.413752    0.058406   -0.215732
      6          6           0        1.508252   -0.788356    0.212333
      7          6           0        2.872783   -0.291956   -0.254161
      8          6           0        0.532340    1.399216    0.320693
      9          6           0       -0.533835    2.369606   -0.171671
     10          1           0        1.482174   -0.910050    1.309451
     11          1           0        1.350934   -1.784230   -0.228217
     12          1           0        3.605287   -1.107840   -0.143519
     13          1           0        2.845991    0.002338   -1.317695
     14          1           0        3.246994    0.558475    0.339992
     15          1           0        0.542529    1.358393    1.423139
     16          1           0        1.505451    1.801477   -0.000963
     17          1           0       -0.247467    3.389036    0.135579
     18          1           0       -0.612870    2.353696   -1.271348
     19          1           0       -1.525892    2.162928    0.260327
 ---------------------------------------------------------------------
 Rotational constants (GHZ):           1.8127268           1.3712727           0.9780119
 Standard basis: Aug-CC-pVDZ (5D, 7F)
 There are   315 symmetry adapted cartesian basis functions of A   symmetry.
 There are   297 symmetry adapted basis functions of A   symmetry.
   297 basis functions,   497 primitive gaussians,   315 cartesian basis functions
    37 alpha electrons       37 beta electrons
       nuclear repulsion energy       521.2742553550 Hartrees.
 NAtoms=   19 NActive=   19 NUniq=   19 SFac= 1.00D+00 NAtFMM=   60 NAOKFM=F Big=F
 Integral buffers will be    131072 words long.
 Raffenetti 2 integral format.
 Two-electron integral symmetry is turned on.
 Nuclear repulsion after empirical dispersion term =      521.2620491614 Hartrees.
 Force PCM accuracy= 1.00D-12.
 ------------------------------------------------------------------------------
 Polarizable Continuum Model (PCM)
 =================================
 Model                : C-PCM.
 Atomic radii         : UFF (Universal Force Field).
 Polarization charges : Total charges.
 Charge compensation  : None.
 Solution method      : On-the-fly selection.
 Cavity type          : Scaled VdW (van der Waals Surface) (Alpha=1.100).
 Cavity algorithm     : GePol (No added spheres)
                        Default sphere list used, NSphG=   19.
                        Lebedev-Laikov grids with approx.  5.0 points / Ang**2.
                        Smoothing algorithm: York/Karplus (Gamma=1.0000).
                        Polarization charges: spherical gaussians, with
                                              point-specific exponents (IZeta= 3).
                        Self-potential: point-specific (ISelfS= 7).
                        Self-field    : sphere-specific E.n sum rule (ISelfD= 2).
 1st derivatives      : Analytical E(r).r(x)/FMM algorithm (CHGder, D1EAlg=3).
                        Cavity 1st derivative terms included.
 Solvent              : Water, Eps=  78.355300 Eps(inf)=   1.777849
 ------------------------------------------------------------------------------
 Spheres list:
 ISph  on   Nord     Re0    Alpha      Xe            Ye            Ze
    1   B      1    2.0415  1.100     -0.913645     -0.572060     -0.025746
    2   F      2    1.6820  1.100     -1.869414     -0.025004     -0.994276
    3   F      3    1.6820  1.100     -1.402457     -0.353291      1.339527
    4   F      4    1.6820  1.100     -0.862813     -2.017507     -0.266954
    5   O      5    1.7500  1.100      0.413752      0.058406     -0.215732
    6   C      6    1.9255  1.100      1.508252     -0.788356      0.212333
    7   C      7    1.9255  1.100      2.872783     -0.291956     -0.254161
    8   C      8    1.9255  1.100      0.532340      1.399216      0.320693
    9   C      9    1.9255  1.100     -0.533835      2.369606     -0.171671
   10   H     10    1.4430  1.100      1.482174     -0.910050      1.309451
   11   H     11    1.4430  1.100      1.350934     -1.784230     -0.228217
   12   H     12    1.4430  1.100      3.605287     -1.107840     -0.143519
   13   H     13    1.4430  1.100      2.845991      0.002338     -1.317695
   14   H     14    1.4430  1.100      3.246994      0.558475      0.339992
   15   H     15    1.4430  1.100      0.542529      1.358393      1.423139
   16   H     16    1.4430  1.100      1.505451      1.801477     -0.000963
   17   H     17    1.4430  1.100     -0.247467      3.389036      0.135579
   18   H     18    1.4430  1.100     -0.612870      2.353696     -1.271348
   19   H     19    1.4430  1.100     -1.525892      2.162928      0.260327
 ------------------------------------------------------------------------------
 One-electron integrals computed using PRISM.
 NBasis=   297 RedAO= T EigKep=  2.99D-05  NBF=   297
 NBsUse=   297 1.00D-06 EigRej= -1.00D+00 NBFU=   297
 Initial guess from the checkpoint file:  "/inspire/hdd/project/materialscienceresearch/lipenghui-253107030018/g16/00-B-DFT-Shift/04-output/BF3OEt2_D2O/BF3OEt2_D2O.chk"
 B after Tr=     0.000000    0.000000    0.000000
         Rot=    0.999988   -0.001224    0.000737    0.004690 Ang=  -0.56 deg.
 ExpMin= 2.38D-02 ExpMax= 1.47D+04 ExpMxC= 5.03D+02 IAcc=3 IRadAn=         5 AccDes= 0.00D+00
 Harris functional with IExCor= 4639 and IRadAn=       5 diagonalized for initial guess.
 HarFok:  IExCor= 4639 AccDes= 0.00D+00 IRadAn=         5 IDoV= 1 UseB2=F ITyADJ=14
 ICtDFT=  3500011 ScaDFX=  1.000000  1.000000  1.000000  1.000000
 FoFCou: FMM=F IPFlag=           0 FMFlag=      100000 FMFlg1=           0
         NFxFlg=           0 DoJE=T BraDBF=F KetDBF=T FulRan=T
         wScrn=  0.000000 ICntrl=       500 IOpCl=  0 I1Cent=   200000004 NGrid=           0
         NMat0=    1 NMatS0=      1 NMatT0=    0 NMatD0=    1 NMtDS0=    0 NMtDT0=    0
 Petite list used in FoFCou.
 Requested convergence on RMS density matrix=1.00D-08 within 128 cycles.
 Requested convergence on MAX density matrix=1.00D-06.
 Requested convergence on             energy=1.00D-06.
 No special actions if energy rises.
 Inv3:  Mode=1 IEnd=     6867507.
 Iteration    1 A*A^-1 deviation from unit magnitude is 5.55D-15 for   1499.
 Iteration    1 A*A^-1 deviation from orthogonality  is 2.22D-15 for   1495    955.
 Iteration    1 A^-1*A deviation from unit magnitude is 5.11D-15 for   1499.
 Iteration    1 A^-1*A deviation from orthogonality  is 1.89D-15 for   1513    863.
 Error on total polarization charges =  0.01119
 SCF Done:  E(RwB97XD) =  -558.133959059     A.U. after   11 cycles
            NFock= 11  Conv=0.40D-08     -V/T= 2.0067
 D1PCM: C-PCM CHGder 1st derivatives, ID1Alg=3 FixD1E=F DoIter=F DoCFld=F I1PDM=0.
 Calling FoFJK, ICntrl=      2127 FMM=F ISym2X=0 I1Cent= 0 IOpClX= 0 NMat=1 NMatS=1 NMatT=0.
 ***** Axes restored to original set *****
 -------------------------------------------------------------------
 Center     Atomic                   Forces (Hartrees/Bohr)
 Number     Number              X              Y              Z
 -------------------------------------------------------------------
      1        5          -0.067897409    0.038119272    0.000115815
      2        9           0.007253917   -0.031333452    0.022645638
      3        9           0.010648938   -0.011791501   -0.034516982
      4        9           0.034007260    0.015943152    0.009800077
      5        8           0.001374757   -0.001744255   -0.001570727
      6        6          -0.002629880   -0.042590601    0.000036793
      7        6           0.007078611    0.005696883    0.000661799
      8        6           0.035631954    0.016912847    0.012748958
      9        6          -0.007415058    0.003825824   -0.002932913
     10        1           0.002165508    0.006752295   -0.003364977
     11        1           0.003177364    0.010694731    0.001375851
     12        1          -0.002277481    0.004836874    0.000571882
     13        1          -0.002252496   -0.001304497    0.003496980
     14        1          -0.003509080   -0.000195788   -0.002832729
     15        1          -0.005630571   -0.001875963   -0.005594607
     16        1          -0.009685357   -0.002090782   -0.002245267
     17        1          -0.002792811   -0.005189450   -0.000428637
     18        1           0.000314898   -0.001258690    0.004463399
     19        1           0.002436936   -0.003406900   -0.002430355
 -------------------------------------------------------------------
 Cartesian Forces:  Max     0.067897409 RMS     0.016099825

 GradGradGradGradGradGradGradGradGradGradGradGradGradGradGradGradGradGrad
 Berny optimization.
 Using GEDIIS/GDIIS optimizer.
 FormGI is forming the generalized inverse of G from B-inverse, IUseBI=4.
 Internal  Forces:  Max     0.038868640 RMS     0.008583535
 Search for a local minimum.
 Step number   2 out of a maximum of   97
 All quantities printed in internal units (Hartrees-Bohrs-Radians)
 Mixed Optimization -- RFO/linear search
 Update second derivatives using D2CorX and points    1    2
 DE= -3.36D-02 DEPred=-3.00D-02 R= 1.12D+00
 TightC=F SS=  1.41D+00  RLast= 3.21D-01 DXNew= 5.0454D-01 9.6358D-01
 Trust test= 1.12D+00 RLast= 3.21D-01 DXMaxT set to 5.05D-01
 ITU=  1  0
 Use linear search instead of GDIIS.
     Eigenvalues ---    0.00251   0.00268   0.01333   0.01339   0.01342
     Eigenvalues ---    0.02734   0.04067   0.04147   0.05220   0.05254
     Eigenvalues ---    0.05520   0.05523   0.05674   0.05723   0.09695
     Eigenvalues ---    0.09837   0.11344   0.11573   0.13023   0.13117
     Eigenvalues ---    0.15912   0.16000   0.16000   0.16000   0.16000
     Eigenvalues ---    0.16122   0.18104   0.18503   0.19148   0.22025
     Eigenvalues ---    0.22176   0.25000   0.25010   0.26675   0.28416
     Eigenvalues ---    0.28449   0.28638   0.28744   0.31837   0.31895
     Eigenvalues ---    0.31935   0.31994   0.32095   0.32140   0.32160
     Eigenvalues ---    0.32254   0.32281   0.32705   0.37050   0.41054
     Eigenvalues ---    0.41535
 RFO step:  Lambda=-3.89102421D-03 EMin= 2.51379415D-03
 Quartic linear search produced a step of  0.99934.
 Iteration  1 RMS(Cart)=  0.03485760 RMS(Int)=  0.00132011
 Iteration  2 RMS(Cart)=  0.00137371 RMS(Int)=  0.00076819
 Iteration  3 RMS(Cart)=  0.00000445 RMS(Int)=  0.00076818
 Iteration  4 RMS(Cart)=  0.00000001 RMS(Int)=  0.00076818
 Variable       Old X    -DE/DX   Delta X   Delta X   Delta X     New X
                                 (Linear)    (Quad)   (Total)
    R1        2.77141  -0.03887  -0.14072  -0.02487  -0.16558   2.60582
    R2        2.77138  -0.03755  -0.14022  -0.01640  -0.15661   2.61476
    R3        2.77094  -0.03802  -0.14163  -0.01751  -0.15913   2.61180
    R4        2.80009   0.01891   0.02845   0.05677   0.08522   2.88531
    R5        2.73728   0.01566   0.04039   0.01043   0.05083   2.78811
    R6        2.73820   0.01456   0.04257   0.00161   0.04417   2.78238
    R7        2.88205  -0.00595  -0.02603   0.00419  -0.02184   2.86021
    R8        2.08655  -0.00458  -0.02313   0.01075  -0.01238   2.07417
    R9        2.07921  -0.00712  -0.03242   0.01064  -0.02178   2.05743
   R10        2.08254  -0.00422  -0.02412   0.01470  -0.00942   2.07312
   R11        2.08593  -0.00419  -0.01962   0.00733  -0.01229   2.07364
   R12        2.08409  -0.00449  -0.01932   0.00506  -0.01426   2.06983
   R13        2.87885  -0.00649  -0.02682   0.00197  -0.02484   2.85400
   R14        2.08484  -0.00477  -0.02467   0.01216  -0.01251   2.07233
   R15        2.08061  -0.00641  -0.02995   0.01089  -0.01906   2.06155
   R16        2.08354  -0.00416  -0.02318   0.01353  -0.00965   2.07389
   R17        2.08367  -0.00459  -0.02178   0.00856  -0.01322   2.07044
   R18        2.08172  -0.00469  -0.02145   0.00747  -0.01398   2.06774
    A1        1.91978   0.00668   0.01617   0.01755   0.03201   1.95179
    A2        1.85633   0.01065   0.02889   0.04019   0.06790   1.92423
    A3        1.91817  -0.00665  -0.00838  -0.03597  -0.04570   1.87247
    A4        1.88782   0.00928   0.01983   0.03630   0.05413   1.94195
    A5        1.93315  -0.00763  -0.02018  -0.02747  -0.04940   1.88375
    A6        1.94689  -0.01120  -0.03230  -0.02642  -0.06021   1.88667
    A7        1.97173   0.00154   0.00320   0.01586   0.01884   1.99057
    A8        2.00377   0.00123   0.01934  -0.01923  -0.00003   2.00374
    A9        1.94947  -0.00074   0.00313  -0.00775  -0.00492   1.94455
   A10        1.97728  -0.00278  -0.02905   0.02436  -0.00422   1.97306
   A11        1.91795  -0.00262  -0.01881  -0.01267  -0.03130   1.88664
   A12        1.87837  -0.00473  -0.03616  -0.00321  -0.03878   1.83959
   A13        1.94006   0.00315   0.02430  -0.00287   0.02010   1.96017
   A14        1.87555   0.00605   0.05095  -0.01562   0.03413   1.90968
   A15        1.86995   0.00108   0.01299   0.00932   0.01924   1.88919
   A16        1.89971  -0.00485  -0.03815   0.01791  -0.02036   1.87936
   A17        1.93882  -0.00039   0.00031  -0.00524  -0.00510   1.93372
   A18        1.97119   0.00104   0.01102  -0.00758   0.00346   1.97465
   A19        1.88625   0.00171   0.00956  -0.00408   0.00516   1.89141
   A20        1.86635   0.00209   0.01526  -0.00652   0.00883   1.87519
   A21        1.89834   0.00053   0.00289   0.00554   0.00838   1.90673
   A22        1.99599  -0.00288  -0.01374  -0.00627  -0.01965   1.97634
   A23        1.91394  -0.00312  -0.02607  -0.00979  -0.03572   1.87823
   A24        1.87786  -0.00403  -0.03701   0.01128  -0.02524   1.85262
   A25        1.93157   0.00377   0.02571  -0.00280   0.02141   1.95298
   A26        1.86650   0.00539   0.04080  -0.00180   0.03791   1.90441
   A27        1.87265   0.00110   0.01404   0.01140   0.02250   1.89515
   A28        1.89348  -0.00595  -0.04259   0.01511  -0.02762   1.86586
   A29        1.94261   0.00016   0.00281  -0.00429  -0.00161   1.94100
   A30        1.96493   0.00031   0.00707  -0.00904  -0.00201   1.96292
   A31        1.88586   0.00223   0.01278  -0.00305   0.00947   1.89534
   A32        1.87349   0.00303   0.01888  -0.00161   0.01723   1.89072
   A33        1.90059   0.00040   0.00215   0.00318   0.00530   1.90589
    D1       -2.67404  -0.00033   0.01105  -0.03828  -0.02694  -2.70098
    D2        1.34609  -0.00188  -0.01388  -0.02424  -0.03798   1.30811
    D3        1.48426   0.00076   0.00989  -0.01812  -0.00803   1.47623
    D4       -0.77880  -0.00079  -0.01505  -0.00407  -0.01907  -0.79787
    D5       -0.61957   0.00174   0.02143  -0.02764  -0.00648  -0.62604
    D6       -2.88262   0.00019  -0.00351  -0.01359  -0.01752  -2.90014
    D7        2.91952  -0.00067  -0.01043  -0.00570  -0.01610   2.90343
    D8       -1.18195  -0.00061  -0.01550  -0.00124  -0.01680  -1.19875
    D9        0.84865  -0.00338  -0.03172   0.00128  -0.03032   0.81833
   D10       -1.07323   0.00178   0.02214  -0.02561  -0.00349  -1.07673
   D11        1.10848   0.00183   0.01708  -0.02115  -0.00420   1.10428
   D12        3.13908  -0.00093   0.00086  -0.01863  -0.01772   3.12136
   D13       -0.94020   0.00183   0.01506   0.00938   0.02428  -0.91592
   D14        1.24108   0.00217   0.01761  -0.00692   0.01077   1.25185
   D15       -3.01072  -0.00041  -0.00201   0.00768   0.00581  -3.00491
   D16        3.06902  -0.00080  -0.00945   0.01155   0.00191   3.07093
   D17       -1.03288  -0.00046  -0.00689  -0.00475  -0.01160  -1.04448
   D18        0.99850  -0.00304  -0.02652   0.00986  -0.01656   0.98194
   D19       -2.86815   0.00037   0.00197  -0.00370  -0.00174  -2.86989
   D20       -0.79333  -0.00082  -0.01054  -0.00062  -0.01097  -0.80429
   D21        1.34510   0.00034   0.00135  -0.00282  -0.00131   1.34378
   D22        1.24529   0.00348   0.02989  -0.00319   0.02741   1.27271
   D23       -2.96306   0.00230   0.01739  -0.00010   0.01819  -2.94488
   D24       -0.82464   0.00346   0.02928  -0.00230   0.02784  -0.79681
   D25       -0.79565  -0.00314  -0.02537  -0.00356  -0.02998  -0.82563
   D26        1.27918  -0.00432  -0.03788  -0.00047  -0.03920   1.23997
   D27       -2.86559  -0.00316  -0.02598  -0.00267  -0.02955  -2.89514
   D28       -2.95646   0.00001   0.00147  -0.02659  -0.02515  -2.98161
   D29       -0.88376  -0.00090  -0.00828  -0.02339  -0.03157  -0.91534
   D30        1.25586  -0.00003   0.00166  -0.02901  -0.02732   1.22854
   D31        1.15478   0.00335   0.02596  -0.00640   0.02035   1.17512
   D32       -3.05571   0.00245   0.01621  -0.00319   0.01392  -3.04179
   D33       -0.91608   0.00331   0.02615  -0.00882   0.01817  -0.89791
   D34       -0.87953  -0.00305  -0.02458  -0.01748  -0.04300  -0.92253
   D35        1.19317  -0.00396  -0.03434  -0.01428  -0.04943   1.14374
   D36       -2.95039  -0.00310  -0.02440  -0.01990  -0.04517  -2.99557
         Item               Value     Threshold  Converged?
 Maximum Force            0.038869     0.000450     NO 
 RMS     Force            0.008584     0.000300     NO 
 Maximum Displacement     0.143836     0.001800     NO 
 RMS     Displacement     0.034942     0.001200     NO 
 Predicted change in Energy=-1.742321D-02
 GradGradGradGradGradGradGradGradGradGradGradGradGradGradGradGradGradGrad

                          Input orientation:                          
 ---------------------------------------------------------------------
 Center     Atomic      Atomic             Coordinates (Angstroms)
 Number     Number       Type             X           Y           Z
 ---------------------------------------------------------------------
      1          5           0       -1.734303    0.701250   -0.071399
      2          9           0       -1.691890    1.813943   -0.884787
      3          9           0       -1.874068    1.043640    1.261937
      4          9           0       -2.743483   -0.150784   -0.478595
      5          8           0       -0.403179   -0.029176   -0.232119
      6          6           0       -0.469734   -1.472798    0.065111
      7          6           0        0.751162   -2.232086   -0.407908
      8          6           0        0.736940    0.607689    0.447886
      9          6           0        0.901729    2.066900    0.095077
     10          1           0       -0.642637   -1.591448    1.142498
     11          1           0       -1.349390   -1.836544   -0.463339
     12          1           0        0.500949   -3.300215   -0.405203
     13          1           0        1.017750   -1.941942   -1.432047
     14          1           0        1.621165   -2.097075    0.243673
     15          1           0        0.604638    0.460115    1.526456
     16          1           0        1.624964    0.060436    0.128443
     17          1           0        1.861167    2.391091    0.517910
     18          1           0        0.931774    2.211293   -0.990581
     19          1           0        0.109986    2.691691    0.519401
 ---------------------------------------------------------------------
                    Distance matrix (angstroms):
                    1          2          3          4          5
     1  B    0.000000
     2  F    1.378943   0.000000
     3  F    1.383672   2.288007   0.000000
     4  F    1.382105   2.265169   2.282976   0.000000
     5  O    1.526841   2.341759   2.355133   2.356387   0.000000
     6  C    2.518780   3.632992   3.120417   2.685753   1.475405
     7  C    3.859435   4.750396   4.517809   4.068090   2.493235
     8  C    2.526945   3.021635   2.769494   3.680624   1.472370
     9  C    2.973446   2.784059   3.180200   4.305206   2.490658
    10  H    2.814559   4.099695   2.911078   3.019438   2.094661
    11  H    2.596570   3.690661   3.398135   2.187582   2.053134
    12  H    4.595596   5.585083   5.223900   4.522238   3.398103
    13  H    4.051127   4.663509   4.953167   4.273663   2.667873
    14  H    4.380532   5.248410   4.808077   4.833205   2.932670
    15  H    2.842873   3.594576   2.560167   3.950106   2.085110
    16  H    3.425676   3.886251   3.807194   4.415478   2.061893
    17  H    4.016248   3.863272   4.039948   5.353219   3.398161
    18  H    3.198920   2.655690   3.782856   4.398755   2.716075
    19  H    2.777103   2.447232   2.684009   4.149451   2.869013
                    6          7          8          9         10
     6  C    0.000000
     7  C    1.513556   0.000000
     8  C    2.435365   2.965958   0.000000
     9  C    3.796218   4.330929   1.510274   0.000000
    10  H    1.097605   2.181021   2.687363   4.106783   0.000000
    11  H    1.088745   2.138187   3.340266   4.540511   1.771520
    12  H    2.121998   1.097047   4.006890   5.405260   2.573529
    13  H    2.161987   1.097320   3.180192   4.291432   3.083507
    14  H    2.189398   1.095305   2.852946   4.228281   2.487638
    15  H    2.650651   3.318310   1.096629   2.172296   2.431466
    16  H    2.596648   2.511347   1.090925   2.133092   2.983127
    17  H    4.535169   4.843864   2.109339   1.097455   4.745499
    18  H    4.080592   4.485058   2.163028   1.095630   4.635691
    19  H    4.229116   5.051197   2.177441   1.094199   4.393173
                   11         12         13         14         15
    11  H    0.000000
    12  H    2.359972   0.000000
    13  H    2.559855   1.779437   0.000000
    14  H    3.064627   1.767334   1.787795   0.000000
    15  H    3.612775   4.228727   3.833181   3.036128   0.000000
    16  H    3.577083   3.583597   2.610241   2.160589   1.776302
    17  H    5.398465   5.923959   4.825853   4.502936   2.514895
    18  H    4.676181   5.559226   4.177516   4.534388   3.083685
    19  H    4.858031   6.075416   5.109084   5.029112   2.497754
                   16         17         18         19
    16  H    0.000000
    17  H    2.374748   0.000000
    18  H    2.521688   1.780911   0.000000
    19  H    3.061292   1.776794   1.784982   0.000000
 Stoichiometry    C4H10BF3O
 Framework group  C1[X(C4H10BF3O)]
 Deg. of freedom    51
 Full point group                 C1      NOp   1
 Largest Abelian subgroup         C1      NOp   1
 Largest concise Abelian subgroup C1      NOp   1
                         Standard orientation:                         
 ---------------------------------------------------------------------
 Center     Atomic      Atomic             Coordinates (Angstroms)
 Number     Number       Type             X           Y           Z
 ---------------------------------------------------------------------
      1          5           0       -0.953355   -0.626829   -0.024416
      2          9           0       -1.822428   -0.072254   -0.940189
      3          9           0       -1.368319   -0.407135    1.277156
      4          9           0       -0.788699   -1.975615   -0.277158
      5          8           0        0.398361    0.058787   -0.208916
      6          6           0        1.549572   -0.754413    0.227246
      7          6           0        2.876528   -0.210663   -0.256879
      8          6           0        0.474350    1.428517    0.325818
      9          6           0       -0.633136    2.325540   -0.173935
     10          1           0        1.509584   -0.843217    1.320521
     11          1           0        1.385014   -1.741716   -0.201144
     12          1           0        3.625461   -1.003082   -0.135693
     13          1           0        2.823821    0.055695   -1.320076
     14          1           0        3.220971    0.656971    0.316064
     15          1           0        0.480873    1.357659    1.420135
     16          1           0        1.434370    1.829498   -0.002348
     17          1           0       -0.387266    3.345598    0.147684
     18          1           0       -0.693443    2.309083   -1.267780
     19          1           0       -1.608366    2.058515    0.244270
 ---------------------------------------------------------------------
 Rotational constants (GHZ):           1.8825284           1.4053384           0.9962635
 Standard basis: Aug-CC-pVDZ (5D, 7F)
 There are   315 symmetry adapted cartesian basis functions of A   symmetry.
 There are   297 symmetry adapted basis functions of A   symmetry.
   297 basis functions,   497 primitive gaussians,   315 cartesian basis functions
    37 alpha electrons       37 beta electrons
       nuclear repulsion energy       529.0704287662 Hartrees.
 NAtoms=   19 NActive=   19 NUniq=   19 SFac= 1.00D+00 NAtFMM=   60 NAOKFM=F Big=F
 Integral buffers will be    131072 words long.
 Raffenetti 2 integral format.
 Two-electron integral symmetry is turned on.
 Nuclear repulsion after empirical dispersion term =      529.0582800968 Hartrees.
 Force PCM accuracy= 1.00D-12.
 ------------------------------------------------------------------------------
 Polarizable Continuum Model (PCM)
 =================================
 Model                : C-PCM.
 Atomic radii         : UFF (Universal Force Field).
 Polarization charges : Total charges.
 Charge compensation  : None.
 Solution method      : On-the-fly selection.
 Cavity type          : Scaled VdW (van der Waals Surface) (Alpha=1.100).
 Cavity algorithm     : GePol (No added spheres)
                        Default sphere list used, NSphG=   19.
                        Lebedev-Laikov grids with approx.  5.0 points / Ang**2.
                        Smoothing algorithm: York/Karplus (Gamma=1.0000).
                        Polarization charges: spherical gaussians, with
                                              point-specific exponents (IZeta= 3).
                        Self-potential: point-specific (ISelfS= 7).
                        Self-field    : sphere-specific E.n sum rule (ISelfD= 2).
 1st derivatives      : Analytical E(r).r(x)/FMM algorithm (CHGder, D1EAlg=3).
                        Cavity 1st derivative terms included.
 Solvent              : Water, Eps=  78.355300 Eps(inf)=   1.777849
 ------------------------------------------------------------------------------
 Spheres list:
 ISph  on   Nord     Re0    Alpha      Xe            Ye            Ze
    1   B      1    2.0415  1.100     -0.953355     -0.626829     -0.024416
    2   F      2    1.6820  1.100     -1.822428     -0.072254     -0.940189
    3   F      3    1.6820  1.100     -1.368319     -0.407135      1.277156
    4   F      4    1.6820  1.100     -0.788699     -1.975615     -0.277158
    5   O      5    1.7500  1.100      0.398361      0.058787     -0.208916
    6   C      6    1.9255  1.100      1.549572     -0.754413      0.227246
    7   C      7    1.9255  1.100      2.876528     -0.210663     -0.256879
    8   C      8    1.9255  1.100      0.474350      1.428517      0.325818
    9   C      9    1.9255  1.100     -0.633136      2.325540     -0.173935
   10   H     10    1.4430  1.100      1.509584     -0.843217      1.320521
   11   H     11    1.4430  1.100      1.385014     -1.741716     -0.201144
   12   H     12    1.4430  1.100      3.625461     -1.003082     -0.135693
   13   H     13    1.4430  1.100      2.823821      0.055695     -1.320076
   14   H     14    1.4430  1.100      3.220971      0.656971      0.316064
   15   H     15    1.4430  1.100      0.480873      1.357659      1.420135
   16   H     16    1.4430  1.100      1.434370      1.829498     -0.002348
   17   H     17    1.4430  1.100     -0.387266      3.345598      0.147684
   18   H     18    1.4430  1.100     -0.693443      2.309083     -1.267780
   19   H     19    1.4430  1.100     -1.608366      2.058515      0.244270
 ------------------------------------------------------------------------------
 One-electron integrals computed using PRISM.
 NBasis=   297 RedAO= T EigKep=  2.97D-05  NBF=   297
 NBsUse=   297 1.00D-06 EigRej= -1.00D+00 NBFU=   297
 Initial guess from the checkpoint file:  "/inspire/hdd/project/materialscienceresearch/lipenghui-253107030018/g16/00-B-DFT-Shift/04-output/BF3OEt2_D2O/BF3OEt2_D2O.chk"
 B after Tr=    -0.000000    0.000000   -0.000000
         Rot=    0.999870   -0.001611    0.000483   -0.016027 Ang=  -1.85 deg.
 ExpMin= 2.38D-02 ExpMax= 1.47D+04 ExpMxC= 5.03D+02 IAcc=3 IRadAn=         5 AccDes= 0.00D+00
 Harris functional with IExCor= 4639 and IRadAn=       5 diagonalized for initial guess.
 HarFok:  IExCor= 4639 AccDes= 0.00D+00 IRadAn=         5 IDoV= 1 UseB2=F ITyADJ=14
 ICtDFT=  3500011 ScaDFX=  1.000000  1.000000  1.000000  1.000000
 FoFCou: FMM=F IPFlag=           0 FMFlag=      100000 FMFlg1=           0
         NFxFlg=           0 DoJE=T BraDBF=F KetDBF=T FulRan=T
         wScrn=  0.000000 ICntrl=       500 IOpCl=  0 I1Cent=   200000004 NGrid=           0
         NMat0=    1 NMatS0=      1 NMatT0=    0 NMatD0=    1 NMtDS0=    0 NMtDT0=    0
 Petite list used in FoFCou.
 Requested convergence on RMS density matrix=1.00D-08 within 128 cycles.
 Requested convergence on MAX density matrix=1.00D-06.
 Requested convergence on             energy=1.00D-06.
 No special actions if energy rises.
 Inv3:  Mode=1 IEnd=     6741003.
 Iteration    1 A*A^-1 deviation from unit magnitude is 3.89D-15 for   1479.
 Iteration    1 A*A^-1 deviation from orthogonality  is 2.71D-15 for    694    509.
 Iteration    1 A^-1*A deviation from unit magnitude is 3.89D-15 for   1479.
 Iteration    1 A^-1*A deviation from orthogonality  is 3.13D-15 for   1492    839.
 Error on total polarization charges =  0.01109
 SCF Done:  E(RwB97XD) =  -558.148510974     A.U. after   11 cycles
            NFock= 11  Conv=0.49D-08     -V/T= 2.0058
 D1PCM: C-PCM CHGder 1st derivatives, ID1Alg=3 FixD1E=F DoIter=F DoCFld=F I1PDM=0.
 Calling FoFJK, ICntrl=      2127 FMM=F ISym2X=0 I1Cent= 0 IOpClX= 0 NMat=1 NMatS=1 NMatT=0.
 ***** Axes restored to original set *****
 -------------------------------------------------------------------
 Center     Atomic                   Forces (Hartrees/Bohr)
 Number     Number              X              Y              Z
 -------------------------------------------------------------------
      1        5          -0.014774415    0.007926422   -0.001065078
      2        9           0.001125287    0.007412541   -0.006905076
      3        9          -0.000100956    0.001545555    0.010581405
      4        9          -0.004914739   -0.007538795   -0.002899853
      5        8           0.014209828   -0.010347309    0.002037360
      6        6          -0.001269659   -0.010090986   -0.000306134
      7        6           0.002681549    0.003617263    0.000187137
      8        6           0.008299648    0.002995194    0.002831906
      9        6          -0.001908090    0.001571160   -0.000393622
     10        1           0.001308278    0.002744086    0.000245281
     11        1          -0.001083154    0.003644342   -0.001300363
     12        1          -0.000820031    0.000648253    0.000041431
     13        1          -0.000516945   -0.000688775   -0.000205387
     14        1           0.000189207    0.000172925   -0.000046645
     15        1          -0.002191752   -0.000486555   -0.000612416
     16        1          -0.001796472   -0.002137862   -0.002265376
     17        1           0.000006978   -0.000783793    0.000012652
     18        1           0.000785768   -0.000080519    0.000259219
     19        1           0.000769669   -0.000123147   -0.000196440
 -------------------------------------------------------------------
 Cartesian Forces:  Max     0.014774415 RMS     0.004524225

 GradGradGradGradGradGradGradGradGradGradGradGradGradGradGradGradGradGrad
 Berny optimization.
 Using GEDIIS/GDIIS optimizer.
 FormGI is forming the generalized inverse of G from B-inverse, IUseBI=4.
 Internal  Forces:  Max     0.020707771 RMS     0.003249048
 Search for a local minimum.
 Step number   3 out of a maximum of   97
 All quantities printed in internal units (Hartrees-Bohrs-Radians)
 Mixed Optimization -- RFO/linear search
 Update second derivatives using D2CorX and points    2    3
 DE= -1.46D-02 DEPred=-1.74D-02 R= 8.35D-01
 TightC=F SS=  1.41D+00  RLast= 3.76D-01 DXNew= 8.4853D-01 1.1269D+00
 Trust test= 8.35D-01 RLast= 3.76D-01 DXMaxT set to 8.49D-01
 ITU=  1  1  0
 Use linear search instead of GDIIS.
     Eigenvalues ---    0.00251   0.00269   0.01333   0.01340   0.01344
     Eigenvalues ---    0.02670   0.04198   0.04236   0.05221   0.05287
     Eigenvalues ---    0.05321   0.05374   0.05815   0.05896   0.09767
     Eigenvalues ---    0.09800   0.12297   0.12462   0.12961   0.12980
     Eigenvalues ---    0.15955   0.16000   0.16000   0.16000   0.16001
     Eigenvalues ---    0.16092   0.18116   0.18650   0.20504   0.22122
     Eigenvalues ---    0.22412   0.25000   0.25043   0.28335   0.28418
     Eigenvalues ---    0.28602   0.28736   0.28883   0.31834   0.31892
     Eigenvalues ---    0.31935   0.31988   0.32095   0.32141   0.32160
     Eigenvalues ---    0.32254   0.32281   0.32584   0.40358   0.41515
     Eigenvalues ---    0.43874
 RFO step:  Lambda=-3.70168752D-03 EMin= 2.51346140D-03
 Quartic linear search produced a step of -0.03153.
 Iteration  1 RMS(Cart)=  0.04456731 RMS(Int)=  0.00069733
 Iteration  2 RMS(Cart)=  0.00092078 RMS(Int)=  0.00021332
 Iteration  3 RMS(Cart)=  0.00000041 RMS(Int)=  0.00021332
 Variable       Old X    -DE/DX   Delta X   Delta X   Delta X     New X
                                 (Linear)    (Quad)   (Total)
    R1        2.60582   0.01009   0.00522   0.01381   0.01903   2.62485
    R2        2.61476   0.01058   0.00494   0.01631   0.02125   2.63601
    R3        2.61180   0.00909   0.00502   0.01109   0.01610   2.62790
    R4        2.88531   0.02071  -0.00269   0.06371   0.06102   2.94633
    R5        2.78811  -0.00034  -0.00160   0.00511   0.00350   2.79161
    R6        2.78238   0.00331  -0.00139   0.01294   0.01155   2.79392
    R7        2.86021  -0.00063   0.00069  -0.00495  -0.00426   2.85595
    R8        2.07417  -0.00026   0.00039  -0.00261  -0.00222   2.07195
    R9        2.05743   0.00029   0.00069  -0.00213  -0.00144   2.05599
   R10        2.07312  -0.00045   0.00030  -0.00289  -0.00259   2.07052
   R11        2.07364  -0.00012   0.00039  -0.00208  -0.00169   2.07195
   R12        2.06983   0.00015   0.00045  -0.00146  -0.00101   2.06882
   R13        2.85400   0.00061   0.00078  -0.00115  -0.00037   2.85363
   R14        2.07233  -0.00027   0.00039  -0.00269  -0.00230   2.07003
   R15        2.06155   0.00027   0.00060  -0.00185  -0.00125   2.06030
   R16        2.07389  -0.00022   0.00030  -0.00223  -0.00192   2.07197
   R17        2.07044  -0.00025   0.00042  -0.00260  -0.00218   2.06826
   R18        2.06774  -0.00070   0.00044  -0.00400  -0.00356   2.06417
    A1        1.95179   0.00242  -0.00101   0.01642   0.01544   1.96722
    A2        1.92423   0.00218  -0.00214   0.01433   0.01209   1.93632
    A3        1.87247  -0.00102   0.00144  -0.00756  -0.00615   1.86632
    A4        1.94195   0.00214  -0.00171   0.01123   0.00937   1.95132
    A5        1.88375  -0.00146   0.00156  -0.01059  -0.00909   1.87467
    A6        1.88667  -0.00474   0.00190  -0.02683  -0.02505   1.86163
    A7        1.99057  -0.00063  -0.00059   0.00896   0.00791   1.99848
    A8        2.00374   0.00473   0.00000   0.03530   0.03514   2.03888
    A9        1.94455  -0.00293   0.00015  -0.00432  -0.00483   1.93972
   A10        1.97306  -0.00313   0.00013  -0.02245  -0.02228   1.95079
   A11        1.88664  -0.00046   0.00099  -0.02379  -0.02280   1.86384
   A12        1.83959  -0.00137   0.00122  -0.02573  -0.02418   1.81540
   A13        1.96017   0.00150  -0.00063   0.01334   0.01195   1.97212
   A14        1.90968   0.00300  -0.00108   0.03294   0.03134   1.94102
   A15        1.88919   0.00038  -0.00061   0.02502   0.02355   1.91274
   A16        1.87936  -0.00148   0.00064  -0.01436  -0.01373   1.86563
   A17        1.93372   0.00021   0.00016   0.00091   0.00104   1.93475
   A18        1.97465   0.00040  -0.00011   0.00527   0.00516   1.97981
   A19        1.89141   0.00013  -0.00016  -0.00289  -0.00309   1.88832
   A20        1.87519   0.00062  -0.00028   0.00505   0.00479   1.87997
   A21        1.90673   0.00010  -0.00026   0.00548   0.00518   1.91191
   A22        1.97634   0.00331   0.00062   0.00792   0.00863   1.98497
   A23        1.87823  -0.00223   0.00113  -0.02140  -0.02035   1.85788
   A24        1.85262  -0.00323   0.00080  -0.03398  -0.03324   1.81938
   A25        1.95298   0.00011  -0.00068   0.01261   0.01190   1.96488
   A26        1.90441   0.00069  -0.00120   0.01508   0.01384   1.91824
   A27        1.89515   0.00111  -0.00071   0.01781   0.01655   1.91170
   A28        1.86586  -0.00133   0.00087  -0.01488  -0.01401   1.85184
   A29        1.94100   0.00015   0.00005   0.00154   0.00155   1.94255
   A30        1.96292   0.00076   0.00006   0.00674   0.00679   1.96971
   A31        1.89534   0.00009  -0.00030  -0.00249  -0.00282   1.89252
   A32        1.89072   0.00024  -0.00054   0.00270   0.00218   1.89291
   A33        1.90589   0.00005  -0.00017   0.00570   0.00549   1.91137
    D1       -2.70098   0.00075   0.00085   0.03291   0.03391  -2.66707
    D2        1.30811   0.00106   0.00120  -0.00404  -0.00310   1.30501
    D3        1.47623  -0.00074   0.00025   0.02350   0.02403   1.50026
    D4       -0.79787  -0.00042   0.00060  -0.01345  -0.01298  -0.81085
    D5       -0.62604   0.00022   0.00020   0.03133   0.03172  -0.59432
    D6       -2.90014   0.00054   0.00055  -0.00562  -0.00529  -2.90544
    D7        2.90343  -0.00138   0.00051  -0.03339  -0.03279   2.87064
    D8       -1.19875  -0.00197   0.00053  -0.04959  -0.04875  -1.24751
    D9        0.81833  -0.00242   0.00096  -0.04454  -0.04354   0.77479
   D10       -1.07673   0.00203   0.00011   0.02150   0.02142  -1.05531
   D11        1.10428   0.00144   0.00013   0.00531   0.00545   1.10973
   D12        3.12136   0.00099   0.00056   0.01036   0.01066   3.13203
   D13       -0.91592  -0.00003  -0.00077   0.00067  -0.00004  -0.91596
   D14        1.25185   0.00072  -0.00034   0.00644   0.00597   1.25782
   D15       -3.00491  -0.00066  -0.00018  -0.00009  -0.00006  -3.00497
   D16        3.07093  -0.00071  -0.00006  -0.04108  -0.04118   3.02975
   D17       -1.04448   0.00005   0.00037  -0.03531  -0.03517  -1.07965
   D18        0.98194  -0.00134   0.00052  -0.04184  -0.04120   0.94074
   D19       -2.86989  -0.00002   0.00005  -0.03014  -0.03003  -2.89992
   D20       -0.80429  -0.00063   0.00035  -0.04179  -0.04137  -0.84566
   D21        1.34378  -0.00005   0.00004  -0.03006  -0.02994   1.31384
   D22        1.27271   0.00182  -0.00086   0.00821   0.00760   1.28031
   D23       -2.94488   0.00120  -0.00057  -0.00343  -0.00373  -2.94861
   D24       -0.79681   0.00178  -0.00088   0.00829   0.00770  -0.78911
   D25       -0.82563  -0.00167   0.00095  -0.05434  -0.05375  -0.87937
   D26        1.23997  -0.00229   0.00124  -0.06599  -0.06508   1.17489
   D27       -2.89514  -0.00171   0.00093  -0.05426  -0.05365  -2.94879
   D28       -2.98161   0.00047   0.00079  -0.00927  -0.00848  -2.99009
   D29       -0.91534  -0.00014   0.00100  -0.02043  -0.01942  -0.93476
   D30        1.22854   0.00058   0.00086  -0.00694  -0.00604   1.22249
   D31        1.17512   0.00086  -0.00064   0.00352   0.00292   1.17804
   D32       -3.04179   0.00025  -0.00044  -0.00764  -0.00802  -3.04981
   D33       -0.89791   0.00098  -0.00057   0.00585   0.00535  -0.89256
   D34       -0.92253  -0.00106   0.00136  -0.03682  -0.03555  -0.95808
   D35        1.14374  -0.00167   0.00156  -0.04798  -0.04650   1.09725
   D36       -2.99557  -0.00095   0.00142  -0.03449  -0.03312  -3.02869
         Item               Value     Threshold  Converged?
 Maximum Force            0.020708     0.000450     NO 
 RMS     Force            0.003249     0.000300     NO 
 Maximum Displacement     0.141231     0.001800     NO 
 RMS     Displacement     0.044782     0.001200     NO 
 Predicted change in Energy=-1.933553D-03
 GradGradGradGradGradGradGradGradGradGradGradGradGradGradGradGradGradGrad

                          Input orientation:                          
 ---------------------------------------------------------------------
 Center     Atomic      Atomic             Coordinates (Angstroms)
 Number     Number       Type             X           Y           Z
 ---------------------------------------------------------------------
      1          5           0       -1.789379    0.702413   -0.073336
      2          9           0       -1.738880    1.804310   -0.917507
      3          9           0       -1.948804    1.057060    1.266291
      4          9           0       -2.764457   -0.197811   -0.488864
      5          8           0       -0.419660   -0.031237   -0.201878
      6          6           0       -0.472204   -1.480634    0.078799
      7          6           0        0.765086   -2.192850   -0.417082
      8          6           0        0.739844    0.599176    0.464481
      9          6           0        0.938834    2.049610    0.094375
     10          1           0       -0.624564   -1.588705    1.159201
     11          1           0       -1.360259   -1.819499   -0.450570
     12          1           0        0.542738   -3.265613   -0.401437
     13          1           0        0.993098   -1.905543   -1.450337
     14          1           0        1.645224   -2.025873    0.212205
     15          1           0        0.594768    0.455818    1.540739
     16          1           0        1.594234    0.010157    0.130187
     17          1           0        1.904032    2.343348    0.523662
     18          1           0        0.988955    2.179651   -0.991191
     19          1           0        0.164933    2.702203    0.504678
 ---------------------------------------------------------------------
                    Distance matrix (angstroms):
                    1          2          3          4          5
     1  B    0.000000
     2  F    1.389011   0.000000
     3  F    1.394917   2.317634   0.000000
     4  F    1.390627   2.289985   2.306634   0.000000
     5  O    1.559132   2.371012   2.382895   2.368159   0.000000
     6  C    2.554171   3.658955   3.167077   2.687434   1.477259
     7  C    3.876339   4.743160   4.556409   4.054998   2.474371
     8  C    2.587831   3.083230   2.842778   3.718088   1.478480
     9  C    3.047329   2.873017   3.270627   4.370976   2.502638
    10  H    2.850468   4.131219   2.960600   3.038067   2.078516
    11  H    2.585825   3.673333   3.401263   2.145486   2.035794
    12  H    4.614287   5.583567   5.260665   4.511827   3.380417
    13  H    4.054595   4.637954   4.981151   4.237923   2.658488
    14  H    4.395631   5.234378   4.851042   4.824789   2.900653
    15  H    2.889672   3.647919   2.628036   3.978807   2.074367
    16  H    3.459692   3.927632   3.865211   4.407341   2.041507
    17  H    4.085383   3.954533   4.129211   5.410867   3.400677
    18  H    3.277778   2.754522   3.871288   4.471326   2.737744
    19  H    2.855275   2.540340   2.784679   4.240109   2.883169
                    6          7          8          9         10
     6  C    0.000000
     7  C    1.511303   0.000000
     8  C    2.437913   2.928003   0.000000
     9  C    3.801828   4.276710   1.510078   0.000000
    10  H    1.096431   2.186501   2.670407   4.100660   0.000000
    11  H    1.087982   2.158149   3.331327   4.533520   1.784903
    12  H    2.108763   1.095674   3.965508   5.352972   2.571031
    13  H    2.160072   1.096427   3.162954   4.246447   3.086568
    14  H    2.190567   1.094772   2.788232   4.137926   2.497970
    15  H    2.650574   3.298107   1.095413   2.179570   2.410895
    16  H    2.548581   2.416657   1.090265   2.142475   2.922036
    17  H    4.524073   4.770670   2.097849   1.096438   4.717918
    18  H    4.083816   4.415710   2.163086   1.094476   4.629054
    19  H    4.252463   5.017108   2.180564   1.092314   4.411757
                   11         12         13         14         15
    11  H    0.000000
    12  H    2.390618   0.000000
    13  H    2.558364   1.775614   0.000000
    14  H    3.084606   1.768895   1.789915   0.000000
    15  H    3.600626   4.198071   3.831608   3.004538   0.000000
    16  H    3.523344   3.481226   2.555255   2.038319   1.785274
    17  H    5.379035   5.845457   4.772792   4.387946   2.512247
    18  H    4.669506   5.495254   4.110917   4.423266   3.088309
    19  H    4.866673   6.048025   5.073388   4.963014   2.510862
                   16         17         18         19
    16  H    0.000000
    17  H    2.386331   0.000000
    18  H    2.516059   1.777341   0.000000
    19  H    3.070872   1.775839   1.785973   0.000000
 Stoichiometry    C4H10BF3O
 Framework group  C1[X(C4H10BF3O)]
 Deg. of freedom    51
 Full point group                 C1      NOp   1
 Largest Abelian subgroup         C1      NOp   1
 Largest concise Abelian subgroup C1      NOp   1
                         Standard orientation:                         
 ---------------------------------------------------------------------
 Center     Atomic      Atomic             Coordinates (Angstroms)
 Number     Number       Type             X           Y           Z
 ---------------------------------------------------------------------
      1          5           0       -1.024959   -0.582034   -0.025660
      2          9           0       -1.835186    0.031791   -0.972287
      3          9           0       -1.446192   -0.340262    1.281972
      4          9           0       -0.900581   -1.942591   -0.285002
      5          8           0        0.399019    0.034246   -0.178551
      6          6           0        1.500349   -0.856120    0.241703
      7          6           0        2.838065   -0.372471   -0.268823
      8          6           0        0.592473    1.404183    0.342748
      9          6           0       -0.416802    2.400177   -0.176572
     10          1           0        1.456735   -0.919323    1.335442
     11          1           0        1.239298   -1.820007   -0.190130
     12          1           0        3.546782   -1.197413   -0.135807
     13          1           0        2.785294   -0.135543   -1.338043
     14          1           0        3.226516    0.492038    0.279133
     15          1           0        0.581290    1.324792    1.435223
     16          1           0        1.592589    1.680003    0.007533
     17          1           0       -0.069522    3.385953    0.154815
     18          1           0       -0.453141    2.395782   -1.270435
     19          1           0       -1.420081    2.234860    0.222492
 ---------------------------------------------------------------------
 Rotational constants (GHZ):           1.8429476           1.3888384           0.9834085
 Standard basis: Aug-CC-pVDZ (5D, 7F)
 There are   315 symmetry adapted cartesian basis functions of A   symmetry.
 There are   297 symmetry adapted basis functions of A   symmetry.
   297 basis functions,   497 primitive gaussians,   315 cartesian basis functions
    37 alpha electrons       37 beta electrons
       nuclear repulsion energy       525.3658575158 Hartrees.
 NAtoms=   19 NActive=   19 NUniq=   19 SFac= 1.00D+00 NAtFMM=   60 NAOKFM=F Big=F
 Integral buffers will be    131072 words long.
 Raffenetti 2 integral format.
 Two-electron integral symmetry is turned on.
 Nuclear repulsion after empirical dispersion term =      525.3537003280 Hartrees.
 Force PCM accuracy= 1.00D-12.
 ------------------------------------------------------------------------------
 Polarizable Continuum Model (PCM)
 =================================
 Model                : C-PCM.
 Atomic radii         : UFF (Universal Force Field).
 Polarization charges : Total charges.
 Charge compensation  : None.
 Solution method      : On-the-fly selection.
 Cavity type          : Scaled VdW (van der Waals Surface) (Alpha=1.100).
 Cavity algorithm     : GePol (No added spheres)
                        Default sphere list used, NSphG=   19.
                        Lebedev-Laikov grids with approx.  5.0 points / Ang**2.
                        Smoothing algorithm: York/Karplus (Gamma=1.0000).
                        Polarization charges: spherical gaussians, with
                                              point-specific exponents (IZeta= 3).
                        Self-potential: point-specific (ISelfS= 7).
                        Self-field    : sphere-specific E.n sum rule (ISelfD= 2).
 1st derivatives      : Analytical E(r).r(x)/FMM algorithm (CHGder, D1EAlg=3).
                        Cavity 1st derivative terms included.
 Solvent              : Water, Eps=  78.355300 Eps(inf)=   1.777849
 ------------------------------------------------------------------------------
 Spheres list:
 ISph  on   Nord     Re0    Alpha      Xe            Ye            Ze
    1   B      1    2.0415  1.100     -1.024959     -0.582034     -0.025660
    2   F      2    1.6820  1.100     -1.835186      0.031791     -0.972287
    3   F      3    1.6820  1.100     -1.446192     -0.340262      1.281972
    4   F      4    1.6820  1.100     -0.900581     -1.942591     -0.285002
    5   O      5    1.7500  1.100      0.399019      0.034246     -0.178551
    6   C      6    1.9255  1.100      1.500349     -0.856120      0.241703
    7   C      7    1.9255  1.100      2.838065     -0.372471     -0.268823
    8   C      8    1.9255  1.100      0.592473      1.404183      0.342748
    9   C      9    1.9255  1.100     -0.416802      2.400177     -0.176572
   10   H     10    1.4430  1.100      1.456735     -0.919323      1.335442
   11   H     11    1.4430  1.100      1.239298     -1.820007     -0.190130
   12   H     12    1.4430  1.100      3.546782     -1.197413     -0.135807
   13   H     13    1.4430  1.100      2.785294     -0.135543     -1.338043
   14   H     14    1.4430  1.100      3.226516      0.492038      0.279133
   15   H     15    1.4430  1.100      0.581290      1.324792      1.435223
   16   H     16    1.4430  1.100      1.592589      1.680003      0.007533
   17   H     17    1.4430  1.100     -0.069522      3.385953      0.154815
   18   H     18    1.4430  1.100     -0.453141      2.395782     -1.270435
   19   H     19    1.4430  1.100     -1.420081      2.234860      0.222492
 ------------------------------------------------------------------------------
 One-electron integrals computed using PRISM.
 NBasis=   297 RedAO= T EigKep=  3.00D-05  NBF=   297
 NBsUse=   297 1.00D-06 EigRej= -1.00D+00 NBFU=   297
 Initial guess from the checkpoint file:  "/inspire/hdd/project/materialscienceresearch/lipenghui-253107030018/g16/00-B-DFT-Shift/04-output/BF3OEt2_D2O/BF3OEt2_D2O.chk"
 B after Tr=    -0.000000   -0.000000    0.000000
         Rot=    0.999426   -0.001024    0.002712    0.033763 Ang=  -3.88 deg.
 ExpMin= 2.38D-02 ExpMax= 1.47D+04 ExpMxC= 5.03D+02 IAcc=3 IRadAn=         5 AccDes= 0.00D+00
 Harris functional with IExCor= 4639 and IRadAn=       5 diagonalized for initial guess.
 HarFok:  IExCor= 4639 AccDes= 0.00D+00 IRadAn=         5 IDoV= 1 UseB2=F ITyADJ=14
 ICtDFT=  3500011 ScaDFX=  1.000000  1.000000  1.000000  1.000000
 FoFCou: FMM=F IPFlag=           0 FMFlag=      100000 FMFlg1=           0
         NFxFlg=           0 DoJE=T BraDBF=F KetDBF=T FulRan=T
         wScrn=  0.000000 ICntrl=       500 IOpCl=  0 I1Cent=   200000004 NGrid=           0
         NMat0=    1 NMatS0=      1 NMatT0=    0 NMatD0=    1 NMtDS0=    0 NMtDT0=    0
 Petite list used in FoFCou.
 Requested convergence on RMS density matrix=1.00D-08 within 128 cycles.
 Requested convergence on MAX density matrix=1.00D-06.
 Requested convergence on             energy=1.00D-06.
 No special actions if energy rises.
 Inv3:  Mode=1 IEnd=     6750000.
 Iteration    1 A*A^-1 deviation from unit magnitude is 4.44D-15 for   1472.
 Iteration    1 A*A^-1 deviation from orthogonality  is 2.18D-15 for   1452    894.
 Iteration    1 A^-1*A deviation from unit magnitude is 4.66D-15 for   1486.
 Iteration    1 A^-1*A deviation from orthogonality  is 1.57D-15 for   1412    329.
 Error on total polarization charges =  0.01113
 SCF Done:  E(RwB97XD) =  -558.150279308     A.U. after   11 cycles
            NFock= 11  Conv=0.63D-08     -V/T= 2.0060
 D1PCM: C-PCM CHGder 1st derivatives, ID1Alg=3 FixD1E=F DoIter=F DoCFld=F I1PDM=0.
 Calling FoFJK, ICntrl=      2127 FMM=F ISym2X=0 I1Cent= 0 IOpClX= 0 NMat=1 NMatS=1 NMatT=0.
 ***** Axes restored to original set *****
 -------------------------------------------------------------------
 Center     Atomic                   Forces (Hartrees/Bohr)
 Number     Number              X              Y              Z
 -------------------------------------------------------------------
      1        5          -0.007218068    0.004413144   -0.000245365
      2        9           0.001118200   -0.000115517    0.000742678
      3        9           0.000812409    0.000176893   -0.000353138
      4        9          -0.000708466   -0.000157820   -0.000175249
      5        8           0.006696828   -0.001184712    0.000804054
      6        6           0.000692187    0.000193864   -0.000623595
      7        6          -0.000764324   -0.000764719    0.000006489
      8        6           0.000325783   -0.000382940   -0.000719225
      9        6          -0.001417500   -0.001522517   -0.000252982
     10        1           0.000442857   -0.000769169    0.000475266
     11        1           0.000040523   -0.000756055   -0.000260817
     12        1           0.000365075   -0.001034793   -0.000103663
     13        1          -0.000293976   -0.000089789   -0.000455126
     14        1          -0.000288467   -0.000689833    0.000111777
     15        1          -0.000014023    0.000619098    0.000699140
     16        1           0.000486160    0.001293156    0.000352557
     17        1           0.000474375    0.000583491    0.000233849
     18        1           0.000189789   -0.000091444   -0.000590031
     19        1          -0.000939364    0.000279659    0.000353382
 -------------------------------------------------------------------
 Cartesian Forces:  Max     0.007218068 RMS     0.001554311

 GradGradGradGradGradGradGradGradGradGradGradGradGradGradGradGradGradGrad
 Berny optimization.
 Using GEDIIS/GDIIS optimizer.
 FormGI is forming the generalized inverse of G from B-inverse, IUseBI=4.
 Internal  Forces:  Max     0.007291938 RMS     0.001520174
 Search for a local minimum.
 Step number   4 out of a maximum of   97
 All quantities printed in internal units (Hartrees-Bohrs-Radians)
 Mixed Optimization -- RFO/linear search
 Update second derivatives using D2CorX and points    2    3    4
 DE= -1.77D-03 DEPred=-1.93D-03 R= 9.15D-01
 TightC=F SS=  1.41D+00  RLast= 2.14D-01 DXNew= 1.4270D+00 6.4273D-01
 Trust test= 9.15D-01 RLast= 2.14D-01 DXMaxT set to 8.49D-01
 ITU=  1  1  1  0
 Use linear search instead of GDIIS.
     Eigenvalues ---    0.00256   0.00267   0.01275   0.01341   0.01372
     Eigenvalues ---    0.02369   0.04160   0.04441   0.05071   0.05198
     Eigenvalues ---    0.05220   0.05340   0.05893   0.05977   0.09754
     Eigenvalues ---    0.10120   0.12613   0.12648   0.12840   0.13013
     Eigenvalues ---    0.15478   0.16000   0.16000   0.16001   0.16002
     Eigenvalues ---    0.16068   0.17488   0.19200   0.20430   0.22119
     Eigenvalues ---    0.24571   0.25001   0.26858   0.28150   0.28461
     Eigenvalues ---    0.28498   0.28741   0.29291   0.31828   0.31856
     Eigenvalues ---    0.31935   0.31988   0.32094   0.32141   0.32160
     Eigenvalues ---    0.32251   0.32258   0.34132   0.38602   0.41896
     Eigenvalues ---    0.43918
 RFO step:  Lambda=-1.12166109D-03 EMin= 2.55973931D-03
 Quartic linear search produced a step of -0.03693.
 Iteration  1 RMS(Cart)=  0.04570360 RMS(Int)=  0.00075907
 Iteration  2 RMS(Cart)=  0.00106411 RMS(Int)=  0.00007285
 Iteration  3 RMS(Cart)=  0.00000052 RMS(Int)=  0.00007284
 Variable       Old X    -DE/DX   Delta X   Delta X   Delta X     New X
                                 (Linear)    (Quad)   (Total)
    R1        2.62485  -0.00050  -0.00070  -0.00252  -0.00322   2.62163
    R2        2.63601  -0.00039  -0.00078  -0.00108  -0.00186   2.63415
    R3        2.62790   0.00065  -0.00059   0.00048  -0.00012   2.62779
    R4        2.94633   0.00729  -0.00225   0.04602   0.04376   2.99010
    R5        2.79161   0.00368  -0.00013   0.01253   0.01240   2.80402
    R6        2.79392  -0.00035  -0.00043   0.00598   0.00555   2.79947
    R7        2.85595   0.00056   0.00016  -0.00100  -0.00084   2.85511
    R8        2.07195   0.00048   0.00008  -0.00036  -0.00027   2.07168
    R9        2.05599   0.00033   0.00005  -0.00104  -0.00099   2.05500
   R10        2.07052   0.00094   0.00010   0.00091   0.00101   2.07153
   R11        2.07195   0.00034   0.00006  -0.00050  -0.00044   2.07151
   R12        2.06882  -0.00027   0.00004  -0.00212  -0.00208   2.06674
   R13        2.85363  -0.00088   0.00001  -0.00452  -0.00450   2.84913
   R14        2.07003   0.00061   0.00008  -0.00006   0.00003   2.07006
   R15        2.06030  -0.00043   0.00005  -0.00316  -0.00311   2.05719
   R16        2.07197   0.00066   0.00007   0.00036   0.00043   2.07239
   R17        2.06826   0.00059   0.00008  -0.00002   0.00006   2.06832
   R18        2.06417   0.00097   0.00013   0.00059   0.00073   2.06490
    A1        1.96722   0.00018  -0.00057   0.00366   0.00298   1.97020
    A2        1.93632   0.00076  -0.00045   0.01172   0.01125   1.94757
    A3        1.86632  -0.00187   0.00023  -0.01217  -0.01200   1.85432
    A4        1.95132   0.00050  -0.00035   0.00941   0.00905   1.96037
    A5        1.87467  -0.00118   0.00034  -0.01082  -0.01054   1.86413
    A6        1.86163   0.00150   0.00092  -0.00429  -0.00338   1.85825
    A7        1.99848   0.00070  -0.00029   0.01077   0.01038   2.00886
    A8        2.03888  -0.00451  -0.00130  -0.00641  -0.00805   2.03083
    A9        1.93972   0.00403   0.00018   0.02161   0.02174   1.96147
   A10        1.95079   0.00381   0.00082   0.01016   0.01097   1.96176
   A11        1.86384  -0.00077   0.00084  -0.00305  -0.00226   1.86159
   A12        1.81540  -0.00081   0.00089  -0.01360  -0.01271   1.80270
   A13        1.97212  -0.00099  -0.00044   0.00264   0.00221   1.97432
   A14        1.94102  -0.00187  -0.00116  -0.00344  -0.00454   1.93648
   A15        1.91274   0.00071  -0.00087   0.00616   0.00530   1.91805
   A16        1.86563   0.00071   0.00051  -0.00344  -0.00294   1.86269
   A17        1.93475  -0.00033  -0.00004  -0.00101  -0.00106   1.93369
   A18        1.97981   0.00022  -0.00019   0.00407   0.00387   1.98368
   A19        1.88832  -0.00029   0.00011  -0.00339  -0.00328   1.88504
   A20        1.87997  -0.00062  -0.00018  -0.00275  -0.00292   1.87705
   A21        1.91191   0.00029  -0.00019   0.00581   0.00561   1.91752
   A22        1.98497  -0.00490  -0.00032  -0.02075  -0.02115   1.96382
   A23        1.85788   0.00179   0.00075  -0.00634  -0.00575   1.85212
   A24        1.81938   0.00267   0.00123   0.00702   0.00833   1.82771
   A25        1.96488   0.00053  -0.00044  -0.00027  -0.00093   1.96395
   A26        1.91824   0.00047  -0.00051   0.00982   0.00934   1.92759
   A27        1.91170  -0.00033  -0.00061   0.01154   0.01093   1.92263
   A28        1.85184   0.00072   0.00052  -0.00176  -0.00124   1.85060
   A29        1.94255  -0.00020  -0.00006  -0.00101  -0.00106   1.94149
   A30        1.96971  -0.00057  -0.00025  -0.00133  -0.00159   1.96813
   A31        1.89252  -0.00016   0.00010  -0.00042  -0.00032   1.89220
   A32        1.89291  -0.00005  -0.00008   0.00209   0.00201   1.89491
   A33        1.91137   0.00028  -0.00020   0.00241   0.00220   1.91358
    D1       -2.66707   0.00021  -0.00125   0.00842   0.00713  -2.65993
    D2        1.30501  -0.00196   0.00011  -0.03014  -0.02991   1.27510
    D3        1.50026   0.00168  -0.00089   0.01671   0.01571   1.51597
    D4       -0.81085  -0.00049   0.00048  -0.02185  -0.02134  -0.83219
    D5       -0.59432   0.00091  -0.00117   0.01366   0.01241  -0.58191
    D6       -2.90544  -0.00126   0.00020  -0.02490  -0.02463  -2.93006
    D7        2.87064  -0.00014   0.00121  -0.06267  -0.06162   2.80902
    D8       -1.24751   0.00051   0.00180  -0.05503  -0.05339  -1.30090
    D9        0.77479   0.00061   0.00161  -0.05559  -0.05411   0.72068
   D10       -1.05531  -0.00199  -0.00079  -0.03908  -0.03973  -1.09504
   D11        1.10973  -0.00134  -0.00020  -0.03144  -0.03150   1.07823
   D12        3.13203  -0.00124  -0.00039  -0.03200  -0.03222   3.09981
   D13       -0.91596   0.00095   0.00000   0.03582   0.03573  -0.88024
   D14        1.25782  -0.00029  -0.00022   0.01708   0.01691   1.27473
   D15       -3.00497   0.00130   0.00000   0.03054   0.03051  -2.97446
   D16        3.02975   0.00017   0.00152   0.00282   0.00429   3.03404
   D17       -1.07965  -0.00106   0.00130  -0.01592  -0.01452  -1.09418
   D18        0.94074   0.00052   0.00152  -0.00246  -0.00092   0.93982
   D19       -2.89992   0.00031   0.00111   0.01063   0.01174  -2.88818
   D20       -0.84566   0.00020   0.00153   0.00398   0.00552  -0.84014
   D21        1.31384   0.00048   0.00111   0.01392   0.01504   1.32888
   D22        1.28031  -0.00075  -0.00028   0.00533   0.00502   1.28533
   D23       -2.94861  -0.00086   0.00014  -0.00132  -0.00120  -2.94981
   D24       -0.78911  -0.00058  -0.00028   0.00862   0.00832  -0.78079
   D25       -0.87937   0.00050   0.00198  -0.00213  -0.00014  -0.87951
   D26        1.17489   0.00039   0.00240  -0.00878  -0.00636   1.16853
   D27       -2.94879   0.00067   0.00198   0.00116   0.00316  -2.94564
   D28       -2.99009  -0.00063   0.00031  -0.04042  -0.04006  -3.03015
   D29       -0.93476  -0.00051   0.00072  -0.04250  -0.04174  -0.97650
   D30        1.22249  -0.00072   0.00022  -0.04110  -0.04083   1.18166
   D31        1.17804   0.00027  -0.00011  -0.01619  -0.01631   1.16173
   D32       -3.04981   0.00040   0.00030  -0.01827  -0.01799  -3.06780
   D33       -0.89256   0.00019  -0.00020  -0.01687  -0.01708  -0.90964
   D34       -0.95808  -0.00002   0.00131  -0.03793  -0.03664  -0.99472
   D35        1.09725   0.00011   0.00172  -0.04001  -0.03832   1.05893
   D36       -3.02869  -0.00010   0.00122  -0.03861  -0.03741  -3.06610
         Item               Value     Threshold  Converged?
 Maximum Force            0.007292     0.000450     NO 
 RMS     Force            0.001520     0.000300     NO 
 Maximum Displacement     0.136564     0.001800     NO 
 RMS     Displacement     0.045543     0.001200     NO 
 Predicted change in Energy=-5.819455D-04
 GradGradGradGradGradGradGradGradGradGradGradGradGradGradGradGradGradGrad

                          Input orientation:                          
 ---------------------------------------------------------------------
 Center     Atomic      Atomic             Coordinates (Angstroms)
 Number     Number       Type             X           Y           Z
 ---------------------------------------------------------------------
      1          5           0       -1.778863    0.720178   -0.080317
      2          9           0       -1.682580    1.813555   -0.928772
      3          9           0       -1.949048    1.083333    1.254674
      4          9           0       -2.749199   -0.177868   -0.511169
      5          8           0       -0.392863   -0.037203   -0.175306
      6          6           0       -0.452025   -1.494589    0.097181
      7          6           0        0.752831   -2.230331   -0.441051
      8          6           0        0.759707    0.614587    0.489035
      9          6           0        0.909256    2.062590    0.096524
     10          1           0       -0.576495   -1.606992    1.180564
     11          1           0       -1.359284   -1.807803   -0.414038
     12          1           0        0.501439   -3.297276   -0.430843
     13          1           0        0.954783   -1.939714   -1.478548
     14          1           0        1.654179   -2.098139    0.164103
     15          1           0        0.603069    0.485605    1.565506
     16          1           0        1.626416    0.041258    0.164691
     17          1           0        1.847628    2.403939    0.549967
     18          1           0        0.989875    2.172734   -0.989437
     19          1           0        0.094713    2.688118    0.469652
 ---------------------------------------------------------------------
                    Distance matrix (angstroms):
                    1          2          3          4          5
     1  B    0.000000
     2  F    1.387307   0.000000
     3  F    1.393932   2.317685   0.000000
     4  F    1.390565   2.297354   2.312806   0.000000
     5  O    1.582290   2.378315   2.392102   2.384305   0.000000
     6  C    2.587894   3.675685   3.197898   2.716772   1.483821
     7  C    3.904498   4.745747   4.599566   4.059771   2.488584
     8  C    2.603776   3.067974   2.853643   3.733740   1.481417
     9  C    3.009872   2.798369   3.235763   4.332810   2.485667
    10  H    2.907099   4.168076   3.021132   3.102417   2.082388
    11  H    2.584203   3.672017   3.389851   2.144292   2.031253
    12  H    4.632772   5.580185   5.294864   4.505974   3.390155
    13  H    4.062375   4.620061   5.004153   4.214191   2.670981
    14  H    4.448419   5.256395   4.928931   4.851100   2.924558
    15  H    2.904713   3.634427   2.639544   3.998809   2.072591
    16  H    3.480931   3.909750   3.880454   4.432923   2.049205
    17  H    4.047684   3.872672   4.081098   5.377970   3.391902
    18  H    3.256122   2.697166   3.854880   4.442381   2.731043
    19  H    2.772281   2.424711   2.714508   4.154964   2.842723
                    6          7          8          9         10
     6  C    0.000000
     7  C    1.510857   0.000000
     8  C    2.463833   2.993103   0.000000
     9  C    3.808755   4.329276   1.507694   0.000000
    10  H    1.096286   2.187532   2.683107   4.104684   0.000000
    11  H    1.087458   2.154133   3.342699   4.515185   1.787690
    12  H    2.106557   1.096209   4.026854   5.401166   2.572088
    13  H    2.158743   1.096195   3.230154   4.301321   3.086486
    14  H    2.191997   1.093670   2.874813   4.227428   2.500066
    15  H    2.681486   3.380090   1.095428   2.176819   2.432799
    16  H    2.585208   2.508025   1.088618   2.145868   2.932839
    17  H    4.548840   4.863862   2.095009   1.096663   4.728805
    18  H    4.087674   4.443410   2.160249   1.094506   4.631279
    19  H    4.234702   5.045160   2.177641   1.092698   4.404984
                   11         12         13         14         15
    11  H    0.000000
    12  H    2.383506   0.000000
    13  H    2.550586   1.773748   0.000000
    14  H    3.082126   1.766551   1.792361   0.000000
    15  H    3.609590   4.278543   3.907959   3.121618   0.000000
    16  H    3.559263   3.572960   2.659995   2.139578   1.790801
    17  H    5.380740   5.939534   4.876409   4.522723   2.502050
    18  H    4.657715   5.520109   4.141580   4.473512   3.086059
    19  H    4.807112   6.066404   5.094314   5.043169   2.512048
                   16         17         18         19
    16  H    0.000000
    17  H    2.404087   0.000000
    18  H    2.506069   1.777347   0.000000
    19  H    3.073269   1.777616   1.787702   0.000000
 Stoichiometry    C4H10BF3O
 Framework group  C1[X(C4H10BF3O)]
 Deg. of freedom    51
 Full point group                 C1      NOp   1
 Largest Abelian subgroup         C1      NOp   1
 Largest concise Abelian subgroup C1      NOp   1
                         Standard orientation:                         
 ---------------------------------------------------------------------
 Center     Atomic      Atomic             Coordinates (Angstroms)
 Number     Number       Type             X           Y           Z
 ---------------------------------------------------------------------
      1          5           0       -1.004059   -0.627813   -0.027050
      2          9           0       -1.812112   -0.031826   -0.984375
      3          9           0       -1.449324   -0.402604    1.274513
      4          9           0       -0.808311   -1.978809   -0.291932
      5          8           0        0.413623    0.063768   -0.151698
      6          6           0        1.562746   -0.776254    0.267355
      7          6           0        2.875687   -0.272980   -0.285447
      8          6           0        0.515080    1.452001    0.355364
      9          6           0       -0.570049    2.346213   -0.188715
     10          1           0        1.542558   -0.812578    1.362854
     11          1           0        1.318804   -1.754610   -0.139926
     12          1           0        3.604907   -1.080285   -0.150646
     13          1           0        2.792605   -0.067185   -1.358941
     14          1           0        3.260916    0.609356    0.233395
     15          1           0        0.490301    1.379226    1.448091
     16          1           0        1.493255    1.796575    0.024410
     17          1           0       -0.329138    3.359002    0.156093
     18          1           0       -0.573034    2.345164   -1.283216
     19          1           0       -1.562925    2.079532    0.181513
 ---------------------------------------------------------------------
 Rotational constants (GHZ):           1.8442282           1.3769514           0.9800607
 Standard basis: Aug-CC-pVDZ (5D, 7F)
 There are   315 symmetry adapted cartesian basis functions of A   symmetry.
 There are   297 symmetry adapted basis functions of A   symmetry.
   297 basis functions,   497 primitive gaussians,   315 cartesian basis functions
    37 alpha electrons       37 beta electrons
       nuclear repulsion energy       524.3890648652 Hartrees.
 NAtoms=   19 NActive=   19 NUniq=   19 SFac= 1.00D+00 NAtFMM=   60 NAOKFM=F Big=F
 Integral buffers will be    131072 words long.
 Raffenetti 2 integral format.
 Two-electron integral symmetry is turned on.
 Nuclear repulsion after empirical dispersion term =      524.3769583807 Hartrees.
 Force PCM accuracy= 1.00D-12.
 ------------------------------------------------------------------------------
 Polarizable Continuum Model (PCM)
 =================================
 Model                : C-PCM.
 Atomic radii         : UFF (Universal Force Field).
 Polarization charges : Total charges.
 Charge compensation  : None.
 Solution method      : On-the-fly selection.
 Cavity type          : Scaled VdW (van der Waals Surface) (Alpha=1.100).
 Cavity algorithm     : GePol (No added spheres)
                        Default sphere list used, NSphG=   19.
                        Lebedev-Laikov grids with approx.  5.0 points / Ang**2.
                        Smoothing algorithm: York/Karplus (Gamma=1.0000).
                        Polarization charges: spherical gaussians, with
                                              point-specific exponents (IZeta= 3).
                        Self-potential: point-specific (ISelfS= 7).
                        Self-field    : sphere-specific E.n sum rule (ISelfD= 2).
 1st derivatives      : Analytical E(r).r(x)/FMM algorithm (CHGder, D1EAlg=3).
                        Cavity 1st derivative terms included.
 Solvent              : Water, Eps=  78.355300 Eps(inf)=   1.777849
 ------------------------------------------------------------------------------
 Spheres list:
 ISph  on   Nord     Re0    Alpha      Xe            Ye            Ze
    1   B      1    2.0415  1.100     -1.004059     -0.627813     -0.027050
    2   F      2    1.6820  1.100     -1.812112     -0.031826     -0.984375
    3   F      3    1.6820  1.100     -1.449324     -0.402604      1.274513
    4   F      4    1.6820  1.100     -0.808311     -1.978809     -0.291932
    5   O      5    1.7500  1.100      0.413623      0.063768     -0.151698
    6   C      6    1.9255  1.100      1.562746     -0.776254      0.267355
    7   C      7    1.9255  1.100      2.875687     -0.272980     -0.285447
    8   C      8    1.9255  1.100      0.515080      1.452001      0.355364
    9   C      9    1.9255  1.100     -0.570049      2.346213     -0.188715
   10   H     10    1.4430  1.100      1.542558     -0.812578      1.362854
   11   H     11    1.4430  1.100      1.318804     -1.754610     -0.139926
   12   H     12    1.4430  1.100      3.604907     -1.080285     -0.150646
   13   H     13    1.4430  1.100      2.792605     -0.067185     -1.358941
   14   H     14    1.4430  1.100      3.260916      0.609356      0.233395
   15   H     15    1.4430  1.100      0.490301      1.379226      1.448091
   16   H     16    1.4430  1.100      1.493255      1.796575      0.024410
   17   H     17    1.4430  1.100     -0.329138      3.359002      0.156093
   18   H     18    1.4430  1.100     -0.573034      2.345164     -1.283216
   19   H     19    1.4430  1.100     -1.562925      2.079532      0.181513
 ------------------------------------------------------------------------------
 One-electron integrals computed using PRISM.
 NBasis=   297 RedAO= T EigKep=  3.17D-05  NBF=   297
 NBsUse=   297 1.00D-06 EigRej= -1.00D+00 NBFU=   297
 Initial guess from the checkpoint file:  "/inspire/hdd/project/materialscienceresearch/lipenghui-253107030018/g16/00-B-DFT-Shift/04-output/BF3OEt2_D2O/BF3OEt2_D2O.chk"
 B after Tr=     0.000000    0.000000    0.000000
         Rot=    0.999709    0.001192    0.002070   -0.023985 Ang=   2.76 deg.
 ExpMin= 2.38D-02 ExpMax= 1.47D+04 ExpMxC= 5.03D+02 IAcc=3 IRadAn=         5 AccDes= 0.00D+00
 Harris functional with IExCor= 4639 and IRadAn=       5 diagonalized for initial guess.
 HarFok:  IExCor= 4639 AccDes= 0.00D+00 IRadAn=         5 IDoV= 1 UseB2=F ITyADJ=14
 ICtDFT=  3500011 ScaDFX=  1.000000  1.000000  1.000000  1.000000
 FoFCou: FMM=F IPFlag=           0 FMFlag=      100000 FMFlg1=           0
         NFxFlg=           0 DoJE=T BraDBF=F KetDBF=T FulRan=T
         wScrn=  0.000000 ICntrl=       500 IOpCl=  0 I1Cent=   200000004 NGrid=           0
         NMat0=    1 NMatS0=      1 NMatT0=    0 NMatD0=    1 NMtDS0=    0 NMtDT0=    0
 Petite list used in FoFCou.
 Requested convergence on RMS density matrix=1.00D-08 within 128 cycles.
 Requested convergence on MAX density matrix=1.00D-06.
 Requested convergence on             energy=1.00D-06.
 No special actions if energy rises.
 Inv3:  Mode=1 IEnd=     6741003.
 Iteration    1 A*A^-1 deviation from unit magnitude is 3.33D-15 for   1498.
 Iteration    1 A*A^-1 deviation from orthogonality  is 1.72D-15 for   1465    859.
 Iteration    1 A^-1*A deviation from unit magnitude is 3.11D-15 for   1492.
 Iteration    1 A^-1*A deviation from orthogonality  is 2.10D-15 for   1484   1045.
 Error on total polarization charges =  0.01115
 SCF Done:  E(RwB97XD) =  -558.150632714     A.U. after   11 cycles
            NFock= 11  Conv=0.51D-08     -V/T= 2.0061
 D1PCM: C-PCM CHGder 1st derivatives, ID1Alg=3 FixD1E=F DoIter=F DoCFld=F I1PDM=0.
 Calling FoFJK, ICntrl=      2127 FMM=F ISym2X=0 I1Cent= 0 IOpClX= 0 NMat=1 NMatS=1 NMatT=0.
 ***** Axes restored to original set *****
 -------------------------------------------------------------------
 Center     Atomic                   Forces (Hartrees/Bohr)
 Number     Number              X              Y              Z
 -------------------------------------------------------------------
      1        5          -0.001804624    0.000802211    0.000008961
      2        9          -0.001540960   -0.001190063    0.000077271
      3        9          -0.000087405   -0.000236186   -0.001143407
      4        9           0.000532765    0.001230442    0.000420181
      5        8           0.004212851   -0.002308732    0.000240061
      6        6          -0.000111185    0.005211102   -0.000500745
      7        6          -0.001174527    0.000271717   -0.000372172
      8        6          -0.006046069   -0.002180526   -0.001075438
      9        6           0.001832905   -0.000153382    0.000737858
     10        1           0.000284547   -0.000876731    0.000408130
     11        1          -0.000624857   -0.001448479    0.000243004
     12        1           0.000336280   -0.000856265    0.000000448
     13        1           0.000115893    0.000157294   -0.000400484
     14        1           0.000591687    0.000727284    0.000509502
     15        1           0.001025304    0.000341975    0.000815922
     16        1           0.001640539   -0.000659016   -0.000009670
     17        1           0.000549663    0.000948957    0.000118524
     18        1           0.000025367    0.000099664   -0.000441334
     19        1           0.000241824    0.000118735    0.000363388
 -------------------------------------------------------------------
 Cartesian Forces:  Max     0.006046069 RMS     0.001462491

 GradGradGradGradGradGradGradGradGradGradGradGradGradGradGradGradGradGrad
 Berny optimization.
 Using GEDIIS/GDIIS optimizer.
 FormGI is forming the generalized inverse of G from B-inverse, IUseBI=4.
 Internal  Forces:  Max     0.003754253 RMS     0.001107108
 Search for a local minimum.
 Step number   5 out of a maximum of   97
 All quantities printed in internal units (Hartrees-Bohrs-Radians)
 Mixed Optimization -- RFO/linear search
 Update second derivatives using D2CorX and points    2    3    4    5
 DE= -3.53D-04 DEPred=-5.82D-04 R= 6.07D-01
 TightC=F SS=  1.41D+00  RLast= 1.83D-01 DXNew= 1.4270D+00 5.4853D-01
 Trust test= 6.07D-01 RLast= 1.83D-01 DXMaxT set to 8.49D-01
 ITU=  1  1  1  1  0
 Use linear search instead of GDIIS.
     Eigenvalues ---    0.00252   0.00278   0.01059   0.01344   0.01439
     Eigenvalues ---    0.02341   0.04328   0.04576   0.05150   0.05223
     Eigenvalues ---    0.05286   0.05554   0.05931   0.06005   0.09832
     Eigenvalues ---    0.10519   0.12570   0.12742   0.12868   0.12983
     Eigenvalues ---    0.13790   0.16000   0.16000   0.16000   0.16019
     Eigenvalues ---    0.16086   0.16726   0.19593   0.20709   0.22152
     Eigenvalues ---    0.24806   0.25044   0.27030   0.28330   0.28445
     Eigenvalues ---    0.28560   0.28814   0.31480   0.31838   0.31935
     Eigenvalues ---    0.31988   0.32092   0.32138   0.32157   0.32189
     Eigenvalues ---    0.32255   0.33642   0.35147   0.37946   0.41779
     Eigenvalues ---    0.47710
 RFO step:  Lambda=-3.14364510D-04 EMin= 2.51957954D-03
 Quartic linear search produced a step of -0.26981.
 Iteration  1 RMS(Cart)=  0.02597194 RMS(Int)=  0.00036933
 Iteration  2 RMS(Cart)=  0.00040927 RMS(Int)=  0.00001989
 Iteration  3 RMS(Cart)=  0.00000014 RMS(Int)=  0.00001989
 Variable       Old X    -DE/DX   Delta X   Delta X   Delta X     New X
                                 (Linear)    (Quad)   (Total)
    R1        2.62163  -0.00109   0.00087  -0.00675  -0.00588   2.61575
    R2        2.63415  -0.00115   0.00050  -0.00608  -0.00558   2.62857
    R3        2.62779  -0.00129   0.00003  -0.00541  -0.00538   2.62241
    R4        2.99010   0.00279  -0.01181   0.03027   0.01846   3.00856
    R5        2.80402  -0.00313  -0.00335   0.00194  -0.00140   2.80261
    R6        2.79947  -0.00100  -0.00150   0.00165   0.00015   2.79962
    R7        2.85511  -0.00015   0.00023  -0.00105  -0.00082   2.85428
    R8        2.07168   0.00046   0.00007   0.00078   0.00085   2.07253
    R9        2.05500   0.00082   0.00027   0.00110   0.00136   2.05636
   R10        2.07153   0.00076  -0.00027   0.00221   0.00193   2.07347
   R11        2.07151   0.00044   0.00012   0.00064   0.00075   2.07226
   R12        2.06674   0.00086   0.00056   0.00062   0.00118   2.06792
   R13        2.84913   0.00104   0.00122  -0.00018   0.00103   2.85016
   R14        2.07006   0.00061  -0.00001   0.00130   0.00129   2.07135
   R15        2.05719   0.00166   0.00084   0.00183   0.00267   2.05986
   R16        2.07239   0.00081  -0.00012   0.00200   0.00188   2.07427
   R17        2.06832   0.00045  -0.00002   0.00093   0.00092   2.06923
   R18        2.06490   0.00001  -0.00020   0.00033   0.00014   2.06504
    A1        1.97020  -0.00033  -0.00080   0.00246   0.00169   1.97189
    A2        1.94757  -0.00159  -0.00304   0.00098  -0.00204   1.94552
    A3        1.85432   0.00214   0.00324  -0.00055   0.00271   1.85703
    A4        1.96037  -0.00057  -0.00244   0.00306   0.00062   1.96099
    A5        1.86413   0.00022   0.00284  -0.00521  -0.00235   1.86178
    A6        1.85825   0.00046   0.00091  -0.00158  -0.00066   1.85759
    A7        2.00886   0.00022  -0.00280   0.00500   0.00224   2.01110
    A8        2.03083   0.00292   0.00217   0.00461   0.00689   2.03772
    A9        1.96147  -0.00326  -0.00587  -0.00133  -0.00718   1.95428
   A10        1.96176  -0.00276  -0.00296  -0.00226  -0.00522   1.95654
   A11        1.86159   0.00123   0.00061   0.00189   0.00249   1.86408
   A12        1.80270   0.00192   0.00343   0.00573   0.00915   1.81184
   A13        1.97432   0.00015  -0.00060  -0.00280  -0.00339   1.97093
   A14        1.93648   0.00006   0.00122  -0.00268  -0.00146   1.93502
   A15        1.91805  -0.00043  -0.00143   0.00106  -0.00039   1.91765
   A16        1.86269   0.00093   0.00079   0.00384   0.00464   1.86733
   A17        1.93369   0.00000   0.00029  -0.00123  -0.00094   1.93275
   A18        1.98368  -0.00084  -0.00105  -0.00253  -0.00358   1.98010
   A19        1.88504  -0.00019   0.00089  -0.00084   0.00005   1.88509
   A20        1.87705   0.00001   0.00079  -0.00062   0.00017   1.87723
   A21        1.91752   0.00014  -0.00151   0.00150  -0.00001   1.91751
   A22        1.96382   0.00375   0.00571   0.00279   0.00852   1.97233
   A23        1.85212  -0.00040   0.00155   0.00359   0.00518   1.85731
   A24        1.82771  -0.00108  -0.00225   0.00176  -0.00049   1.82722
   A25        1.96395  -0.00125   0.00025  -0.00405  -0.00379   1.96016
   A26        1.92759  -0.00120  -0.00252  -0.00282  -0.00536   1.92223
   A27        1.92263   0.00025  -0.00295  -0.00065  -0.00362   1.91901
   A28        1.85060   0.00104   0.00034   0.00395   0.00428   1.85489
   A29        1.94149  -0.00002   0.00029  -0.00045  -0.00016   1.94132
   A30        1.96813  -0.00014   0.00043  -0.00196  -0.00153   1.96659
   A31        1.89220  -0.00039   0.00009  -0.00105  -0.00097   1.89123
   A32        1.89491  -0.00058  -0.00054  -0.00192  -0.00246   1.89245
   A33        1.91358   0.00007  -0.00059   0.00144   0.00084   1.91442
    D1       -2.65993   0.00010  -0.00192   0.02364   0.02174  -2.63820
    D2        1.27510   0.00170   0.00807   0.01470   0.02273   1.29783
    D3        1.51597  -0.00076  -0.00424   0.02377   0.01957   1.53554
    D4       -0.83219   0.00085   0.00576   0.01482   0.02056  -0.81162
    D5       -0.58191  -0.00044  -0.00335   0.02372   0.02040  -0.56151
    D6       -2.93006   0.00116   0.00664   0.01478   0.02139  -2.90867
    D7        2.80902  -0.00059   0.01662  -0.04023  -0.02357   2.78546
    D8       -1.30090  -0.00131   0.01441  -0.04388  -0.02945  -1.33035
    D9        0.72068  -0.00043   0.01460  -0.03937  -0.02472   0.69596
   D10       -1.09504   0.00057   0.01072  -0.02912  -0.01844  -1.11348
   D11        1.07823  -0.00015   0.00850  -0.03277  -0.02432   1.05390
   D12        3.09981   0.00072   0.00869  -0.02826  -0.01960   3.08021
   D13       -0.88024  -0.00047  -0.00964   0.00149  -0.00814  -0.88838
   D14        1.27473   0.00002  -0.00456   0.00064  -0.00392   1.27081
   D15       -2.97446  -0.00037  -0.00823   0.00228  -0.00596  -2.98042
   D16        3.03404  -0.00034  -0.00116  -0.00991  -0.01106   3.02298
   D17       -1.09418   0.00015   0.00392  -0.01076  -0.00684  -1.10102
   D18        0.93982  -0.00024   0.00025  -0.00912  -0.00888   0.93094
   D19       -2.88818  -0.00053  -0.00317  -0.03194  -0.03511  -2.92329
   D20       -0.84014  -0.00022  -0.00149  -0.03135  -0.03284  -0.87298
   D21        1.32888  -0.00067  -0.00406  -0.03225  -0.03630   1.29258
   D22        1.28533  -0.00021  -0.00136  -0.03068  -0.03204   1.25329
   D23       -2.94981   0.00010   0.00032  -0.03010  -0.02978  -2.97959
   D24       -0.78079  -0.00035  -0.00224  -0.03099  -0.03323  -0.81403
   D25       -0.87951   0.00019   0.00004  -0.02790  -0.02787  -0.90738
   D26        1.16853   0.00050   0.00172  -0.02732  -0.02560   1.14292
   D27       -2.94564   0.00006  -0.00085  -0.02821  -0.02906  -2.97470
   D28       -3.03015   0.00035   0.01081   0.00399   0.01479  -3.01536
   D29       -0.97650   0.00049   0.01126   0.00483   0.01608  -0.96042
   D30        1.18166   0.00046   0.01102   0.00491   0.01592   1.19758
   D31        1.16173  -0.00092   0.00440   0.00024   0.00466   1.16639
   D32       -3.06780  -0.00078   0.00485   0.00107   0.00594  -3.06186
   D33       -0.90964  -0.00081   0.00461   0.00116   0.00579  -0.90386
   D34       -0.99472   0.00055   0.00989   0.00610   0.01598  -0.97874
   D35        1.05893   0.00070   0.01034   0.00694   0.01727   1.07620
   D36       -3.06610   0.00067   0.01009   0.00703   0.01711  -3.04899
         Item               Value     Threshold  Converged?
 Maximum Force            0.003754     0.000450     NO 
 RMS     Force            0.001107     0.000300     NO 
 Maximum Displacement     0.085014     0.001800     NO 
 RMS     Displacement     0.026012     0.001200     NO 
 Predicted change in Energy=-2.155162D-04
 GradGradGradGradGradGradGradGradGradGradGradGradGradGradGradGradGradGrad

                          Input orientation:                          
 ---------------------------------------------------------------------
 Center     Atomic      Atomic             Coordinates (Angstroms)
 Number     Number       Type             X           Y           Z
 ---------------------------------------------------------------------
      1          5           0       -1.794847    0.720158   -0.093513
      2          9           0       -1.707342    1.794328   -0.962128
      3          9           0       -1.965023    1.106061    1.231986
      4          9           0       -2.758021   -0.189639   -0.506220
      5          8           0       -0.396674   -0.037124   -0.172847
      6          6           0       -0.450206   -1.493613    0.101556
      7          6           0        0.751057   -2.221161   -0.454333
      8          6           0        0.752411    0.611902    0.500354
      9          6           0        0.925303    2.058002    0.108314
     10          1           0       -0.554263   -1.608078    1.187330
     11          1           0       -1.363231   -1.817891   -0.393787
     12          1           0        0.524766   -3.293909   -0.410499
     13          1           0        0.916235   -1.952169   -1.504514
     14          1           0        1.666626   -2.053152    0.120987
     15          1           0        0.590002    0.489350    1.577418
     16          1           0        1.620285    0.031749    0.186689
     17          1           0        1.869695    2.388366    0.559798
     18          1           0        1.005611    2.167378   -0.978237
     19          1           0        0.121155    2.695424    0.484061
 ---------------------------------------------------------------------
                    Distance matrix (angstroms):
                    1          2          3          4          5
     1  B    0.000000
     2  F    1.384193   0.000000
     3  F    1.390981   2.313925   0.000000
     4  F    1.387718   2.290830   2.308472   0.000000
     5  O    1.592061   2.386427   2.395860   2.389636   0.000000
     6  C    2.597478   3.677278   3.214163   2.719513   1.483079
     7  C    3.906811   4.735582   4.614235   4.055047   2.483251
     8  C    2.617808   3.096348   2.857258   3.738822   1.481496
     9  C    3.038055   2.854154   3.243889   4.358488   2.493236
    10  H    2.932626   4.186423   3.059214   3.120358   2.083942
    11  H    2.591939   3.672813   3.399233   2.146925   2.038180
    12  H    4.646914   5.583615   5.315688   4.519109   3.392960
    13  H    4.059830   4.605820   5.014264   4.195624   2.676651
    14  H    4.440614   5.230669   4.940022   4.841856   2.899640
    15  H    2.921093   3.664703   2.651001   4.001478   2.077049
    16  H    3.495075   3.936949   3.886029   4.438322   2.049910
    17  H    4.079044   3.932472   4.098927   5.403541   3.399441
    18  H    3.274102   2.738529   3.851771   4.465786   2.734023
    19  H    2.811821   2.499368   2.727197   4.194508   2.857708
                    6          7          8          9         10
     6  C    0.000000
     7  C    1.510422   0.000000
     8  C    2.457340   2.989594   0.000000
     9  C    3.808680   4.319510   1.508242   0.000000
    10  H    1.096738   2.185129   2.666016   4.097992   0.000000
    11  H    1.088180   2.153255   3.343549   4.529022   1.788403
    12  H    2.110412   1.097232   4.017067   5.391896   2.561129
    13  H    2.157984   1.096595   3.258955   4.322356   3.086549
    14  H    2.189621   1.094297   2.842924   4.177476   2.503502
    15  H    2.681854   3.391286   1.096112   2.175169   2.420892
    16  H    2.573113   2.498413   1.090031   2.143559   2.901547
    17  H    4.545513   4.850520   2.099448   1.097658   4.716030
    18  H    4.085120   4.427024   2.160983   1.094991   4.623522
    19  H    4.245091   5.044816   2.177112   1.092771   4.412586
                   11         12         13         14         15
    11  H    0.000000
    12  H    2.396547   0.000000
    13  H    2.539234   1.774932   0.000000
    14  H    3.082267   1.767992   1.793192   0.000000
    15  H    3.608896   4.274239   3.945345   3.121638   0.000000
    16  H    3.558018   3.552013   2.700330   2.086451   1.790254
    17  H    5.390152   5.919337   4.900073   4.467760   2.505878
    18  H    4.672832   5.511732   4.153988   4.411134   3.085430
    19  H    4.831567   6.069205   5.117295   5.006923   2.506393
                   16         17         18         19
    16  H    0.000000
    17  H    2.398971   0.000000
    18  H    2.509141   1.777928   0.000000
    19  H    3.070991   1.776911   1.788690   0.000000
 Stoichiometry    C4H10BF3O
 Framework group  C1[X(C4H10BF3O)]
 Deg. of freedom    51
 Full point group                 C1      NOp   1
 Largest Abelian subgroup         C1      NOp   1
 Largest concise Abelian subgroup C1      NOp   1
                         Standard orientation:                         
 ---------------------------------------------------------------------
 Center     Atomic      Atomic             Coordinates (Angstroms)
 Number     Number       Type             X           Y           Z
 ---------------------------------------------------------------------
      1          5           0       -1.023976   -0.614187   -0.028266
      2          9           0       -1.808827   -0.028783   -1.006684
      3          9           0       -1.480462   -0.356779    1.260218
      4          9           0       -0.845566   -1.970044   -0.264029
      5          8           0        0.415153    0.056503   -0.145480
      6          6           0        1.548389   -0.800242    0.280298
      7          6           0        2.863354   -0.331051   -0.295985
      8          6           0        0.547973    1.442829    0.359781
      9          6           0       -0.502396    2.374307   -0.191460
     10          1           0        1.542448   -0.811947    1.376957
     11          1           0        1.287206   -1.785174   -0.101577
     12          1           0        3.592985   -1.132231   -0.123742
     13          1           0        2.779626   -0.175700   -1.378286
     14          1           0        3.249309    0.575056    0.180977
     15          1           0        0.514373    1.378469    1.453486
     16          1           0        1.538969    1.761250    0.036203
     17          1           0       -0.226105    3.382365    0.143708
     18          1           0       -0.506355    2.363887   -1.286394
     19          1           0       -1.504016    2.148326    0.182489
 ---------------------------------------------------------------------
 Rotational constants (GHZ):           1.8349438           1.3736284           0.9761922
 Standard basis: Aug-CC-pVDZ (5D, 7F)
 There are   315 symmetry adapted cartesian basis functions of A   symmetry.
 There are   297 symmetry adapted basis functions of A   symmetry.
   297 basis functions,   497 primitive gaussians,   315 cartesian basis functions
    37 alpha electrons       37 beta electrons
       nuclear repulsion energy       523.6773064950 Hartrees.
 NAtoms=   19 NActive=   19 NUniq=   19 SFac= 1.00D+00 NAtFMM=   60 NAOKFM=F Big=F
 Integral buffers will be    131072 words long.
 Raffenetti 2 integral format.
 Two-electron integral symmetry is turned on.
 Nuclear repulsion after empirical dispersion term =      523.6652067435 Hartrees.
 Force PCM accuracy= 1.00D-12.
 ------------------------------------------------------------------------------
 Polarizable Continuum Model (PCM)
 =================================
 Model                : C-PCM.
 Atomic radii         : UFF (Universal Force Field).
 Polarization charges : Total charges.
 Charge compensation  : None.
 Solution method      : On-the-fly selection.
 Cavity type          : Scaled VdW (van der Waals Surface) (Alpha=1.100).
 Cavity algorithm     : GePol (No added spheres)
                        Default sphere list used, NSphG=   19.
                        Lebedev-Laikov grids with approx.  5.0 points / Ang**2.
                        Smoothing algorithm: York/Karplus (Gamma=1.0000).
                        Polarization charges: spherical gaussians, with
                                              point-specific exponents (IZeta= 3).
                        Self-potential: point-specific (ISelfS= 7).
                        Self-field    : sphere-specific E.n sum rule (ISelfD= 2).
 1st derivatives      : Analytical E(r).r(x)/FMM algorithm (CHGder, D1EAlg=3).
                        Cavity 1st derivative terms included.
 Solvent              : Water, Eps=  78.355300 Eps(inf)=   1.777849
 ------------------------------------------------------------------------------
 Spheres list:
 ISph  on   Nord     Re0    Alpha      Xe            Ye            Ze
    1   B      1    2.0415  1.100     -1.023976     -0.614187     -0.028266
    2   F      2    1.6820  1.100     -1.808827     -0.028783     -1.006684
    3   F      3    1.6820  1.100     -1.480462     -0.356779      1.260218
    4   F      4    1.6820  1.100     -0.845566     -1.970044     -0.264029
    5   O      5    1.7500  1.100      0.415153      0.056503     -0.145480
    6   C      6    1.9255  1.100      1.548389     -0.800242      0.280298
    7   C      7    1.9255  1.100      2.863354     -0.331051     -0.295985
    8   C      8    1.9255  1.100      0.547973      1.442829      0.359781
    9   C      9    1.9255  1.100     -0.502396      2.374307     -0.191460
   10   H     10    1.4430  1.100      1.542448     -0.811947      1.376957
   11   H     11    1.4430  1.100      1.287206     -1.785174     -0.101577
   12   H     12    1.4430  1.100      3.592985     -1.132231     -0.123742
   13   H     13    1.4430  1.100      2.779626     -0.175700     -1.378286
   14   H     14    1.4430  1.100      3.249309      0.575056      0.180977
   15   H     15    1.4430  1.100      0.514373      1.378469      1.453486
   16   H     16    1.4430  1.100      1.538969      1.761250      0.036203
   17   H     17    1.4430  1.100     -0.226105      3.382365      0.143708
   18   H     18    1.4430  1.100     -0.506355      2.363887     -1.286394
   19   H     19    1.4430  1.100     -1.504016      2.148326      0.182489
 ------------------------------------------------------------------------------
 One-electron integrals computed using PRISM.
 NBasis=   297 RedAO= T EigKep=  3.13D-05  NBF=   297
 NBsUse=   297 1.00D-06 EigRej= -1.00D+00 NBFU=   297
 Initial guess from the checkpoint file:  "/inspire/hdd/project/materialscienceresearch/lipenghui-253107030018/g16/00-B-DFT-Shift/04-output/BF3OEt2_D2O/BF3OEt2_D2O.chk"
 B after Tr=    -0.000000   -0.000000   -0.000000
         Rot=    0.999938    0.004105    0.001483    0.010248 Ang=   1.28 deg.
 ExpMin= 2.38D-02 ExpMax= 1.47D+04 ExpMxC= 5.03D+02 IAcc=3 IRadAn=         5 AccDes= 0.00D+00
 Harris functional with IExCor= 4639 and IRadAn=       5 diagonalized for initial guess.
 HarFok:  IExCor= 4639 AccDes= 0.00D+00 IRadAn=         5 IDoV= 1 UseB2=F ITyADJ=14
 ICtDFT=  3500011 ScaDFX=  1.000000  1.000000  1.000000  1.000000
 FoFCou: FMM=F IPFlag=           0 FMFlag=      100000 FMFlg1=           0
         NFxFlg=           0 DoJE=T BraDBF=F KetDBF=T FulRan=T
         wScrn=  0.000000 ICntrl=       500 IOpCl=  0 I1Cent=   200000004 NGrid=           0
         NMat0=    1 NMatS0=      1 NMatT0=    0 NMatD0=    1 NMtDS0=    0 NMtDT0=    0
 Petite list used in FoFCou.
 Requested convergence on RMS density matrix=1.00D-08 within 128 cycles.
 Requested convergence on MAX density matrix=1.00D-06.
 Requested convergence on             energy=1.00D-06.
 No special actions if energy rises.
 Inv3:  Mode=1 IEnd=     6795075.
 Iteration    1 A*A^-1 deviation from unit magnitude is 4.33D-15 for   1500.
 Iteration    1 A*A^-1 deviation from orthogonality  is 2.45D-15 for   1503    882.
 Iteration    1 A^-1*A deviation from unit magnitude is 4.33D-15 for   1500.
 Iteration    1 A^-1*A deviation from orthogonality  is 2.20D-15 for   1498   1042.
 Error on total polarization charges =  0.01116
 SCF Done:  E(RwB97XD) =  -558.150878748     A.U. after   10 cycles
            NFock= 10  Conv=0.69D-08     -V/T= 2.0061
 D1PCM: C-PCM CHGder 1st derivatives, ID1Alg=3 FixD1E=F DoIter=F DoCFld=F I1PDM=0.
 Calling FoFJK, ICntrl=      2127 FMM=F ISym2X=0 I1Cent= 0 IOpClX= 0 NMat=1 NMatS=1 NMatT=0.
 ***** Axes restored to original set *****
 -------------------------------------------------------------------
 Center     Atomic                   Forces (Hartrees/Bohr)
 Number     Number              X              Y              Z
 -------------------------------------------------------------------
      1        5          -0.000352608   -0.000060007    0.000360867
      2        9           0.000438367    0.000402113   -0.000523405
      3        9           0.000145741    0.000123097    0.000342969
      4        9          -0.000176763   -0.000291121   -0.000025369
      5        8           0.002960040   -0.001278821    0.000754945
      6        6           0.000093641    0.004413088   -0.000420344
      7        6          -0.000633657   -0.000490041   -0.000557231
      8        6          -0.004069233   -0.002271279   -0.000787930
      9        6           0.000574137   -0.000249890   -0.000123124
     10        1           0.000087911   -0.000519762    0.000150646
     11        1          -0.000416497   -0.000595463    0.000371024
     12        1           0.000238467   -0.000112004    0.000082993
     13        1           0.000198674    0.000156559   -0.000081597
     14        1           0.000332390    0.000078136    0.000084766
     15        1           0.000435569    0.000066404    0.000258156
     16        1           0.000649205   -0.000095536    0.000294257
     17        1          -0.000100229    0.000341388   -0.000036496
     18        1          -0.000044338    0.000130999   -0.000237400
     19        1          -0.000360815    0.000252140    0.000092271
 -------------------------------------------------------------------
 Cartesian Forces:  Max     0.004413088 RMS     0.001007888

 GradGradGradGradGradGradGradGradGradGradGradGradGradGradGradGradGradGrad
 Berny optimization.
 Using GEDIIS/GDIIS optimizer.
 FormGI is forming the generalized inverse of G from B-inverse, IUseBI=4.
 Internal  Forces:  Max     0.003313835 RMS     0.000577000
 Search for a local minimum.
 Step number   6 out of a maximum of   97
 All quantities printed in internal units (Hartrees-Bohrs-Radians)
 Mixed Optimization -- En-DIIS/RFO-DIIS
 Update second derivatives using D2CorX and points    3    4    5    6
 DE= -2.46D-04 DEPred=-2.16D-04 R= 1.14D+00
 TightC=F SS=  1.41D+00  RLast= 1.34D-01 DXNew= 1.4270D+00 4.0149D-01
 Trust test= 1.14D+00 RLast= 1.34D-01 DXMaxT set to 8.49D-01
 ITU=  1  1  1  1  1  0
 Use linear search instead of GDIIS.
     Eigenvalues ---    0.00238   0.00280   0.00727   0.01349   0.01438
     Eigenvalues ---    0.02414   0.04322   0.04559   0.05179   0.05235
     Eigenvalues ---    0.05327   0.05508   0.05912   0.05976   0.09822
     Eigenvalues ---    0.10366   0.12701   0.12762   0.12862   0.12991
     Eigenvalues ---    0.14467   0.15993   0.16000   0.16000   0.16023
     Eigenvalues ---    0.16042   0.16294   0.19706   0.20749   0.22360
     Eigenvalues ---    0.24775   0.25057   0.27623   0.28413   0.28516
     Eigenvalues ---    0.28618   0.28936   0.31800   0.31845   0.31935
     Eigenvalues ---    0.31992   0.32085   0.32128   0.32154   0.32192
     Eigenvalues ---    0.32287   0.33029   0.36033   0.37942   0.43609
     Eigenvalues ---    0.52008
 RFO step:  Lambda=-1.94781560D-04 EMin= 2.37747875D-03
 Quartic linear search produced a step of  0.17511.
 Iteration  1 RMS(Cart)=  0.03255622 RMS(Int)=  0.00050340
 Iteration  2 RMS(Cart)=  0.00059759 RMS(Int)=  0.00000578
 Iteration  3 RMS(Cart)=  0.00000019 RMS(Int)=  0.00000577
 Variable       Old X    -DE/DX   Delta X   Delta X   Delta X     New X
                                 (Linear)    (Quad)   (Total)
    R1        2.61575   0.00067  -0.00103   0.00143   0.00040   2.61615
    R2        2.62857   0.00034  -0.00098   0.00030  -0.00068   2.62790
    R3        2.62241   0.00032  -0.00094   0.00022  -0.00072   2.62169
    R4        3.00856   0.00004   0.00323   0.01434   0.01757   3.02613
    R5        2.80261  -0.00294  -0.00025  -0.00754  -0.00779   2.79482
    R6        2.79962  -0.00331   0.00003  -0.00839  -0.00836   2.79126
    R7        2.85428   0.00046  -0.00014   0.00120   0.00106   2.85534
    R8        2.07253   0.00020   0.00015   0.00064   0.00079   2.07333
    R9        2.05636   0.00036   0.00024   0.00136   0.00160   2.05796
   R10        2.07347   0.00006   0.00034   0.00057   0.00090   2.07437
   R11        2.07226   0.00015   0.00013   0.00049   0.00062   2.07289
   R12        2.06792   0.00034   0.00021   0.00122   0.00143   2.06935
   R13        2.85016   0.00055   0.00018   0.00196   0.00214   2.85231
   R14        2.07135   0.00018   0.00023   0.00074   0.00096   2.07231
   R15        2.05986   0.00048   0.00047   0.00203   0.00250   2.06236
   R16        2.07427  -0.00000   0.00033   0.00029   0.00062   2.07489
   R17        2.06923   0.00025   0.00016   0.00094   0.00110   2.07033
   R18        2.06504   0.00045   0.00002   0.00145   0.00148   2.06652
    A1        1.97189   0.00031   0.00030   0.00259   0.00288   1.97476
    A2        1.94552   0.00035  -0.00036   0.00271   0.00235   1.94787
    A3        1.85703  -0.00081   0.00047  -0.00460  -0.00413   1.85289
    A4        1.96099   0.00019   0.00011   0.00277   0.00288   1.96387
    A5        1.86178  -0.00019  -0.00041  -0.00321  -0.00363   1.85815
    A6        1.85759   0.00003  -0.00012  -0.00132  -0.00144   1.85615
    A7        2.01110   0.00072   0.00039   0.00545   0.00585   2.01695
    A8        2.03772  -0.00079   0.00121  -0.00286  -0.00165   2.03607
    A9        1.95428  -0.00005  -0.00126  -0.00144  -0.00270   1.95158
   A10        1.95654  -0.00061  -0.00091  -0.00472  -0.00563   1.95091
   A11        1.86408   0.00045   0.00044   0.00365   0.00407   1.86815
   A12        1.81184   0.00055   0.00160   0.00552   0.00712   1.81897
   A13        1.97093   0.00003  -0.00059  -0.00103  -0.00162   1.96931
   A14        1.93502  -0.00012  -0.00026  -0.00090  -0.00114   1.93388
   A15        1.91765  -0.00023  -0.00007  -0.00190  -0.00199   1.91566
   A16        1.86733   0.00032   0.00081   0.00305   0.00386   1.87119
   A17        1.93275   0.00004  -0.00017  -0.00006  -0.00023   1.93251
   A18        1.98010  -0.00002  -0.00063  -0.00112  -0.00175   1.97835
   A19        1.88509  -0.00002   0.00001   0.00099   0.00099   1.88608
   A20        1.87723  -0.00017   0.00003  -0.00111  -0.00108   1.87614
   A21        1.91751  -0.00014  -0.00000  -0.00152  -0.00153   1.91598
   A22        1.97233  -0.00110   0.00149  -0.00498  -0.00348   1.96885
   A23        1.85731   0.00057   0.00091   0.00397   0.00487   1.86218
   A24        1.82722   0.00063  -0.00009   0.00419   0.00410   1.83132
   A25        1.96016   0.00015  -0.00066  -0.00092  -0.00159   1.95857
   A26        1.92223   0.00009  -0.00094   0.00023  -0.00071   1.92151
   A27        1.91901  -0.00031  -0.00063  -0.00211  -0.00276   1.91625
   A28        1.85489   0.00052   0.00075   0.00454   0.00529   1.86017
   A29        1.94132   0.00008  -0.00003   0.00046   0.00043   1.94176
   A30        1.96659  -0.00013  -0.00027  -0.00173  -0.00200   1.96460
   A31        1.89123  -0.00017  -0.00017  -0.00047  -0.00064   1.89059
   A32        1.89245  -0.00020  -0.00043  -0.00164  -0.00207   1.89039
   A33        1.91442  -0.00009   0.00015  -0.00103  -0.00089   1.91354
    D1       -2.63820  -0.00006   0.00381   0.01490   0.01871  -2.61949
    D2        1.29783   0.00011   0.00398   0.01415   0.01813   1.31595
    D3        1.53554   0.00010   0.00343   0.01597   0.01939   1.55493
    D4       -0.81162   0.00027   0.00360   0.01521   0.01881  -0.79282
    D5       -0.56151  -0.00004   0.00357   0.01508   0.01865  -0.54286
    D6       -2.90867   0.00012   0.00375   0.01432   0.01807  -2.89060
    D7        2.78546  -0.00009  -0.00413  -0.04206  -0.04619   2.73927
    D8       -1.33035  -0.00014  -0.00516  -0.04384  -0.04901  -1.37935
    D9        0.69596   0.00004  -0.00433  -0.04191  -0.04623   0.64973
   D10       -1.11348  -0.00060  -0.00323  -0.04217  -0.04540  -1.15888
   D11        1.05390  -0.00065  -0.00426  -0.04395  -0.04822   1.00568
   D12        3.08021  -0.00047  -0.00343  -0.04202  -0.04544   3.03477
   D13       -0.88838   0.00006  -0.00143  -0.00409  -0.00552  -0.89390
   D14        1.27081  -0.00005  -0.00069  -0.00561  -0.00631   1.26450
   D15       -2.98042   0.00015  -0.00104  -0.00433  -0.00537  -2.98578
   D16        3.02298  -0.00013  -0.00194  -0.00786  -0.00980   3.01318
   D17       -1.10102  -0.00024  -0.00120  -0.00939  -0.01059  -1.11161
   D18        0.93094  -0.00005  -0.00155  -0.00810  -0.00965   0.92129
   D19       -2.92329  -0.00010  -0.00615  -0.01962  -0.02576  -2.94905
   D20       -0.87298   0.00008  -0.00575  -0.01669  -0.02243  -0.89542
   D21        1.29258  -0.00009  -0.00636  -0.01959  -0.02595   1.26663
   D22        1.25329  -0.00026  -0.00561  -0.02018  -0.02579   1.22750
   D23       -2.97959  -0.00007  -0.00521  -0.01724  -0.02246  -3.00205
   D24       -0.81403  -0.00024  -0.00582  -0.02015  -0.02597  -0.84000
   D25       -0.90738   0.00013  -0.00488  -0.01623  -0.02111  -0.92849
   D26        1.14292   0.00031  -0.00448  -0.01329  -0.01778   1.12515
   D27       -2.97470   0.00014  -0.00509  -0.01620  -0.02129  -2.99599
   D28       -3.01536  -0.00010   0.00259  -0.01291  -0.01032  -3.02568
   D29       -0.96042   0.00004   0.00282  -0.01053  -0.00771  -0.96813
   D30        1.19758  -0.00011   0.00279  -0.01282  -0.01003   1.18755
   D31        1.16639  -0.00017   0.00082  -0.01381  -0.01299   1.15339
   D32       -3.06186  -0.00002   0.00104  -0.01143  -0.01039  -3.07224
   D33       -0.90386  -0.00018   0.00101  -0.01372  -0.01271  -0.91656
   D34       -0.97874   0.00006   0.00280  -0.01061  -0.00782  -0.98656
   D35        1.07620   0.00021   0.00302  -0.00824  -0.00521   1.07099
   D36       -3.04899   0.00005   0.00300  -0.01053  -0.00753  -3.05652
         Item               Value     Threshold  Converged?
 Maximum Force            0.003314     0.000450     NO 
 RMS     Force            0.000577     0.000300     NO 
 Maximum Displacement     0.131267     0.001800     NO 
 RMS     Displacement     0.032596     0.001200     NO 
 Predicted change in Energy=-1.055588D-04
 GradGradGradGradGradGradGradGradGradGradGradGradGradGradGradGradGradGrad

                          Input orientation:                          
 ---------------------------------------------------------------------
 Center     Atomic      Atomic             Coordinates (Angstroms)
 Number     Number       Type             X           Y           Z
 ---------------------------------------------------------------------
      1          5           0       -1.795388    0.723825   -0.106880
      2          9           0       -1.696306    1.778419   -0.998278
      3          9           0       -1.968189    1.135659    1.210073
      4          9           0       -2.755270   -0.194562   -0.506751
      5          8           0       -0.389337   -0.040552   -0.162594
      6          6           0       -0.440737   -1.492294    0.115099
      7          6           0        0.742498   -2.219213   -0.480393
      8          6           0        0.746047    0.609616    0.522918
      9          6           0        0.926112    2.052224    0.117117
     10          1           0       -0.508202   -1.609118    1.203930
     11          1           0       -1.369766   -1.820624   -0.348673
     12          1           0        0.533225   -3.294353   -0.407953
     13          1           0        0.859705   -1.966221   -1.541288
     14          1           0        1.680774   -2.029898    0.051524
     15          1           0        0.568166    0.500813    1.599533
     16          1           0        1.621376    0.026257    0.232159
     17          1           0        1.856862    2.396111    0.587245
     18          1           0        1.032660    2.148952   -0.968963
     19          1           0        0.109310    2.690938    0.464591
 ---------------------------------------------------------------------
                    Distance matrix (angstroms):
                    1          2          3          4          5
     1  B    0.000000
     2  F    1.384405   0.000000
     3  F    1.390622   2.316004   0.000000
     4  F    1.387337   2.292522   2.310080   0.000000
     5  O    1.601360   2.390646   2.400096   2.395788   0.000000
     6  C    2.606825   3.676088   3.230823   2.725412   1.478956
     7  C    3.904081   4.711372   4.632566   4.041570   2.475603
     8  C    2.620797   3.105676   2.848856   3.737130   1.477071
     9  C    3.036673   2.862891   3.226704   4.357732   2.487640
    10  H    2.969460   4.211498   3.108923   3.158594   2.083727
    11  H    2.591108   3.671747   3.395204   2.142123   2.040717
    12  H    4.653905   5.572459   5.338547   4.520250   3.390950
    13  H    4.042696   4.566221   5.018827   4.156571   2.677518
    14  H    4.437542   5.197117   4.967687   4.833075   2.879011
    15  H    2.923690   3.675422   2.643446   3.995648   2.077252
    16  H    3.503687   3.948551   3.882276   4.444072   2.050185
    17  H    4.076430   3.939597   4.075251   5.401867   3.397792
    18  H    3.282077   2.754162   3.844483   4.478181   2.732440
    19  H    2.797140   2.496583   2.700118   4.180363   2.846585
                    6          7          8          9         10
     6  C    0.000000
     7  C    1.510982   0.000000
     8  C    2.448019   3.001486   0.000000
     9  C    3.798933   4.316933   1.509376   0.000000
    10  H    1.097157   2.184814   2.638123   4.079686   0.000000
    11  H    1.089027   2.153574   3.338023   4.526253   1.788185
    12  H    2.114143   1.097711   4.019053   5.386645   2.553968
    13  H    2.158558   1.096924   3.302847   4.347714   3.087866
    14  H    2.189491   1.095052   2.839535   4.151811   2.509325
    15  H    2.682146   3.428560   1.096622   2.175444   2.401432
    16  H    2.563594   2.514417   1.091352   2.145034   2.855502
    17  H    4.541098   4.866505   2.104665   1.097986   4.692087
    18  H    4.074894   4.404969   2.162732   1.095572   4.606387
    19  H    4.233690   5.040189   2.177324   1.093553   4.406634
                   11         12         13         14         15
    11  H    0.000000
    12  H    2.407647   0.000000
    13  H    2.532601   1.776224   0.000000
    14  H    3.083788   1.768286   1.793115   0.000000
    15  H    3.597243   4.293542   4.004498   3.168395   0.000000
    16  H    3.563042   3.552502   2.774027   2.064929   1.790018
    17  H    5.391468   5.926534   4.955291   4.461788   2.505518
    18  H    4.681233   5.494882   4.158379   4.350198   3.086954
    19  H    4.816976   6.063394   5.125990   4.992636   2.509041
                   16         17         18         19
    16  H    0.000000
    17  H    2.407851   0.000000
    18  H    2.509006   1.778251   0.000000
    19  H    3.072603   1.776486   1.789246   0.000000
 Stoichiometry    C4H10BF3O
 Framework group  C1[X(C4H10BF3O)]
 Deg. of freedom    51
 Full point group                 C1      NOp   1
 Largest Abelian subgroup         C1      NOp   1
 Largest concise Abelian subgroup C1      NOp   1
                         Standard orientation:                         
 ---------------------------------------------------------------------
 Center     Atomic      Atomic             Coordinates (Angstroms)
 Number     Number       Type             X           Y           Z
 ---------------------------------------------------------------------
      1          5           0       -1.025703   -0.618336   -0.030209
      2          9           0       -1.789563   -0.049764   -1.035108
      3          9           0       -1.504185   -0.338133    1.245084
      4          9           0       -0.835126   -1.976450   -0.239754
      5          8           0        0.420983    0.060773   -0.131528
      6          6           0        1.554299   -0.783681    0.304138
      7          6           0        2.857695   -0.335824   -0.315255
      8          6           0        0.540797    1.443600    0.373618
      9          6           0       -0.505147    2.368585   -0.199637
     10          1           0        1.572532   -0.756424    1.400805
     11          1           0        1.288465   -1.783859   -0.034914
     12          1           0        3.600739   -1.117014   -0.108866
     13          1           0        2.757784   -0.240389   -1.403442
     14          1           0        3.238998    0.600567    0.105360
     15          1           0        0.487993    1.385121    1.467406
     16          1           0        1.536845    1.769008    0.068583
     17          1           0       -0.251081    3.380031    0.143878
     18          1           0       -0.484241    2.361461   -1.294986
     19          1           0       -1.513380    2.130044    0.150255
 ---------------------------------------------------------------------
 Rotational constants (GHZ):           1.8327769           1.3726288           0.9777765
 Standard basis: Aug-CC-pVDZ (5D, 7F)
 There are   315 symmetry adapted cartesian basis functions of A   symmetry.
 There are   297 symmetry adapted basis functions of A   symmetry.
   297 basis functions,   497 primitive gaussians,   315 cartesian basis functions
    37 alpha electrons       37 beta electrons
       nuclear repulsion energy       523.5596442528 Hartrees.
 NAtoms=   19 NActive=   19 NUniq=   19 SFac= 1.00D+00 NAtFMM=   60 NAOKFM=F Big=F
 Integral buffers will be    131072 words long.
 Raffenetti 2 integral format.
 Two-electron integral symmetry is turned on.
 Nuclear repulsion after empirical dispersion term =      523.5475724687 Hartrees.
 Force PCM accuracy= 1.00D-12.
 ------------------------------------------------------------------------------
 Polarizable Continuum Model (PCM)
 =================================
 Model                : C-PCM.
 Atomic radii         : UFF (Universal Force Field).
 Polarization charges : Total charges.
 Charge compensation  : None.
 Solution method      : On-the-fly selection.
 Cavity type          : Scaled VdW (van der Waals Surface) (Alpha=1.100).
 Cavity algorithm     : GePol (No added spheres)
                        Default sphere list used, NSphG=   19.
                        Lebedev-Laikov grids with approx.  5.0 points / Ang**2.
                        Smoothing algorithm: York/Karplus (Gamma=1.0000).
                        Polarization charges: spherical gaussians, with
                                              point-specific exponents (IZeta= 3).
                        Self-potential: point-specific (ISelfS= 7).
                        Self-field    : sphere-specific E.n sum rule (ISelfD= 2).
 1st derivatives      : Analytical E(r).r(x)/FMM algorithm (CHGder, D1EAlg=3).
                        Cavity 1st derivative terms included.
 Solvent              : Water, Eps=  78.355300 Eps(inf)=   1.777849
 ------------------------------------------------------------------------------
 Spheres list:
 ISph  on   Nord     Re0    Alpha      Xe            Ye            Ze
    1   B      1    2.0415  1.100     -1.025703     -0.618336     -0.030209
    2   F      2    1.6820  1.100     -1.789563     -0.049764     -1.035108
    3   F      3    1.6820  1.100     -1.504185     -0.338133      1.245084
    4   F      4    1.6820  1.100     -0.835126     -1.976450     -0.239754
    5   O      5    1.7500  1.100      0.420983      0.060773     -0.131528
    6   C      6    1.9255  1.100      1.554299     -0.783681      0.304138
    7   C      7    1.9255  1.100      2.857695     -0.335824     -0.315255
    8   C      8    1.9255  1.100      0.540797      1.443600      0.373618
    9   C      9    1.9255  1.100     -0.505147      2.368585     -0.199637
   10   H     10    1.4430  1.100      1.572532     -0.756424      1.400805
   11   H     11    1.4430  1.100      1.288465     -1.783859     -0.034914
   12   H     12    1.4430  1.100      3.600739     -1.117014     -0.108866
   13   H     13    1.4430  1.100      2.757784     -0.240389     -1.403442
   14   H     14    1.4430  1.100      3.238998      0.600567      0.105360
   15   H     15    1.4430  1.100      0.487993      1.385121      1.467406
   16   H     16    1.4430  1.100      1.536845      1.769008      0.068583
   17   H     17    1.4430  1.100     -0.251081      3.380031      0.143878
   18   H     18    1.4430  1.100     -0.484241      2.361461     -1.294986
   19   H     19    1.4430  1.100     -1.513380      2.130044      0.150255
 ------------------------------------------------------------------------------
 One-electron integrals computed using PRISM.
 NBasis=   297 RedAO= T EigKep=  3.11D-05  NBF=   297
 NBsUse=   297 1.00D-06 EigRej= -1.00D+00 NBFU=   297
 Initial guess from the checkpoint file:  "/inspire/hdd/project/materialscienceresearch/lipenghui-253107030018/g16/00-B-DFT-Shift/04-output/BF3OEt2_D2O/BF3OEt2_D2O.chk"
 B after Tr=    -0.000000   -0.000000   -0.000000
         Rot=    0.999988    0.004121    0.002304   -0.001228 Ang=   0.56 deg.
 ExpMin= 2.38D-02 ExpMax= 1.47D+04 ExpMxC= 5.03D+02 IAcc=3 IRadAn=         5 AccDes= 0.00D+00
 Harris functional with IExCor= 4639 and IRadAn=       5 diagonalized for initial guess.
 HarFok:  IExCor= 4639 AccDes= 0.00D+00 IRadAn=         5 IDoV= 1 UseB2=F ITyADJ=14
 ICtDFT=  3500011 ScaDFX=  1.000000  1.000000  1.000000  1.000000
 FoFCou: FMM=F IPFlag=           0 FMFlag=      100000 FMFlg1=           0
         NFxFlg=           0 DoJE=T BraDBF=F KetDBF=T FulRan=T
         wScrn=  0.000000 ICntrl=       500 IOpCl=  0 I1Cent=   200000004 NGrid=           0
         NMat0=    1 NMatS0=      1 NMatT0=    0 NMatD0=    1 NMtDS0=    0 NMtDT0=    0
 Petite list used in FoFCou.
 Requested convergence on RMS density matrix=1.00D-08 within 128 cycles.
 Requested convergence on MAX density matrix=1.00D-06.
 Requested convergence on             energy=1.00D-06.
 No special actions if energy rises.
 Inv3:  Mode=1 IEnd=     6777027.
 Iteration    1 A*A^-1 deviation from unit magnitude is 4.88D-15 for   1493.
 Iteration    1 A*A^-1 deviation from orthogonality  is 1.90D-15 for   1482    679.
 Iteration    1 A^-1*A deviation from unit magnitude is 5.11D-15 for   1493.
 Iteration    1 A^-1*A deviation from orthogonality  is 2.20D-15 for   1250    102.
 Error on total polarization charges =  0.01116
 SCF Done:  E(RwB97XD) =  -558.151036374     A.U. after   10 cycles
            NFock= 10  Conv=0.83D-08     -V/T= 2.0061
 D1PCM: C-PCM CHGder 1st derivatives, ID1Alg=3 FixD1E=F DoIter=F DoCFld=F I1PDM=0.
 Calling FoFJK, ICntrl=      2127 FMM=F ISym2X=0 I1Cent= 0 IOpClX= 0 NMat=1 NMatS=1 NMatT=0.
 ***** Axes restored to original set *****
 -------------------------------------------------------------------
 Center     Atomic                   Forces (Hartrees/Bohr)
 Number     Number              X              Y              Z
 -------------------------------------------------------------------
      1        5           0.000613563   -0.000434974    0.000216081
      2        9           0.000282579   -0.000181117    0.000015581
      3        9          -0.000004321   -0.000065777   -0.000291417
      4        9           0.000246187    0.000138717    0.000165654
      5        8           0.000393436   -0.000481984    0.000756187
      6        6           0.000185836    0.002521748   -0.000677861
      7        6          -0.000204843   -0.000852386   -0.000425236
      8        6          -0.001949522   -0.000856350   -0.000546593
      9        6           0.000441653    0.000105788   -0.000005578
     10        1           0.000042655   -0.000212649   -0.000060999
     11        1          -0.000008207   -0.000139231    0.000538896
     12        1           0.000137928    0.000234273    0.000049833
     13        1           0.000107666    0.000132222    0.000199345
     14        1          -0.000004374   -0.000186209   -0.000184924
     15        1           0.000144007    0.000059600   -0.000096752
     16        1          -0.000080540    0.000286776    0.000451488
     17        1          -0.000250056   -0.000083665   -0.000094365
     18        1          -0.000140206   -0.000014161    0.000082222
     19        1           0.000046557    0.000029377   -0.000091560
 -------------------------------------------------------------------
 Cartesian Forces:  Max     0.002521748 RMS     0.000525486

 GradGradGradGradGradGradGradGradGradGradGradGradGradGradGradGradGradGrad
 Berny optimization.
 Using GEDIIS/GDIIS optimizer.
 FormGI is forming the generalized inverse of G from B-inverse, IUseBI=4.
 Internal  Forces:  Max     0.001726515 RMS     0.000366778
 Search for a local minimum.
 Step number   7 out of a maximum of   97
 All quantities printed in internal units (Hartrees-Bohrs-Radians)
 Mixed Optimization -- En-DIIS/RFO-DIIS
 Swapping is turned off.
 Update second derivatives using D2CorX and points    3    4    5    6    7
 DE= -1.58D-04 DEPred=-1.06D-04 R= 1.49D+00
 TightC=F SS=  1.41D+00  RLast= 1.49D-01 DXNew= 1.4270D+00 4.4647D-01
 Trust test= 1.49D+00 RLast= 1.49D-01 DXMaxT set to 8.49D-01
 ITU=  1  1  1  1  1  1  0
     Eigenvalues ---    0.00189   0.00285   0.00343   0.01405   0.01439
     Eigenvalues ---    0.02382   0.04367   0.04613   0.05177   0.05251
     Eigenvalues ---    0.05327   0.05352   0.05879   0.05945   0.09792
     Eigenvalues ---    0.10221   0.12790   0.12796   0.12916   0.13014
     Eigenvalues ---    0.15551   0.15941   0.16000   0.16010   0.16024
     Eigenvalues ---    0.16133   0.17164   0.19530   0.20795   0.24353
     Eigenvalues ---    0.24762   0.25324   0.28035   0.28390   0.28537
     Eigenvalues ---    0.28658   0.29307   0.31777   0.31838   0.31934
     Eigenvalues ---    0.31976   0.32094   0.32145   0.32157   0.32217
     Eigenvalues ---    0.32308   0.33452   0.37635   0.41437   0.42886
     Eigenvalues ---    0.51603
 En-DIIS/RFO-DIIS/Sim-DIIS IScMMF=       -3 using points:     7    6
 RFO step:  Lambda=-3.20862440D-04.
 DidBck=F Rises=F RFO-DIIS coefs:    3.00000   -2.00000
 Iteration  1 RMS(Cart)=  0.08491360 RMS(Int)=  0.00295462
 Iteration  2 RMS(Cart)=  0.00379752 RMS(Int)=  0.00002440
 Iteration  3 RMS(Cart)=  0.00000555 RMS(Int)=  0.00002409
 Iteration  4 RMS(Cart)=  0.00000000 RMS(Int)=  0.00002409
 Variable       Old X    -DE/DX   Delta X   Delta X   Delta X     New X
                                 (Linear)    (Quad)   (Total)
    R1        2.61615  -0.00013   0.00080  -0.00364  -0.00284   2.61331
    R2        2.62790  -0.00029  -0.00136  -0.00330  -0.00465   2.62324
    R3        2.62169  -0.00031  -0.00144  -0.00353  -0.00497   2.61672
    R4        3.02613  -0.00125   0.03515   0.00291   0.03806   3.06419
    R5        2.79482  -0.00159  -0.01558  -0.00046  -0.01604   2.77879
    R6        2.79126  -0.00173  -0.01672   0.00062  -0.01610   2.77516
    R7        2.85534   0.00050   0.00212   0.00155   0.00367   2.85901
    R8        2.07333  -0.00004   0.00158  -0.00059   0.00099   2.07431
    R9        2.05796  -0.00018   0.00320  -0.00182   0.00138   2.05934
   R10        2.07437  -0.00025   0.00181  -0.00114   0.00067   2.07504
   R11        2.07289  -0.00015   0.00124  -0.00116   0.00008   2.07297
   R12        2.06935  -0.00013   0.00285  -0.00152   0.00133   2.07068
   R13        2.85231   0.00008   0.00429  -0.00108   0.00321   2.85551
   R14        2.07231  -0.00013   0.00193  -0.00093   0.00099   2.07331
   R15        2.06236  -0.00034   0.00499  -0.00289   0.00210   2.06446
   R16        2.07489  -0.00028   0.00124  -0.00110   0.00014   2.07504
   R17        2.07033  -0.00010   0.00220  -0.00111   0.00108   2.07141
   R18        2.06652  -0.00005   0.00296  -0.00179   0.00117   2.06769
    A1        1.97476   0.00016   0.00576   0.00164   0.00734   1.98210
    A2        1.94787   0.00026   0.00470   0.00045   0.00510   1.95298
    A3        1.85289  -0.00062  -0.00827  -0.00133  -0.00964   1.84325
    A4        1.96387  -0.00000   0.00575  -0.00003   0.00569   1.96956
    A5        1.85815   0.00019  -0.00725   0.00109  -0.00620   1.85195
    A6        1.85615  -0.00005  -0.00289  -0.00215  -0.00507   1.85107
    A7        2.01695   0.00023   0.01170   0.00045   0.01215   2.02910
    A8        2.03607  -0.00076  -0.00330   0.00066  -0.00267   2.03340
    A9        1.95158   0.00048  -0.00540   0.00370  -0.00173   1.94985
   A10        1.95091   0.00062  -0.01126   0.00776  -0.00348   1.94742
   A11        1.86815  -0.00010   0.00815  -0.00023   0.00789   1.87604
   A12        1.81897  -0.00009   0.01424  -0.00364   0.01058   1.82955
   A13        1.96931  -0.00005  -0.00325   0.00188  -0.00137   1.96794
   A14        1.93388  -0.00030  -0.00228  -0.00360  -0.00587   1.92802
   A15        1.91566  -0.00008  -0.00399  -0.00254  -0.00664   1.90902
   A16        1.87119   0.00005   0.00772  -0.00056   0.00715   1.87834
   A17        1.93251  -0.00008  -0.00047  -0.00154  -0.00202   1.93049
   A18        1.97835   0.00030  -0.00350   0.00321  -0.00030   1.97806
   A19        1.88608   0.00007   0.00198   0.00044   0.00241   1.88850
   A20        1.87614  -0.00018  -0.00216  -0.00117  -0.00333   1.87281
   A21        1.91598  -0.00017  -0.00306  -0.00047  -0.00355   1.91243
   A22        1.96885  -0.00025  -0.00696   0.00661  -0.00034   1.96851
   A23        1.86218   0.00011   0.00975  -0.00091   0.00883   1.87101
   A24        1.83132   0.00031   0.00821  -0.00068   0.00752   1.83884
   A25        1.95857   0.00009  -0.00318  -0.00010  -0.00329   1.95527
   A26        1.92151  -0.00012  -0.00142  -0.00368  -0.00511   1.91640
   A27        1.91625  -0.00013  -0.00552  -0.00128  -0.00689   1.90936
   A28        1.86017   0.00001   0.01057  -0.00246   0.00810   1.86828
   A29        1.94176  -0.00006   0.00087  -0.00145  -0.00060   1.94116
   A30        1.96460   0.00011  -0.00399   0.00226  -0.00173   1.96287
   A31        1.89059   0.00006  -0.00129   0.00089  -0.00043   1.89016
   A32        1.89039  -0.00003  -0.00413   0.00042  -0.00370   1.88668
   A33        1.91354  -0.00008  -0.00177   0.00029  -0.00149   1.91205
    D1       -2.61949   0.00012   0.03743   0.01106   0.04850  -2.57099
    D2        1.31595  -0.00005   0.03626   0.00379   0.04005   1.35600
    D3        1.55493   0.00015   0.03878   0.00928   0.04805   1.60298
    D4       -0.79282  -0.00001   0.03761   0.00201   0.03960  -0.75322
    D5       -0.54286   0.00008   0.03730   0.00986   0.04718  -0.49568
    D6       -2.89060  -0.00008   0.03613   0.00259   0.03872  -2.85188
    D7        2.73927  -0.00028  -0.09237  -0.04458  -0.13696   2.60231
    D8       -1.37935  -0.00002  -0.09801  -0.03742  -0.13548  -1.51483
    D9        0.64973  -0.00019  -0.09245  -0.04210  -0.13452   0.51522
   D10       -1.15888  -0.00067  -0.09080  -0.03891  -0.12971  -1.28859
   D11        1.00568  -0.00041  -0.09644  -0.03175  -0.12823   0.87746
   D12        3.03477  -0.00058  -0.09088  -0.03644  -0.12726   2.90750
   D13       -0.89390  -0.00013  -0.01104  -0.01775  -0.02881  -0.92270
   D14        1.26450  -0.00009  -0.01261  -0.01429  -0.02693   1.23757
   D15       -2.98578  -0.00005  -0.01074  -0.01647  -0.02720  -3.01299
   D16        3.01318  -0.00020  -0.01960  -0.02340  -0.04300   2.97018
   D17       -1.11161  -0.00016  -0.02118  -0.01994  -0.04112  -1.15273
   D18        0.92129  -0.00012  -0.01930  -0.02213  -0.04139   0.87990
   D19       -2.94905   0.00007  -0.05153   0.01818  -0.03335  -2.98240
   D20       -0.89542   0.00014  -0.04487   0.01754  -0.02733  -0.92274
   D21        1.26663   0.00008  -0.05189   0.01812  -0.03377   1.23286
   D22        1.22750  -0.00021  -0.05158   0.01150  -0.04008   1.18742
   D23       -3.00205  -0.00014  -0.04492   0.01086  -0.03406  -3.03611
   D24       -0.84000  -0.00020  -0.05195   0.01143  -0.04051  -0.88051
   D25       -0.92849   0.00015  -0.04221   0.01618  -0.02605  -0.95453
   D26        1.12515   0.00023  -0.03555   0.01554  -0.02002   1.10512
   D27       -2.99599   0.00017  -0.04258   0.01611  -0.02647  -3.02246
   D28       -3.02568  -0.00003  -0.02064   0.02179   0.00114  -3.02453
   D29       -0.96813   0.00001  -0.01543   0.02059   0.00517  -0.96296
   D30        1.18755  -0.00006  -0.02006   0.02156   0.00150   1.18905
   D31        1.15339  -0.00007  -0.02599   0.01827  -0.00771   1.14569
   D32       -3.07224  -0.00003  -0.02078   0.01708  -0.00368  -3.07592
   D33       -0.91656  -0.00009  -0.02541   0.01805  -0.00735  -0.92391
   D34       -0.98656   0.00012  -0.01564   0.02264   0.00698  -0.97958
   D35        1.07099   0.00016  -0.01043   0.02144   0.01101   1.08199
   D36       -3.05652   0.00010  -0.01506   0.02241   0.00733  -3.04918
         Item               Value     Threshold  Converged?
 Maximum Force            0.001727     0.000450     NO 
 RMS     Force            0.000367     0.000300     NO 
 Maximum Displacement     0.339942     0.001800     NO 
 RMS     Displacement     0.085120     0.001200     NO 
 Predicted change in Energy=-1.803027D-04
 GradGradGradGradGradGradGradGradGradGradGradGradGradGradGradGradGradGrad

                          Input orientation:                          
 ---------------------------------------------------------------------
 Center     Atomic      Atomic             Coordinates (Angstroms)
 Number     Number       Type             X           Y           Z
 ---------------------------------------------------------------------
      1          5           0       -1.798496    0.720060   -0.142547
      2          9           0       -1.674361    1.724553   -1.084887
      3          9           0       -1.994396    1.191273    1.148410
      4          9           0       -2.736836   -0.226696   -0.517500
      5          8           0       -0.369160   -0.045515   -0.129994
      6          6           0       -0.406233   -1.488027    0.152965
      7          6           0        0.714277   -2.222004   -0.550361
      8          6           0        0.725077    0.621077    0.587604
      9          6           0        0.935958    2.048230    0.138042
     10          1           0       -0.375795   -1.611209    1.243286
     11          1           0       -1.373923   -1.820890   -0.221663
     12          1           0        0.531756   -3.298400   -0.432881
     13          1           0        0.714971   -1.989554   -1.622415
     14          1           0        1.703292   -2.011162   -0.128366
     15          1           0        0.497306    0.556489    1.658902
     16          1           0        1.616917    0.028869    0.369914
     17          1           0        1.841744    2.413304    0.640050
     18          1           0        1.096659    2.103451   -0.944852
     19          1           0        0.104782    2.702131    0.418708
 ---------------------------------------------------------------------
                    Distance matrix (angstroms):
                    1          2          3          4          5
     1  B    0.000000
     2  F    1.382903   0.000000
     3  F    1.388159   2.318280   0.000000
     4  F    1.384709   2.293066   2.310218   0.000000
     5  O    1.621500   2.397605   2.409429   2.406008   0.000000
     6  C    2.627046   3.668937   3.269834   2.733530   1.470470
     7  C    3.890511   4.643988   4.676878   3.986541   2.467316
     8  C    2.628942   3.126050   2.834636   3.731597   1.468552
     9  C    3.052868   2.900705   3.215928   4.369718   2.481721
    10  H    3.062584   4.270125   3.237711   3.254498   2.082628
    11  H    2.577392   3.661364   3.366780   2.118137   2.042036
    12  H    4.654287   5.524683   5.388792   4.486225   3.388901
    13  H    3.981148   4.448869   5.013562   4.030320   2.679917
    14  H    4.440978   5.126308   5.055555   4.801091   2.856366
    15  H    2.922786   3.689023   2.621476   3.976151   2.076853
    16  H    3.522131   3.977977   3.872832   4.450616   2.049377
    17  H    4.090340   3.976529   4.058050   5.410445   3.395122
    18  H    3.307474   2.800308   3.842972   4.506428   2.725926
    19  H    2.804653   2.526224   2.687323   4.186801   2.841699
                    6          7          8          9         10
     6  C    0.000000
     7  C    1.512922   0.000000
     8  C    2.432507   3.062383   0.000000
     9  C    3.782434   4.331043   1.511073   0.000000
    10  H    1.097679   2.185977   2.573895   4.041503   0.000000
    11  H    1.089756   2.151630   3.320228   4.520511   1.785021
    12  H    2.121436   1.098064   4.054758   5.392196   2.545545
    13  H    2.158844   1.096966   3.420480   4.410413   3.089525
    14  H    2.191555   1.095757   2.897964   4.139859   2.522696
    15  H    2.695231   3.556394   1.097146   2.175022   2.373595
    16  H    2.537948   2.593857   1.092465   2.143662   2.724617
    17  H    4.528911   4.916740   2.112291   1.098062   4.634444
    18  H    4.045071   4.360207   2.164239   1.096144   4.555740
    19  H    4.229560   5.055461   2.178091   1.094173   4.417667
                   11         12         13         14         15
    11  H    0.000000
    12  H    2.420591   0.000000
    13  H    2.520721   1.778099   0.000000
    14  H    3.084503   1.766977   1.791488   0.000000
    15  H    3.562296   4.385990   4.158937   3.352843   0.000000
    16  H    3.566048   3.590651   2.976057   2.101778   1.787009
    17  H    5.386229   5.957416   5.076763   4.492830   2.508652
    18  H    4.693318   5.455385   4.166230   4.238478   3.087369
    19  H    4.801496   6.075680   5.152711   5.006961   2.509171
                   16         17         18         19
    16  H    0.000000
    17  H    2.410197   0.000000
    18  H    2.510611   1.778503   0.000000
    19  H    3.071688   1.774670   1.789283   0.000000
 Stoichiometry    C4H10BF3O
 Framework group  C1[X(C4H10BF3O)]
 Deg. of freedom    51
 Full point group                 C1      NOp   1
 Largest Abelian subgroup         C1      NOp   1
 Largest concise Abelian subgroup C1      NOp   1
                         Standard orientation:                         
 ---------------------------------------------------------------------
 Center     Atomic      Atomic             Coordinates (Angstroms)
 Number     Number       Type             X           Y           Z
 ---------------------------------------------------------------------
      1          5           0       -1.018819   -0.642885   -0.035114
      2          9           0       -1.734803   -0.128060   -1.100357
      3          9           0       -1.561140   -0.326317    1.202893
      4          9           0       -0.773644   -1.997539   -0.184182
      5          8           0        0.429606    0.083896   -0.090942
      6          6           0        1.576221   -0.714536    0.367385
      7          6           0        2.845635   -0.335856   -0.363451
      8          6           0        0.491170    1.462095    0.412470
      9          6           0       -0.536965    2.365546   -0.227888
     10          1           0        1.656601   -0.582797    1.454162
     11          1           0        1.303241   -1.746364    0.147429
     12          1           0        3.615225   -1.072157   -0.096361
     13          1           0        2.693351   -0.377759   -1.448987
     14          1           0        3.228894    0.652028   -0.084376
     15          1           0        0.375551    1.414835    1.502482
     16          1           0        1.496233    1.814392    0.169130
     17          1           0       -0.330370    3.386088    0.120756
     18          1           0       -0.451953    2.351355   -1.320639
     19          1           0       -1.559616    2.107378    0.063230
 ---------------------------------------------------------------------
 Rotational constants (GHZ):           1.8130675           1.3741747           0.9803831
 Standard basis: Aug-CC-pVDZ (5D, 7F)
 There are   315 symmetry adapted cartesian basis functions of A   symmetry.
 There are   297 symmetry adapted basis functions of A   symmetry.
   297 basis functions,   497 primitive gaussians,   315 cartesian basis functions
    37 alpha electrons       37 beta electrons
       nuclear repulsion energy       523.0496873833 Hartrees.
 NAtoms=   19 NActive=   19 NUniq=   19 SFac= 1.00D+00 NAtFMM=   60 NAOKFM=F Big=F
 Integral buffers will be    131072 words long.
 Raffenetti 2 integral format.
 Two-electron integral symmetry is turned on.
 Nuclear repulsion after empirical dispersion term =      523.0376672263 Hartrees.
 Force PCM accuracy= 1.00D-12.
 ------------------------------------------------------------------------------
 Polarizable Continuum Model (PCM)
 =================================
 Model                : C-PCM.
 Atomic radii         : UFF (Universal Force Field).
 Polarization charges : Total charges.
 Charge compensation  : None.
 Solution method      : On-the-fly selection.
 Cavity type          : Scaled VdW (van der Waals Surface) (Alpha=1.100).
 Cavity algorithm     : GePol (No added spheres)
                        Default sphere list used, NSphG=   19.
                        Lebedev-Laikov grids with approx.  5.0 points / Ang**2.
                        Smoothing algorithm: York/Karplus (Gamma=1.0000).
                        Polarization charges: spherical gaussians, with
                                              point-specific exponents (IZeta= 3).
                        Self-potential: point-specific (ISelfS= 7).
                        Self-field    : sphere-specific E.n sum rule (ISelfD= 2).
 1st derivatives      : Analytical E(r).r(x)/FMM algorithm (CHGder, D1EAlg=3).
                        Cavity 1st derivative terms included.
 Solvent              : Water, Eps=  78.355300 Eps(inf)=   1.777849
 ------------------------------------------------------------------------------
 Spheres list:
 ISph  on   Nord     Re0    Alpha      Xe            Ye            Ze
    1   B      1    2.0415  1.100     -1.018819     -0.642885     -0.035114
    2   F      2    1.6820  1.100     -1.734803     -0.128060     -1.100357
    3   F      3    1.6820  1.100     -1.561140     -0.326317      1.202893
    4   F      4    1.6820  1.100     -0.773644     -1.997539     -0.184182
    5   O      5    1.7500  1.100      0.429606      0.083896     -0.090942
    6   C      6    1.9255  1.100      1.576221     -0.714536      0.367385
    7   C      7    1.9255  1.100      2.845635     -0.335856     -0.363451
    8   C      8    1.9255  1.100      0.491170      1.462095      0.412470
    9   C      9    1.9255  1.100     -0.536965      2.365546     -0.227888
   10   H     10    1.4430  1.100      1.656601     -0.582797      1.454162
   11   H     11    1.4430  1.100      1.303241     -1.746364      0.147429
   12   H     12    1.4430  1.100      3.615225     -1.072157     -0.096361
   13   H     13    1.4430  1.100      2.693351     -0.377759     -1.448987
   14   H     14    1.4430  1.100      3.228894      0.652028     -0.084376
   15   H     15    1.4430  1.100      0.375551      1.414835      1.502482
   16   H     16    1.4430  1.100      1.496233      1.814392      0.169130
   17   H     17    1.4430  1.100     -0.330370      3.386088      0.120756
   18   H     18    1.4430  1.100     -0.451953      2.351355     -1.320639
   19   H     19    1.4430  1.100     -1.559616      2.107378      0.063230
 ------------------------------------------------------------------------------
 One-electron integrals computed using PRISM.
 NBasis=   297 RedAO= T EigKep=  2.90D-05  NBF=   297
 NBsUse=   297 1.00D-06 EigRej= -1.00D+00 NBFU=   297
 Initial guess from the checkpoint file:  "/inspire/hdd/project/materialscienceresearch/lipenghui-253107030018/g16/00-B-DFT-Shift/04-output/BF3OEt2_D2O/BF3OEt2_D2O.chk"
 B after Tr=     0.000000    0.000000    0.000000
         Rot=    0.999888    0.010253    0.006419   -0.008821 Ang=   1.72 deg.
 ExpMin= 2.38D-02 ExpMax= 1.47D+04 ExpMxC= 5.03D+02 IAcc=3 IRadAn=         5 AccDes= 0.00D+00
 Harris functional with IExCor= 4639 and IRadAn=       5 diagonalized for initial guess.
 HarFok:  IExCor= 4639 AccDes= 0.00D+00 IRadAn=         5 IDoV= 1 UseB2=F ITyADJ=14
 ICtDFT=  3500011 ScaDFX=  1.000000  1.000000  1.000000  1.000000
 FoFCou: FMM=F IPFlag=           0 FMFlag=      100000 FMFlg1=           0
         NFxFlg=           0 DoJE=T BraDBF=F KetDBF=T FulRan=T
         wScrn=  0.000000 ICntrl=       500 IOpCl=  0 I1Cent=   200000004 NGrid=           0
         NMat0=    1 NMatS0=      1 NMatT0=    0 NMatD0=    1 NMtDS0=    0 NMtDT0=    0
 Petite list used in FoFCou.
 Requested convergence on RMS density matrix=1.00D-08 within 128 cycles.
 Requested convergence on MAX density matrix=1.00D-06.
 Requested convergence on             energy=1.00D-06.
 No special actions if energy rises.
 Inv3:  Mode=1 IEnd=     6976875.
 Iteration    1 A*A^-1 deviation from unit magnitude is 4.88D-15 for   1524.
 Iteration    1 A*A^-1 deviation from orthogonality  is 2.50D-15 for   1518   1093.
 Iteration    1 A^-1*A deviation from unit magnitude is 4.88D-15 for   1524.
 Iteration    1 A^-1*A deviation from orthogonality  is 2.53D-15 for   1523    798.
 Error on total polarization charges =  0.01121
 SCF Done:  E(RwB97XD) =  -558.151254436     A.U. after   11 cycles
            NFock= 11  Conv=0.40D-08     -V/T= 2.0061
 D1PCM: C-PCM CHGder 1st derivatives, ID1Alg=3 FixD1E=F DoIter=F DoCFld=F I1PDM=0.
 Calling FoFJK, ICntrl=      2127 FMM=F ISym2X=0 I1Cent= 0 IOpClX= 0 NMat=1 NMatS=1 NMatT=0.
 ***** Axes restored to original set *****
 -------------------------------------------------------------------
 Center     Atomic                   Forces (Hartrees/Bohr)
 Number     Number              X              Y              Z
 -------------------------------------------------------------------
      1        5           0.003120354   -0.001589434   -0.000025587
      2        9           0.000396918   -0.000000719    0.000634609
      3        9          -0.000107049    0.000002206   -0.000635305
      4        9          -0.000177615    0.000389413    0.000055967
      5        8          -0.003900933    0.001587367    0.000393484
      6        6           0.000097711   -0.001813258   -0.000840377
      7        6           0.000243065   -0.000248809   -0.000160474
      8        6           0.001903592    0.001168847    0.000744373
      9        6          -0.000293594    0.000260049   -0.000353328
     10        1           0.000163698    0.000432513   -0.000373273
     11        1           0.000412154    0.000302121    0.000745031
     12        1          -0.000223585    0.000511823    0.000037076
     13        1           0.000006524    0.000015291    0.000296944
     14        1          -0.000117546    0.000298923   -0.000229655
     15        1          -0.000437944   -0.000012677   -0.000512652
     16        1          -0.000566764   -0.000360129    0.000289212
     17        1          -0.000288010   -0.000613191   -0.000053484
     18        1          -0.000224826   -0.000116521    0.000280610
     19        1          -0.000006151   -0.000213814   -0.000293172
 -------------------------------------------------------------------
 Cartesian Forces:  Max     0.003900933 RMS     0.000885982

 GradGradGradGradGradGradGradGradGradGradGradGradGradGradGradGradGradGrad
 Berny optimization.
 Using GEDIIS/GDIIS optimizer.
 FormGI is forming the generalized inverse of G from B-inverse, IUseBI=4.
 Internal  Forces:  Max     0.003418456 RMS     0.000568967
 Search for a local minimum.
 Step number   8 out of a maximum of   97
 All quantities printed in internal units (Hartrees-Bohrs-Radians)
 Mixed Optimization -- En-DIIS/RFO-DIIS
 Swapping is turned off.
 Update second derivatives using D2CorX and points    6    7    8
 DE= -2.18D-04 DEPred=-1.80D-04 R= 1.21D+00
 TightC=F SS=  1.41D+00  RLast= 3.69D-01 DXNew= 1.4270D+00 1.1083D+00
 Trust test= 1.21D+00 RLast= 3.69D-01 DXMaxT set to 1.11D+00
 ITU=  1  1  1  1  1  1  1  0
     Eigenvalues ---    0.00085   0.00284   0.00347   0.01435   0.01538
     Eigenvalues ---    0.02437   0.04432   0.04690   0.05164   0.05268
     Eigenvalues ---    0.05387   0.05524   0.05846   0.05908   0.09754
     Eigenvalues ---    0.10320   0.12781   0.12895   0.12944   0.13201
     Eigenvalues ---    0.15571   0.15999   0.16003   0.16023   0.16073
     Eigenvalues ---    0.16175   0.17642   0.20267   0.21137   0.24621
     Eigenvalues ---    0.24987   0.25440   0.28291   0.28446   0.28655
     Eigenvalues ---    0.29108   0.29986   0.31797   0.31877   0.31941
     Eigenvalues ---    0.32016   0.32094   0.32145   0.32157   0.32216
     Eigenvalues ---    0.32336   0.34049   0.37612   0.42228   0.46670
     Eigenvalues ---    0.53142
 En-DIIS/RFO-DIIS/Sim-DIIS IScMMF=       -3 using points:     8    7    6
 RFO step:  Lambda=-3.15880347D-04.
 DidBck=F Rises=F RFO-DIIS coefs:    1.27181    1.12756   -1.39937
 Iteration  1 RMS(Cart)=  0.07003061 RMS(Int)=  0.00222805
 Iteration  2 RMS(Cart)=  0.00276134 RMS(Int)=  0.00004287
 Iteration  3 RMS(Cart)=  0.00000368 RMS(Int)=  0.00004278
 Iteration  4 RMS(Cart)=  0.00000000 RMS(Int)=  0.00004278
 Variable       Old X    -DE/DX   Delta X   Delta X   Delta X     New X
                                 (Linear)    (Quad)   (Total)
    R1        2.61331  -0.00040  -0.00021  -0.00165  -0.00186   2.61145
    R2        2.62324  -0.00058  -0.00221  -0.00131  -0.00353   2.61972
    R3        2.61672  -0.00016  -0.00236  -0.00036  -0.00271   2.61401
    R4        3.06419  -0.00342   0.03494  -0.01079   0.02415   3.08834
    R5        2.77879   0.00037  -0.01526   0.00420  -0.01106   2.76772
    R6        2.77516   0.00016  -0.01608   0.00469  -0.01138   2.76378
    R7        2.85901  -0.00031   0.00248  -0.00085   0.00163   2.86064
    R8        2.07431  -0.00042   0.00138  -0.00102   0.00035   2.07467
    R9        2.05934  -0.00072   0.00261  -0.00215   0.00047   2.05981
   R10        2.07504  -0.00046   0.00145  -0.00106   0.00038   2.07542
   R11        2.07297  -0.00029   0.00089  -0.00085   0.00005   2.07301
   R12        2.07068  -0.00013   0.00236  -0.00099   0.00137   2.07205
   R13        2.85551  -0.00063   0.00387  -0.00239   0.00148   2.85700
   R14        2.07331  -0.00041   0.00162  -0.00107   0.00055   2.07385
   R15        2.06446  -0.00033   0.00406  -0.00190   0.00217   2.06663
   R16        2.07504  -0.00047   0.00091  -0.00093  -0.00002   2.07502
   R17        2.07141  -0.00032   0.00183  -0.00111   0.00072   2.07214
   R18        2.06769  -0.00019   0.00239  -0.00137   0.00102   2.06871
    A1        1.98210  -0.00037   0.00602  -0.00286   0.00305   1.98515
    A2        1.95298   0.00016   0.00467  -0.00084   0.00377   1.95675
    A3        1.84325  -0.00077  -0.00840   0.00028  -0.00820   1.83505
    A4        1.96956  -0.00031   0.00557  -0.00169   0.00384   1.97340
    A5        1.85195   0.00043  -0.00676   0.00273  -0.00410   1.84786
    A6        1.85107   0.00096  -0.00340   0.00327  -0.00017   1.85090
    A7        2.02910   0.00160   0.01149   0.00399   0.01550   2.04460
    A8        2.03340  -0.00114  -0.00303  -0.00017  -0.00327   2.03013
    A9        1.94985  -0.00028  -0.00425   0.00158  -0.00273   1.94711
   A10        1.94742  -0.00067  -0.00883   0.00196  -0.00683   1.94060
   A11        1.87604  -0.00017   0.00785  -0.00464   0.00315   1.87919
   A12        1.82955   0.00031   0.01284  -0.00078   0.01202   1.84158
   A13        1.96794   0.00040  -0.00264   0.00135  -0.00127   1.96666
   A14        1.92802   0.00030  -0.00319   0.00152  -0.00163   1.92639
   A15        1.90902  -0.00019  -0.00459   0.00029  -0.00448   1.90454
   A16        1.87834  -0.00036   0.00734  -0.00209   0.00525   1.88359
   A17        1.93049  -0.00003  -0.00088  -0.00088  -0.00179   1.92871
   A18        1.97806  -0.00004  -0.00253   0.00079  -0.00175   1.97631
   A19        1.88850   0.00017   0.00204   0.00004   0.00206   1.89056
   A20        1.87281   0.00033  -0.00242   0.00217  -0.00024   1.87257
   A21        1.91243  -0.00005  -0.00311   0.00000  -0.00313   1.90930
   A22        1.96851  -0.00113  -0.00497   0.00121  -0.00373   1.96478
   A23        1.87101   0.00002   0.00922  -0.00405   0.00515   1.87616
   A24        1.83884   0.00013   0.00779  -0.00250   0.00527   1.84411
   A25        1.95527   0.00053  -0.00312   0.00173  -0.00139   1.95388
   A26        1.91640   0.00061  -0.00239   0.00176  -0.00062   1.91578
   A27        1.90936  -0.00019  -0.00573   0.00153  -0.00432   1.90504
   A28        1.86828  -0.00064   0.00960  -0.00448   0.00511   1.87339
   A29        1.94116  -0.00010   0.00044  -0.00130  -0.00088   1.94028
   A30        1.96287   0.00006  -0.00326   0.00152  -0.00175   1.96112
   A31        1.89016   0.00034  -0.00102   0.00149   0.00043   1.89060
   A32        1.88668   0.00039  -0.00390   0.00263  -0.00125   1.88543
   A33        1.91205  -0.00004  -0.00164   0.00019  -0.00146   1.91059
    D1       -2.57099  -0.00045   0.03937  -0.01120   0.02821  -2.54278
    D2        1.35600  -0.00055   0.03625  -0.01836   0.01789   1.37388
    D3        1.60298   0.00015   0.04020  -0.00940   0.03079   1.63377
    D4       -0.75322   0.00005   0.03708  -0.01656   0.02047  -0.73275
    D5       -0.49568  -0.00018   0.03892  -0.01046   0.02850  -0.46719
    D6       -2.85188  -0.00028   0.03581  -0.01762   0.01817  -2.83371
    D7        2.60231  -0.00002  -0.10186  -0.00385  -0.10575   2.49656
    D8       -1.51483  -0.00008  -0.10540  -0.00409  -0.10960  -1.62443
    D9        0.51522  -0.00022  -0.10125  -0.00624  -0.10742   0.40780
   D10       -1.28859  -0.00036  -0.09879   0.00214  -0.09663  -1.38522
   D11        0.87746  -0.00041  -0.10233   0.00190  -0.10048   0.77697
   D12        2.90750  -0.00056  -0.09818  -0.00024  -0.09830   2.80920
   D13       -0.92270   0.00027  -0.01555  -0.01036  -0.02595  -0.94865
   D14        1.23757   0.00021  -0.01614  -0.01026  -0.02648   1.21109
   D15       -3.01299   0.00007  -0.01491  -0.01158  -0.02648  -3.03947
   D16        2.97018  -0.00067  -0.02540  -0.01830  -0.04367   2.92652
   D17       -1.15273  -0.00073  -0.02599  -0.01820  -0.04420  -1.19693
   D18        0.87990  -0.00087  -0.02476  -0.01952  -0.04420   0.83570
   D19       -2.98240  -0.00018  -0.04512  -0.00109  -0.04621  -3.02861
   D20       -0.92274  -0.00021  -0.03882  -0.00278  -0.04160  -0.96435
   D21        1.23286  -0.00033  -0.04549  -0.00287  -0.04835   1.18451
   D22        1.18742   0.00024  -0.04699   0.00255  -0.04444   1.14298
   D23       -3.03611   0.00021  -0.04069   0.00085  -0.03983  -3.07594
   D24       -0.88051   0.00010  -0.04736   0.00076  -0.04658  -0.92709
   D25       -0.95453  -0.00001  -0.03662   0.00009  -0.03654  -0.99107
   D26        1.10512  -0.00004  -0.03032  -0.00161  -0.03193   1.07319
   D27       -3.02246  -0.00016  -0.03699  -0.00170  -0.03868  -3.06114
   D28       -3.02453  -0.00005  -0.01413   0.00928  -0.00486  -3.02940
   D29       -0.96296  -0.00008  -0.00939   0.00765  -0.00173  -0.96469
   D30        1.18905  -0.00016  -0.01363   0.00804  -0.00558   1.18347
   D31        1.14569   0.00035  -0.02028   0.01242  -0.00786   1.13782
   D32       -3.07592   0.00032  -0.01554   0.01079  -0.00473  -3.08066
   D33       -0.92391   0.00024  -0.01978   0.01118  -0.00858  -0.93250
   D34       -0.97958  -0.00019  -0.00904   0.00807  -0.00101  -0.98059
   D35        1.08199  -0.00022  -0.00430   0.00644   0.00212   1.08412
   D36       -3.04918  -0.00030  -0.00855   0.00683  -0.00172  -3.05091
         Item               Value     Threshold  Converged?
 Maximum Force            0.003418     0.000450     NO 
 RMS     Force            0.000569     0.000300     NO 
 Maximum Displacement     0.292106     0.001800     NO 
 RMS     Displacement     0.070277     0.001200     NO 
 Predicted change in Energy=-1.413462D-04
 GradGradGradGradGradGradGradGradGradGradGradGradGradGradGradGradGradGrad

                          Input orientation:                          
 ---------------------------------------------------------------------
 Center     Atomic      Atomic             Coordinates (Angstroms)
 Number     Number       Type             X           Y           Z
 ---------------------------------------------------------------------
      1          5           0       -1.798252    0.717782   -0.168240
      2          9           0       -1.643319    1.691957   -1.136062
      3          9           0       -2.017021    1.224312    1.103522
      4          9           0       -2.725732   -0.239888   -0.537153
      5          8           0       -0.357454   -0.050676   -0.101606
      6          6           0       -0.378871   -1.487466    0.181718
      7          6           0        0.690417   -2.216059   -0.603978
      8          6           0        0.705470    0.627507    0.639507
      9          6           0        0.945015    2.037928    0.150582
     10          1           0       -0.267939   -1.614892    1.266508
     11          1           0       -1.369462   -1.829100   -0.118483
     12          1           0        0.552455   -3.293746   -0.443512
     13          1           0        0.586065   -2.010996   -1.676567
     14          1           0        1.708715   -1.966503   -0.282942
     15          1           0        0.434235    0.602388    1.702600
     16          1           0        1.604558    0.024567    0.484296
     17          1           0        1.827184    2.422218    0.679557
     18          1           0        1.154377    2.053768   -0.925656
     19          1           0        0.103100    2.702881    0.368324
 ---------------------------------------------------------------------
                    Distance matrix (angstroms):
                    1          2          3          4          5
     1  B    0.000000
     2  F    1.381920   0.000000
     3  F    1.386294   2.318207   0.000000
     4  F    1.383273   2.293978   2.310404   0.000000
     5  O    1.634279   2.400066   2.414972   2.415417   0.000000
     6  C    2.645795   3.666620   3.299545   2.753358   1.464615
     7  C    3.871791   4.582797   4.699142   3.947124   2.457498
     8  C    2.632343   3.130896   2.825499   3.729617   1.462528
     9  C    3.061037   2.911121   3.216166   4.374449   2.474326
    10  H    3.137153   4.312686   3.338702   3.344335   2.080029
    11  H    2.583204   3.675365   3.352007   2.130809   2.046274
    12  H    4.657677   5.491656   5.422949   4.481219   3.385607
    13  H    3.925080   4.355934   4.997217   3.924677   2.685812
    14  H    4.417845   5.034707   5.097518   4.765515   2.823531
    15  H    2.915023   3.682580   2.598912   3.963750   2.075674
    16  H    3.533478   3.994303   3.865057   4.456984   2.049008
    17  H    4.094833   3.984238   4.048783   5.412600   3.390880
    18  H    3.328146   2.828830   3.855299   4.524051   2.719077
    19  H    2.800654   2.516968   2.687303   4.181156   2.831082
                    6          7          8          9         10
     6  C    0.000000
     7  C    1.513785   0.000000
     8  C    2.420429   3.103603   0.000000
     9  C    3.765906   4.327885   1.511858   0.000000
    10  H    1.097867   2.185993   2.523690   4.007448   0.000000
    11  H    1.090002   2.151406   3.303757   4.514765   1.782537
    12  H    2.126248   1.098267   4.070942   5.379014   2.532936
    13  H    2.158335   1.096991   3.512856   4.456580   3.089970
    14  H    2.191666   1.096482   2.930239   4.099591   2.536057
    15  H    2.709560   3.650969   1.097437   2.174955   2.366338
    16  H    2.512328   2.653376   1.093612   2.144757   2.608817
    17  H    4.516654   4.945030   2.116799   1.098051   4.586100
    18  H    4.014657   4.306990   2.164596   1.096528   4.504180
    19  H    4.222100   5.048395   2.177973   1.094712   4.425785
                   11         12         13         14         15
    11  H    0.000000
    12  H    2.438155   0.000000
    13  H    2.506951   1.779607   0.000000
    14  H    3.085628   1.767567   1.790116   0.000000
    15  H    3.532959   4.449678   4.274529   3.487961   0.000000
    16  H    3.555871   3.602631   3.138499   2.136320   1.785440
    17  H    5.378580   5.963092   5.171566   4.494587   2.509723
    18  H    4.700847   5.402840   4.172428   4.108887   3.087530
    19  H    4.790018   6.067993   5.160957   4.980491   2.510382
                   16         17         18         19
    16  H    0.000000
    17  H    2.415868   0.000000
    18  H    2.511630   1.779083   0.000000
    19  H    3.072652   1.774290   1.789110   0.000000
 Stoichiometry    C4H10BF3O
 Framework group  C1[X(C4H10BF3O)]
 Deg. of freedom    51
 Full point group                 C1      NOp   1
 Largest Abelian subgroup         C1      NOp   1
 Largest concise Abelian subgroup C1      NOp   1
                         Standard orientation:                         
 ---------------------------------------------------------------------
 Center     Atomic      Atomic             Coordinates (Angstroms)
 Number     Number       Type             X           Y           Z
 ---------------------------------------------------------------------
      1          5           0       -1.013968   -0.657170   -0.038411
      2          9           0       -1.691152   -0.165764   -1.138249
      3          9           0       -1.599795   -0.323143    1.172805
      4          9           0       -0.742824   -2.008598   -0.154902
      5          8           0        0.435409    0.097693   -0.057209
      6          6           0        1.592884   -0.666192    0.413779
      7          6           0        2.828245   -0.345121   -0.400064
      8          6           0        0.457658    1.471282    0.444536
      9          6           0       -0.546585    2.360342   -0.253162
     10          1           0        1.722080   -0.450429    1.482454
     11          1           0        1.319795   -1.714332    0.291591
     12          1           0        3.628840   -1.026456   -0.082226
     13          1           0        2.638614   -0.510222   -1.467851
     14          1           0        3.191980    0.678154   -0.248810
     15          1           0        0.285917    1.429717    1.527654
     16          1           0        1.470437    1.838166    0.255696
     17          1           0       -0.378432    3.385598    0.102215
     18          1           0       -0.402003    2.344152   -1.339996
     19          1           0       -1.579942    2.085627   -0.018428
 ---------------------------------------------------------------------
 Rotational constants (GHZ):           1.8006216           1.3769531           0.9844085
 Standard basis: Aug-CC-pVDZ (5D, 7F)
 There are   315 symmetry adapted cartesian basis functions of A   symmetry.
 There are   297 symmetry adapted basis functions of A   symmetry.
   297 basis functions,   497 primitive gaussians,   315 cartesian basis functions
    37 alpha electrons       37 beta electrons
       nuclear repulsion energy       522.8928028260 Hartrees.
 NAtoms=   19 NActive=   19 NUniq=   19 SFac= 1.00D+00 NAtFMM=   60 NAOKFM=F Big=F
 Integral buffers will be    131072 words long.
 Raffenetti 2 integral format.
 Two-electron integral symmetry is turned on.
 Nuclear repulsion after empirical dispersion term =      522.8807951987 Hartrees.
 Force PCM accuracy= 1.00D-12.
 ------------------------------------------------------------------------------
 Polarizable Continuum Model (PCM)
 =================================
 Model                : C-PCM.
 Atomic radii         : UFF (Universal Force Field).
 Polarization charges : Total charges.
 Charge compensation  : None.
 Solution method      : On-the-fly selection.
 Cavity type          : Scaled VdW (van der Waals Surface) (Alpha=1.100).
 Cavity algorithm     : GePol (No added spheres)
                        Default sphere list used, NSphG=   19.
                        Lebedev-Laikov grids with approx.  5.0 points / Ang**2.
                        Smoothing algorithm: York/Karplus (Gamma=1.0000).
                        Polarization charges: spherical gaussians, with
                                              point-specific exponents (IZeta= 3).
                        Self-potential: point-specific (ISelfS= 7).
                        Self-field    : sphere-specific E.n sum rule (ISelfD= 2).
 1st derivatives      : Analytical E(r).r(x)/FMM algorithm (CHGder, D1EAlg=3).
                        Cavity 1st derivative terms included.
 Solvent              : Water, Eps=  78.355300 Eps(inf)=   1.777849
 ------------------------------------------------------------------------------
 Spheres list:
 ISph  on   Nord     Re0    Alpha      Xe            Ye            Ze
    1   B      1    2.0415  1.100     -1.013968     -0.657170     -0.038411
    2   F      2    1.6820  1.100     -1.691152     -0.165764     -1.138249
    3   F      3    1.6820  1.100     -1.599795     -0.323143      1.172805
    4   F      4    1.6820  1.100     -0.742824     -2.008598     -0.154902
    5   O      5    1.7500  1.100      0.435409      0.097693     -0.057209
    6   C      6    1.9255  1.100      1.592884     -0.666192      0.413779
    7   C      7    1.9255  1.100      2.828245     -0.345121     -0.400064
    8   C      8    1.9255  1.100      0.457658      1.471282      0.444536
    9   C      9    1.9255  1.100     -0.546585      2.360342     -0.253162
   10   H     10    1.4430  1.100      1.722080     -0.450429      1.482454
   11   H     11    1.4430  1.100      1.319795     -1.714332      0.291591
   12   H     12    1.4430  1.100      3.628840     -1.026456     -0.082226
   13   H     13    1.4430  1.100      2.638614     -0.510222     -1.467851
   14   H     14    1.4430  1.100      3.191980      0.678154     -0.248810
   15   H     15    1.4430  1.100      0.285917      1.429717      1.527654
   16   H     16    1.4430  1.100      1.470437      1.838166      0.255696
   17   H     17    1.4430  1.100     -0.378432      3.385598      0.102215
   18   H     18    1.4430  1.100     -0.402003      2.344152     -1.339996
   19   H     19    1.4430  1.100     -1.579942      2.085627     -0.018428
 ------------------------------------------------------------------------------
 One-electron integrals computed using PRISM.
 NBasis=   297 RedAO= T EigKep=  2.70D-05  NBF=   297
 NBsUse=   297 1.00D-06 EigRej= -1.00D+00 NBFU=   297
 Initial guess from the checkpoint file:  "/inspire/hdd/project/materialscienceresearch/lipenghui-253107030018/g16/00-B-DFT-Shift/04-output/BF3OEt2_D2O/BF3OEt2_D2O.chk"
 B after Tr=    -0.000000   -0.000000   -0.000000
         Rot=    0.999958    0.006451    0.004557   -0.004563 Ang=   1.05 deg.
 ExpMin= 2.38D-02 ExpMax= 1.47D+04 ExpMxC= 5.03D+02 IAcc=3 IRadAn=         5 AccDes= 0.00D+00
 Harris functional with IExCor= 4639 and IRadAn=       5 diagonalized for initial guess.
 HarFok:  IExCor= 4639 AccDes= 0.00D+00 IRadAn=         5 IDoV= 1 UseB2=F ITyADJ=14
 ICtDFT=  3500011 ScaDFX=  1.000000  1.000000  1.000000  1.000000
 FoFCou: FMM=F IPFlag=           0 FMFlag=      100000 FMFlg1=           0
         NFxFlg=           0 DoJE=T BraDBF=F KetDBF=T FulRan=T
         wScrn=  0.000000 ICntrl=       500 IOpCl=  0 I1Cent=   200000004 NGrid=           0
         NMat0=    1 NMatS0=      1 NMatT0=    0 NMatD0=    1 NMtDS0=    0 NMtDT0=    0
 Petite list used in FoFCou.
 Requested convergence on RMS density matrix=1.00D-08 within 128 cycles.
 Requested convergence on MAX density matrix=1.00D-06.
 Requested convergence on             energy=1.00D-06.
 No special actions if energy rises.
 Inv3:  Mode=1 IEnd=     6822192.
 Iteration    1 A*A^-1 deviation from unit magnitude is 3.33D-15 for   1495.
 Iteration    1 A*A^-1 deviation from orthogonality  is 1.67D-15 for    800    538.
 Iteration    1 A^-1*A deviation from unit magnitude is 3.33D-15 for   1495.
 Iteration    1 A^-1*A deviation from orthogonality  is 1.26D-15 for   1249    128.
 Error on total polarization charges =  0.01129
 SCF Done:  E(RwB97XD) =  -558.151407044     A.U. after   11 cycles
            NFock= 11  Conv=0.30D-08     -V/T= 2.0061
 D1PCM: C-PCM CHGder 1st derivatives, ID1Alg=3 FixD1E=F DoIter=F DoCFld=F I1PDM=0.
 Calling FoFJK, ICntrl=      2127 FMM=F ISym2X=0 I1Cent= 0 IOpClX= 0 NMat=1 NMatS=1 NMatT=0.
 ***** Axes restored to original set *****
 -------------------------------------------------------------------
 Center     Atomic                   Forces (Hartrees/Bohr)
 Number     Number              X              Y              Z
 -------------------------------------------------------------------
      1        5           0.004393701   -0.002303981   -0.000215723
      2        9           0.000079243    0.000043201    0.000658491
      3        9          -0.000194498   -0.000023915   -0.000589467
      4        9           0.000341938    0.000142935    0.000150284
      5        8          -0.006790323    0.002763937   -0.000199283
      6        6           0.000349029   -0.004465750   -0.000657513
      7        6           0.000407560   -0.000218586   -0.000076582
      8        6           0.004252931    0.002866615    0.001695546
      9        6          -0.000442066    0.000476756   -0.000408436
     10        1           0.000148855    0.000688013   -0.000581312
     11        1           0.000144144    0.000803878    0.000557323
     12        1          -0.000376905    0.000620373    0.000024474
     13        1           0.000032042   -0.000060450    0.000355048
     14        1          -0.000372468    0.000609920   -0.000189968
     15        1          -0.000694720   -0.000054386   -0.000774593
     16        1          -0.001015164   -0.000536571    0.000160100
     17        1          -0.000269984   -0.000833675   -0.000016338
     18        1          -0.000262770   -0.000155410    0.000429276
     19        1           0.000269456   -0.000362904   -0.000321326
 -------------------------------------------------------------------
 Cartesian Forces:  Max     0.006790323 RMS     0.001548739

 GradGradGradGradGradGradGradGradGradGradGradGradGradGradGradGradGradGrad
 Berny optimization.
 Using GEDIIS/GDIIS optimizer.
 FormGI is forming the generalized inverse of G from B-inverse, IUseBI=4.
 Internal  Forces:  Max     0.005079977 RMS     0.000753147
 Search for a local minimum.
 Step number   9 out of a maximum of   97
 All quantities printed in internal units (Hartrees-Bohrs-Radians)
 Mixed Optimization -- En-DIIS/RFO-DIIS
 Swapping is turned off.
 Update second derivatives using D2CorX and points    8    9
 DE= -1.53D-04 DEPred=-1.41D-04 R= 1.08D+00
 TightC=F SS=  1.41D+00  RLast= 3.05D-01 DXNew= 1.8639D+00 9.1492D-01
 Trust test= 1.08D+00 RLast= 3.05D-01 DXMaxT set to 1.11D+00
 ITU=  1  1  1  1  1  1  1  1  0
     Eigenvalues ---    0.00058   0.00286   0.00364   0.01457   0.01507
     Eigenvalues ---    0.02417   0.04443   0.04703   0.05176   0.05287
     Eigenvalues ---    0.05420   0.05625   0.05815   0.05886   0.09701
     Eigenvalues ---    0.10400   0.12774   0.12930   0.12950   0.13367
     Eigenvalues ---    0.15567   0.16000   0.16003   0.16023   0.16112
     Eigenvalues ---    0.16333   0.18107   0.20622   0.21391   0.24549
     Eigenvalues ---    0.25171   0.26440   0.28324   0.28450   0.28702
     Eigenvalues ---    0.29164   0.31378   0.31755   0.31939   0.32005
     Eigenvalues ---    0.32092   0.32132   0.32156   0.32187   0.32217
     Eigenvalues ---    0.32459   0.35590   0.37608   0.41934   0.51446
     Eigenvalues ---    0.57283
 En-DIIS/RFO-DIIS/Sim-DIIS IScMMF=       -3 using points:     9    8    7    6
 RFO step:  Lambda=-3.30262590D-04.
 DidBck=F Rises=F RFO-DIIS coefs:    2.34335   -1.68889    1.35177   -1.00622
 Iteration  1 RMS(Cart)=  0.09652644 RMS(Int)=  0.00437684
 Iteration  2 RMS(Cart)=  0.00544581 RMS(Int)=  0.00005790
 Iteration  3 RMS(Cart)=  0.00001739 RMS(Int)=  0.00005636
 Iteration  4 RMS(Cart)=  0.00000000 RMS(Int)=  0.00005636
 Variable       Old X    -DE/DX   Delta X   Delta X   Delta X     New X
                                 (Linear)    (Quad)   (Total)
    R1        2.61145  -0.00042  -0.00111  -0.00021  -0.00132   2.61013
    R2        2.61972  -0.00052  -0.00381   0.00030  -0.00351   2.61620
    R3        2.61401  -0.00037  -0.00265  -0.00033  -0.00298   2.61103
    R4        3.08834  -0.00508   0.03697  -0.01509   0.02188   3.11022
    R5        2.76772   0.00186  -0.01716   0.00626  -0.01090   2.75682
    R6        2.76378   0.00238  -0.01814   0.00770  -0.01044   2.75334
    R7        2.86064  -0.00073   0.00199  -0.00131   0.00068   2.86132
    R8        2.07467  -0.00064   0.00093  -0.00108  -0.00015   2.07452
    R9        2.05981  -0.00054   0.00176  -0.00020   0.00155   2.06136
   R10        2.07542  -0.00056   0.00120  -0.00081   0.00039   2.07581
   R11        2.07301  -0.00036   0.00066  -0.00058   0.00008   2.07309
   R12        2.07205  -0.00026   0.00281  -0.00114   0.00168   2.07373
   R13        2.85700  -0.00083   0.00304  -0.00191   0.00114   2.85813
   R14        2.07385  -0.00058   0.00136  -0.00100   0.00036   2.07422
   R15        2.06663  -0.00056   0.00470  -0.00222   0.00248   2.06911
   R16        2.07502  -0.00051   0.00055  -0.00062  -0.00007   2.07495
   R17        2.07214  -0.00048   0.00170  -0.00097   0.00073   2.07287
   R18        2.06871  -0.00049   0.00245  -0.00147   0.00098   2.06969
    A1        1.98515  -0.00047   0.00446  -0.00109   0.00325   1.98840
    A2        1.95675   0.00030   0.00567   0.00025   0.00586   1.96261
    A3        1.83505   0.00002  -0.01184   0.00373  -0.00819   1.82686
    A4        1.97340  -0.00013   0.00609  -0.00110   0.00495   1.97835
    A5        1.84786   0.00063  -0.00701   0.00293  -0.00414   1.84372
    A6        1.85090  -0.00031   0.00007  -0.00442  -0.00439   1.84651
    A7        2.04460   0.00058   0.02251  -0.00468   0.01782   2.06242
    A8        2.03013  -0.00019  -0.00514   0.00388  -0.00144   2.02869
    A9        1.94711  -0.00010  -0.00579   0.00555  -0.00040   1.94671
   A10        1.94060  -0.00070  -0.01364   0.00401  -0.00959   1.93100
   A11        1.87919  -0.00027   0.00560  -0.00316   0.00235   1.88153
   A12        1.84158  -0.00004   0.01966  -0.00619   0.01345   1.85502
   A13        1.96666   0.00045  -0.00287   0.00169  -0.00118   1.96549
   A14        1.92639   0.00067  -0.00131   0.00218   0.00097   1.92736
   A15        1.90454  -0.00015  -0.00573   0.00082  -0.00507   1.89947
   A16        1.88359  -0.00046   0.00846  -0.00104   0.00742   1.89101
   A17        1.92871   0.00009  -0.00193   0.00020  -0.00178   1.92692
   A18        1.97631  -0.00046  -0.00401  -0.00207  -0.00611   1.97021
   A19        1.89056   0.00016   0.00293   0.00002   0.00292   1.89347
   A20        1.87257   0.00064  -0.00026   0.00294   0.00270   1.87527
   A21        1.90930   0.00006  -0.00452   0.00010  -0.00449   1.90480
   A22        1.96478  -0.00020  -0.00839   0.00388  -0.00448   1.96030
   A23        1.87616  -0.00042   0.00877  -0.00400   0.00475   1.88091
   A24        1.84411  -0.00045   0.00861  -0.00433   0.00426   1.84837
   A25        1.95388   0.00045  -0.00233   0.00189  -0.00042   1.95347
   A26        1.91578   0.00057   0.00021   0.00053   0.00077   1.91655
   A27        1.90504  -0.00001  -0.00620   0.00161  -0.00468   1.90036
   A28        1.87339  -0.00096   0.00939  -0.00445   0.00494   1.87832
   A29        1.94028  -0.00014  -0.00054  -0.00100  -0.00156   1.93872
   A30        1.96112   0.00020  -0.00376   0.00207  -0.00169   1.95943
   A31        1.89060   0.00045   0.00008   0.00088   0.00093   1.89153
   A32        1.88543   0.00049  -0.00248   0.00190  -0.00057   1.88486
   A33        1.91059  -0.00003  -0.00235   0.00057  -0.00180   1.90879
    D1       -2.54278  -0.00017   0.03997  -0.00193   0.03811  -2.50466
    D2        1.37388  -0.00047   0.02843  -0.01022   0.01819   1.39207
    D3        1.63377   0.00005   0.04427  -0.00393   0.04035   1.67412
    D4       -0.73275  -0.00025   0.03273  -0.01222   0.02043  -0.71232
    D5       -0.46719   0.00004   0.04075  -0.00192   0.03888  -0.42830
    D6       -2.83371  -0.00026   0.02921  -0.01021   0.01896  -2.81475
    D7        2.49656  -0.00021  -0.14120  -0.00144  -0.14273   2.35383
    D8       -1.62443  -0.00029  -0.14973   0.00111  -0.14875  -1.77318
    D9        0.40780  -0.00061  -0.14433  -0.00248  -0.14676   0.26104
   D10       -1.38522   0.00002  -0.13067   0.00604  -0.12461  -1.50983
   D11        0.77697  -0.00005  -0.13920   0.00859  -0.13063   0.64634
   D12        2.80920  -0.00038  -0.13380   0.00500  -0.12864   2.68056
   D13       -0.94865  -0.00008  -0.03046  -0.01400  -0.04453  -0.99318
   D14        1.21109   0.00006  -0.03262  -0.01190  -0.04464   1.16644
   D15       -3.03947  -0.00037  -0.03157  -0.01406  -0.04567  -3.08513
   D16        2.92652  -0.00066  -0.05367  -0.01749  -0.07107   2.85544
   D17       -1.19693  -0.00052  -0.05582  -0.01539  -0.07118  -1.26812
   D18        0.83570  -0.00095  -0.05478  -0.01755  -0.07221   0.76349
   D19       -3.02861  -0.00016  -0.07648  -0.00113  -0.07761  -3.10622
   D20       -0.96435  -0.00019  -0.06902  -0.00162  -0.07064  -1.03498
   D21        1.18451  -0.00037  -0.07939  -0.00284  -0.08220   1.10230
   D22        1.14298   0.00038  -0.07180  -0.00113  -0.07296   1.07001
   D23       -3.07594   0.00036  -0.06434  -0.00162  -0.06599   3.14126
   D24       -0.92709   0.00018  -0.07471  -0.00285  -0.07755  -1.00464
   D25       -0.99107  -0.00023  -0.06133  -0.00497  -0.06631  -1.05738
   D26        1.07319  -0.00025  -0.05386  -0.00546  -0.05933   1.01386
   D27       -3.06114  -0.00043  -0.06424  -0.00668  -0.07089  -3.13204
   D28       -3.02940   0.00007  -0.01731   0.01463  -0.00269  -3.03209
   D29       -0.96469  -0.00004  -0.01188   0.01244   0.00056  -0.96413
   D30        1.18347  -0.00004  -0.01811   0.01395  -0.00416   1.17931
   D31        1.13782   0.00044  -0.02097   0.01565  -0.00533   1.13249
   D32       -3.08066   0.00032  -0.01554   0.01346  -0.00208  -3.08273
   D33       -0.93250   0.00033  -0.02177   0.01497  -0.00680  -0.93929
   D34       -0.98059  -0.00025  -0.01163   0.01198   0.00034  -0.98025
   D35        1.08412  -0.00036  -0.00620   0.00979   0.00359   1.08771
   D36       -3.05091  -0.00035  -0.01243   0.01130  -0.00113  -3.05203
         Item               Value     Threshold  Converged?
 Maximum Force            0.005080     0.000450     NO 
 RMS     Force            0.000753     0.000300     NO 
 Maximum Displacement     0.405102     0.001800     NO 
 RMS     Displacement     0.097235     0.001200     NO 
 Predicted change in Energy=-1.815882D-04
 GradGradGradGradGradGradGradGradGradGradGradGradGradGradGradGradGradGrad

                          Input orientation:                          
 ---------------------------------------------------------------------
 Center     Atomic      Atomic             Coordinates (Angstroms)
 Number     Number       Type             X           Y           Z
 ---------------------------------------------------------------------
      1          5           0       -1.796402    0.707446   -0.200816
      2          9           0       -1.603743    1.647754   -1.194030
      3          9           0       -2.053221    1.252068    1.045816
      4          9           0       -2.700910   -0.270300   -0.568191
      5          8           0       -0.344480   -0.054982   -0.061291
      6          6           0       -0.342576   -1.487086    0.216746
      7          6           0        0.651909   -2.202217   -0.673321
      8          6           0        0.676997    0.641026    0.710083
      9          6           0        0.965663    2.022461    0.166169
     10          1           0       -0.126162   -1.621412    1.284574
     11          1           0       -1.355301   -1.839053    0.015731
     12          1           0        0.596421   -3.278160   -0.459051
     13          1           0        0.402037   -2.044569   -1.729819
     14          1           0        1.687488   -1.884701   -0.497312
     15          1           0        0.343345    0.673541    1.755267
     16          1           0        1.576993    0.020889    0.644545
     17          1           0        1.816961    2.429530    0.727617
     18          1           0        1.240130    1.979266   -0.894975
     19          1           0        0.118390    2.704479    0.294674
 ---------------------------------------------------------------------
                    Distance matrix (angstroms):
                    1          2          3          4          5
     1  B    0.000000
     2  F    1.381221   0.000000
     3  F    1.384434   2.318513   0.000000
     4  F    1.381697   2.296601   2.311303   0.000000
     5  O    1.645856   2.401698   2.419476   2.419932   0.000000
     6  C    2.665321   3.661701   3.334161   2.767387   1.458845
     7  C    3.831921   4.492369   4.712244   3.871013   2.444992
     8  C    2.636636   3.137024   2.817832   3.724883   1.457003
     9  C    3.081062   2.931278   3.237428   4.386318   2.466573
    10  H    3.227950   4.360524   3.468062   3.447835   2.076708
    11  H    2.593476   3.699063   3.332146   2.147700   2.051975
    12  H    4.655893   5.444773   5.459688   4.464474   3.381180
    13  H    3.839866   4.235974   4.959865   3.758416   2.701801
    14  H    4.352542   4.878100   5.119909   4.676468   2.768913
    15  H    2.899297   3.665869   2.565452   3.944209   2.074544
    16  H    3.544825   4.017976   3.854254   4.456004   2.048418
    17  H    4.109008   4.000639   4.057829   5.420272   3.386296
    18  H    3.364507   2.878706   3.891227   4.549629   2.710015
    19  H    2.810707   2.509710   2.718383   4.188352   2.820565
                    6          7          8          9         10
     6  C    0.000000
     7  C    1.514144   0.000000
     8  C    2.410761   3.162035   0.000000
     9  C    3.745793   4.318690   1.512460   0.000000
    10  H    1.097787   2.185425   2.468548   3.964937   0.000000
    11  H    1.090825   2.153037   3.280724   4.507859   1.779919
    12  H    2.132220   1.098474   4.090646   5.350124   2.511407
    13  H    2.157395   1.097030   3.638838   4.522519   3.089437
    14  H    2.188410   1.097370   2.976272   4.028294   2.556123
    15  H    2.739680   3.776670   1.097630   2.175338   2.389310
    16  H    2.478255   2.744950   1.094924   2.146826   2.451026
    17  H    4.501607   4.977253   2.120984   1.098015   4.527257
    18  H    3.969443   4.228467   2.164305   1.096916   4.425164
    19  H    4.217556   5.029644   2.177716   1.095232   4.444440
                   11         12         13         14         15
    11  H    0.000000
    12  H    2.470964   0.000000
    13  H    2.485441   1.781680   0.000000
    14  H    3.086075   1.770203   1.788020   0.000000
    15  H    3.496357   4.536871   4.420112   3.664074   0.000000
    16  H    3.528900   3.614301   3.359203   2.224257   1.783689
    17  H    5.365708   5.956141   5.297033   4.486625   2.512191
    18  H    4.705869   5.314595   4.194116   3.910052   3.087543
    19  H    4.784690   6.048850   5.170347   4.914254   2.511702
                   16         17         18         19
    16  H    0.000000
    17  H    2.421990   0.000000
    18  H    2.513731   1.779966   0.000000
    19  H    3.074344   1.774311   1.788714   0.000000
 Stoichiometry    C4H10BF3O
 Framework group  C1[X(C4H10BF3O)]
 Deg. of freedom    51
 Full point group                 C1      NOp   1
 Largest Abelian subgroup         C1      NOp   1
 Largest concise Abelian subgroup C1      NOp   1
                         Standard orientation:                         
 ---------------------------------------------------------------------
 Center     Atomic      Atomic             Coordinates (Angstroms)
 Number     Number       Type             X           Y           Z
 ---------------------------------------------------------------------
      1          5           0       -1.000711   -0.680753   -0.041990
      2          9           0       -1.633904   -0.220650   -1.180034
      3          9           0       -1.643575   -0.338684    1.135453
      4          9           0       -0.681501   -2.022702   -0.121773
      5          8           0        0.436535    0.120650   -0.011724
      6          6           0        1.613521   -0.594057    0.470071
      7          6           0        2.795873   -0.352838   -0.444526
      8          6           0        0.400497    1.489224    0.486839
      9          6           0       -0.561957    2.358716   -0.291108
     10          1           0        1.804445   -0.269621    1.501296
     11          1           0        1.347340   -1.651882    0.477322
     12          1           0        3.648151   -0.935122   -0.068743
     13          1           0        2.566503   -0.689630   -1.463072
     14          1           0        3.104332    0.699858   -0.474600
     15          1           0        0.146843    1.450372    1.554051
     16          1           0        1.419517    1.874900    0.378626
     17          1           0       -0.445509    3.389027    0.070192
     18          1           0       -0.331892    2.340221   -1.363466
     19          1           0       -1.605240    2.062482   -0.138336
 ---------------------------------------------------------------------
 Rotational constants (GHZ):           1.7776919           1.3869618           0.9915540
 Standard basis: Aug-CC-pVDZ (5D, 7F)
 There are   315 symmetry adapted cartesian basis functions of A   symmetry.
 There are   297 symmetry adapted basis functions of A   symmetry.
   297 basis functions,   497 primitive gaussians,   315 cartesian basis functions
    37 alpha electrons       37 beta electrons
       nuclear repulsion energy       522.7927889884 Hartrees.
 NAtoms=   19 NActive=   19 NUniq=   19 SFac= 1.00D+00 NAtFMM=   60 NAOKFM=F Big=F
 Integral buffers will be    131072 words long.
 Raffenetti 2 integral format.
 Two-electron integral symmetry is turned on.
 Nuclear repulsion after empirical dispersion term =      522.7807650648 Hartrees.
 Force PCM accuracy= 1.00D-12.
 ------------------------------------------------------------------------------
 Polarizable Continuum Model (PCM)
 =================================
 Model                : C-PCM.
 Atomic radii         : UFF (Universal Force Field).
 Polarization charges : Total charges.
 Charge compensation  : None.
 Solution method      : On-the-fly selection.
 Cavity type          : Scaled VdW (van der Waals Surface) (Alpha=1.100).
 Cavity algorithm     : GePol (No added spheres)
                        Default sphere list used, NSphG=   19.
                        Lebedev-Laikov grids with approx.  5.0 points / Ang**2.
                        Smoothing algorithm: York/Karplus (Gamma=1.0000).
                        Polarization charges: spherical gaussians, with
                                              point-specific exponents (IZeta= 3).
                        Self-potential: point-specific (ISelfS= 7).
                        Self-field    : sphere-specific E.n sum rule (ISelfD= 2).
 1st derivatives      : Analytical E(r).r(x)/FMM algorithm (CHGder, D1EAlg=3).
                        Cavity 1st derivative terms included.
 Solvent              : Water, Eps=  78.355300 Eps(inf)=   1.777849
 ------------------------------------------------------------------------------
 Spheres list:
 ISph  on   Nord     Re0    Alpha      Xe            Ye            Ze
    1   B      1    2.0415  1.100     -1.000711     -0.680753     -0.041990
    2   F      2    1.6820  1.100     -1.633904     -0.220650     -1.180034
    3   F      3    1.6820  1.100     -1.643575     -0.338684      1.135453
    4   F      4    1.6820  1.100     -0.681501     -2.022702     -0.121773
    5   O      5    1.7500  1.100      0.436535      0.120650     -0.011724
    6   C      6    1.9255  1.100      1.613521     -0.594057      0.470071
    7   C      7    1.9255  1.100      2.795873     -0.352838     -0.444526
    8   C      8    1.9255  1.100      0.400497      1.489224      0.486839
    9   C      9    1.9255  1.100     -0.561957      2.358716     -0.291108
   10   H     10    1.4430  1.100      1.804445     -0.269621      1.501296
   11   H     11    1.4430  1.100      1.347340     -1.651882      0.477322
   12   H     12    1.4430  1.100      3.648151     -0.935122     -0.068743
   13   H     13    1.4430  1.100      2.566503     -0.689630     -1.463072
   14   H     14    1.4430  1.100      3.104332      0.699858     -0.474600
   15   H     15    1.4430  1.100      0.146843      1.450372      1.554051
   16   H     16    1.4430  1.100      1.419517      1.874900      0.378626
   17   H     17    1.4430  1.100     -0.445509      3.389027      0.070192
   18   H     18    1.4430  1.100     -0.331892      2.340221     -1.363466
   19   H     19    1.4430  1.100     -1.605240      2.062482     -0.138336
 ------------------------------------------------------------------------------
 One-electron integrals computed using PRISM.
 NBasis=   297 RedAO= T EigKep=  2.62D-05  NBF=   297
 NBsUse=   297 1.00D-06 EigRej= -1.00D+00 NBFU=   297
 Initial guess from the checkpoint file:  "/inspire/hdd/project/materialscienceresearch/lipenghui-253107030018/g16/00-B-DFT-Shift/04-output/BF3OEt2_D2O/BF3OEt2_D2O.chk"
 B after Tr=     0.000000    0.000000    0.000000
         Rot=    0.999915    0.008093    0.005872   -0.008312 Ang=   1.49 deg.
 ExpMin= 2.38D-02 ExpMax= 1.47D+04 ExpMxC= 5.03D+02 IAcc=3 IRadAn=         5 AccDes= 0.00D+00
 Harris functional with IExCor= 4639 and IRadAn=       5 diagonalized for initial guess.
 HarFok:  IExCor= 4639 AccDes= 0.00D+00 IRadAn=         5 IDoV= 1 UseB2=F ITyADJ=14
 ICtDFT=  3500011 ScaDFX=  1.000000  1.000000  1.000000  1.000000
 FoFCou: FMM=F IPFlag=           0 FMFlag=      100000 FMFlg1=           0
         NFxFlg=           0 DoJE=T BraDBF=F KetDBF=T FulRan=T
         wScrn=  0.000000 ICntrl=       500 IOpCl=  0 I1Cent=   200000004 NGrid=           0
         NMat0=    1 NMatS0=      1 NMatT0=    0 NMatD0=    1 NMtDS0=    0 NMtDT0=    0
 Petite list used in FoFCou.
 Requested convergence on RMS density matrix=1.00D-08 within 128 cycles.
 Requested convergence on MAX density matrix=1.00D-06.
 Requested convergence on             energy=1.00D-06.
 No special actions if energy rises.
 Inv3:  Mode=1 IEnd=     6958587.
 Iteration    1 A*A^-1 deviation from unit magnitude is 3.55D-15 for     65.
 Iteration    1 A*A^-1 deviation from orthogonality  is 2.39D-15 for   1507   1024.
 Iteration    1 A^-1*A deviation from unit magnitude is 3.55D-15 for   1515.
 Iteration    1 A^-1*A deviation from orthogonality  is 1.21D-15 for   1401    343.
 Error on total polarization charges =  0.01130
 SCF Done:  E(RwB97XD) =  -558.151510863     A.U. after   11 cycles
            NFock= 11  Conv=0.48D-08     -V/T= 2.0061
 D1PCM: C-PCM CHGder 1st derivatives, ID1Alg=3 FixD1E=F DoIter=F DoCFld=F I1PDM=0.
 Calling FoFJK, ICntrl=      2127 FMM=F ISym2X=0 I1Cent= 0 IOpClX= 0 NMat=1 NMatS=1 NMatT=0.
 ***** Axes restored to original set *****
 -------------------------------------------------------------------
 Center     Atomic                   Forces (Hartrees/Bohr)
 Number     Number              X              Y              Z
 -------------------------------------------------------------------
      1        5           0.005978368   -0.003173516   -0.000276444
      2        9          -0.000466672   -0.000019074    0.000824185
      3        9          -0.000295462    0.000123114   -0.000712417
      4        9           0.000405268    0.000189010    0.000125155
      5        8          -0.009115060    0.004114525   -0.000839562
      6        6           0.000076598   -0.007239340   -0.000565685
      7        6           0.000584419   -0.000089060   -0.000087094
      8        6           0.006447297    0.004325250    0.002719832
      9        6          -0.000627852    0.000625882   -0.000492540
     10        1          -0.000032264    0.000966403   -0.000790740
     11        1           0.000195511    0.001260937    0.000575663
     12        1          -0.000523305    0.000708622   -0.000045388
     13        1           0.000182365   -0.000085067    0.000349148
     14        1          -0.000593516    0.000724213    0.000109215
     15        1          -0.000824519   -0.000256788   -0.000943689
     16        1          -0.001256558   -0.000485370   -0.000299529
     17        1          -0.000265722   -0.000955546    0.000034097
     18        1          -0.000296474   -0.000171918    0.000564643
     19        1           0.000427578   -0.000562278   -0.000248850
 -------------------------------------------------------------------
 Cartesian Forces:  Max     0.009115060 RMS     0.002220297

 GradGradGradGradGradGradGradGradGradGradGradGradGradGradGradGradGradGrad
 Berny optimization.
 Using GEDIIS/GDIIS optimizer.
 FormGI is forming the generalized inverse of G from B-inverse, IUseBI=4.
 Internal  Forces:  Max     0.006290235 RMS     0.001053192
 Search for a local minimum.
 Step number  10 out of a maximum of   97
 All quantities printed in internal units (Hartrees-Bohrs-Radians)
 Mixed Optimization -- RFO/linear search
 Update second derivatives using D2CorX and points    9   10
 DE= -1.04D-04 DEPred=-1.82D-04 R= 5.72D-01
 TightC=F SS=  1.41D+00  RLast= 4.34D-01 DXNew= 1.8639D+00 1.3028D+00
 Trust test= 5.72D-01 RLast= 4.34D-01 DXMaxT set to 1.30D+00
 ITU=  1  1  1  1  1  1  1  1  1  0
 Use linear search instead of GDIIS.
     Eigenvalues ---    0.00146   0.00286   0.00379   0.01441   0.01489
     Eigenvalues ---    0.02354   0.04455   0.04711   0.05211   0.05307
     Eigenvalues ---    0.05442   0.05635   0.05775   0.05854   0.09644
     Eigenvalues ---    0.10325   0.12747   0.12912   0.13027   0.13450
     Eigenvalues ---    0.15453   0.16000   0.16008   0.16023   0.16104
     Eigenvalues ---    0.16257   0.17655   0.20834   0.21562   0.24308
     Eigenvalues ---    0.25178   0.26166   0.28317   0.28457   0.28677
     Eigenvalues ---    0.28951   0.30989   0.31741   0.31940   0.31997
     Eigenvalues ---    0.32091   0.32124   0.32156   0.32173   0.32217
     Eigenvalues ---    0.32461   0.35167   0.37612   0.41451   0.49410
     Eigenvalues ---    0.56119
 RFO step:  Lambda=-2.81926239D-04 EMin= 1.46495250D-03
 Quartic linear search produced a step of -0.19331.
 Iteration  1 RMS(Cart)=  0.01158405 RMS(Int)=  0.00005368
 Iteration  2 RMS(Cart)=  0.00007218 RMS(Int)=  0.00000632
 Iteration  3 RMS(Cart)=  0.00000000 RMS(Int)=  0.00000632
 Variable       Old X    -DE/DX   Delta X   Delta X   Delta X     New X
                                 (Linear)    (Quad)   (Total)
    R1        2.61013  -0.00067   0.00026   0.00139   0.00164   2.61177
    R2        2.61620  -0.00054   0.00068   0.00103   0.00171   2.61792
    R3        2.61103  -0.00043   0.00058   0.00184   0.00242   2.61345
    R4        3.11022  -0.00629  -0.00423  -0.01710  -0.02133   3.08889
    R5        2.75682   0.00360   0.00211   0.00285   0.00496   2.76178
    R6        2.75334   0.00443   0.00202   0.00365   0.00567   2.75900
    R7        2.86132  -0.00102  -0.00013  -0.00180  -0.00193   2.85938
    R8        2.07452  -0.00089   0.00003  -0.00132  -0.00129   2.07322
    R9        2.06136  -0.00070  -0.00030  -0.00024  -0.00054   2.06082
   R10        2.07581  -0.00068  -0.00008  -0.00069  -0.00076   2.07505
   R11        2.07309  -0.00039  -0.00001  -0.00010  -0.00011   2.07298
   R12        2.07373  -0.00033  -0.00032   0.00043   0.00011   2.07384
   R13        2.85813  -0.00106  -0.00022  -0.00156  -0.00178   2.85635
   R14        2.07422  -0.00066  -0.00007  -0.00060  -0.00067   2.07355
   R15        2.06911  -0.00074  -0.00048   0.00014  -0.00034   2.06877
   R16        2.07495  -0.00054   0.00001  -0.00052  -0.00051   2.07444
   R17        2.07287  -0.00061  -0.00014  -0.00043  -0.00058   2.07230
   R18        2.06969  -0.00071  -0.00019  -0.00032  -0.00051   2.06918
    A1        1.98840  -0.00088  -0.00063  -0.00418  -0.00481   1.98359
    A2        1.96261  -0.00006  -0.00113  -0.00042  -0.00156   1.96105
    A3        1.82686   0.00097   0.00158   0.00214   0.00372   1.83058
    A4        1.97835  -0.00021  -0.00096  -0.00095  -0.00191   1.97644
    A5        1.84372   0.00097   0.00080   0.00342   0.00422   1.84794
    A6        1.84651  -0.00056   0.00085   0.00108   0.00192   1.84843
    A7        2.06242  -0.00050  -0.00344   0.00444   0.00098   2.06339
    A8        2.02869   0.00063   0.00028   0.00208   0.00236   2.03106
    A9        1.94671   0.00025   0.00008   0.00328   0.00337   1.95008
   A10        1.93100  -0.00081   0.00185  -0.00515  -0.00330   1.92770
   A11        1.88153  -0.00030  -0.00045  -0.00398  -0.00444   1.87710
   A12        1.85502  -0.00037  -0.00260   0.00324   0.00065   1.85567
   A13        1.96549   0.00042   0.00023  -0.00019   0.00002   1.96551
   A14        1.92736   0.00116  -0.00019   0.00703   0.00683   1.93419
   A15        1.89947  -0.00018   0.00098  -0.00096   0.00002   1.89949
   A16        1.89101  -0.00046  -0.00143   0.00177   0.00033   1.89134
   A17        1.92692   0.00035   0.00034   0.00115   0.00149   1.92841
   A18        1.97021  -0.00098   0.00118  -0.00707  -0.00589   1.96432
   A19        1.89347   0.00009  -0.00056   0.00130   0.00073   1.89421
   A20        1.87527   0.00085  -0.00052   0.00497   0.00445   1.87971
   A21        1.90480   0.00019   0.00087  -0.00168  -0.00081   1.90399
   A22        1.96030   0.00021   0.00087  -0.00309  -0.00222   1.95808
   A23        1.88091  -0.00067  -0.00092  -0.00266  -0.00358   1.87733
   A24        1.84837  -0.00077  -0.00082  -0.00222  -0.00304   1.84533
   A25        1.95347   0.00043   0.00008   0.00269   0.00276   1.95622
   A26        1.91655   0.00055  -0.00015   0.00370   0.00354   1.92009
   A27        1.90036   0.00017   0.00090   0.00133   0.00222   1.90258
   A28        1.87832  -0.00111  -0.00095  -0.00191  -0.00286   1.87546
   A29        1.93872  -0.00017   0.00030  -0.00118  -0.00088   1.93784
   A30        1.95943   0.00015   0.00033  -0.00034  -0.00001   1.95942
   A31        1.89153   0.00051  -0.00018   0.00161   0.00142   1.89295
   A32        1.88486   0.00059   0.00011   0.00265   0.00276   1.88761
   A33        1.90879   0.00005   0.00035  -0.00064  -0.00029   1.90850
    D1       -2.50466   0.00013  -0.00737   0.00194  -0.00543  -2.51010
    D2        1.39207  -0.00048  -0.00352  -0.01212  -0.01563   1.37645
    D3        1.67412   0.00021  -0.00780   0.00408  -0.00373   1.67040
    D4       -0.71232  -0.00039  -0.00395  -0.00998  -0.01392  -0.72625
    D5       -0.42830   0.00025  -0.00752   0.00295  -0.00457  -0.43287
    D6       -2.81475  -0.00035  -0.00366  -0.01110  -0.01476  -2.82952
    D7        2.35383  -0.00012   0.02759  -0.02039   0.00721   2.36104
    D8       -1.77318  -0.00031   0.02876  -0.02654   0.00223  -1.77095
    D9        0.26104  -0.00085   0.02837  -0.02795   0.00042   0.26146
   D10       -1.50983   0.00063   0.02409  -0.00747   0.01661  -1.49323
   D11        0.64634   0.00044   0.02525  -0.01362   0.01163   0.65797
   D12        2.68056  -0.00010   0.02487  -0.01503   0.00982   2.69039
   D13       -0.99318  -0.00012   0.00861  -0.01245  -0.00383  -0.99701
   D14        1.16644   0.00009   0.00863  -0.01297  -0.00432   1.16212
   D15       -3.08513  -0.00042   0.00883  -0.01381  -0.00497  -3.09010
   D16        2.85544  -0.00036   0.01374  -0.02613  -0.01241   2.84303
   D17       -1.26812  -0.00015   0.01376  -0.02665  -0.01290  -1.28102
   D18        0.76349  -0.00066   0.01396  -0.02749  -0.01355   0.74995
   D19       -3.10622  -0.00013   0.01500  -0.02390  -0.00890  -3.11512
   D20       -1.03498  -0.00010   0.01365  -0.02059  -0.00693  -1.04192
   D21        1.10230  -0.00029   0.01589  -0.02694  -0.01105   1.09125
   D22        1.07001   0.00053   0.01410  -0.01502  -0.00091   1.06911
   D23        3.14126   0.00057   0.01276  -0.01170   0.00105  -3.14087
   D24       -1.00464   0.00038   0.01499  -0.01806  -0.00306  -1.00770
   D25       -1.05738  -0.00037   0.01282  -0.01873  -0.00591  -1.06329
   D26        1.01386  -0.00033   0.01147  -0.01542  -0.00395   1.00991
   D27       -3.13204  -0.00052   0.01370  -0.02177  -0.00807  -3.14010
   D28       -3.03209   0.00013   0.00052  -0.00027   0.00025  -3.03183
   D29       -0.96413  -0.00002  -0.00011  -0.00016  -0.00027  -0.96439
   D30        1.17931   0.00003   0.00080  -0.00210  -0.00130   1.17801
   D31        1.13249   0.00053   0.00103   0.00347   0.00451   1.13700
   D32       -3.08273   0.00038   0.00040   0.00358   0.00399  -3.07875
   D33       -0.93929   0.00043   0.00131   0.00163   0.00295  -0.93634
   D34       -0.98025  -0.00034  -0.00007  -0.00254  -0.00261  -0.98286
   D35        1.08771  -0.00050  -0.00069  -0.00243  -0.00313   1.08458
   D36       -3.05203  -0.00045   0.00022  -0.00438  -0.00416  -3.05620
         Item               Value     Threshold  Converged?
 Maximum Force            0.006290     0.000450     NO 
 RMS     Force            0.001053     0.000300     NO 
 Maximum Displacement     0.043108     0.001800     NO 
 RMS     Displacement     0.011580     0.001200     NO 
 Predicted change in Energy=-1.487220D-04
 GradGradGradGradGradGradGradGradGradGradGradGradGradGradGradGradGradGrad

                          Input orientation:                          
 ---------------------------------------------------------------------
 Center     Atomic      Atomic             Coordinates (Angstroms)
 Number     Number       Type             X           Y           Z
 ---------------------------------------------------------------------
      1          5           0       -1.793080    0.704064   -0.193706
      2          9           0       -1.600265    1.656678   -1.176316
      3          9           0       -2.060202    1.240272    1.055413
      4          9           0       -2.698765   -0.269108   -0.574878
      5          8           0       -0.351818   -0.054598   -0.055823
      6          6           0       -0.349848   -1.490792    0.214798
      7          6           0        0.654763   -2.194343   -0.671377
      8          6           0        0.676670    0.641539    0.711779
      9          6           0        0.969378    2.017112    0.157879
     10          1           0       -0.137886   -1.625907    1.282715
     11          1           0       -1.361380   -1.842762    0.009382
     12          1           0        0.608592   -3.270851   -0.459821
     13          1           0        0.410855   -2.036150   -1.729125
     14          1           0        1.684205   -1.861889   -0.486796
     15          1           0        0.341415    0.680008    1.755877
     16          1           0        1.571090    0.013586    0.647354
     17          1           0        1.823745    2.421822    0.715832
     18          1           0        1.241184    1.964429   -0.903207
     19          1           0        0.124886    2.702872    0.282436
 ---------------------------------------------------------------------
                    Distance matrix (angstroms):
                    1          2          3          4          5
     1  B    0.000000
     2  F    1.382090   0.000000
     3  F    1.385341   2.316366   0.000000
     4  F    1.382976   2.297190   2.311674   0.000000
     5  O    1.634569   2.396370   2.414562   2.413212   0.000000
     6  C    2.658417   3.661325   3.330263   2.762880   1.461469
     7  C    3.823724   4.491155   4.706317   3.868073   2.443486
     8  C    2.631249   3.127274   2.822593   3.725362   1.460002
     9  C    3.078778   2.917714   3.253828   4.383948   2.466415
    10  H    3.216870   4.354395   3.458605   3.442333   2.075203
    11  H    2.591126   3.702570   3.329810   2.146240   2.054507
    12  H    4.651752   5.447289   5.456063   4.467920   3.380812
    13  H    3.837136   4.241129   4.959306   3.758252   2.703361
    14  H    4.331458   4.862458   5.101215   4.664240   2.756344
    15  H    2.890937   3.649899   2.563651   3.946636   2.074241
    16  H    3.535786   4.010364   3.854550   4.450329   2.048581
    17  H    4.106016   3.986165   4.073869   5.418498   3.385436
    18  H    3.361349   2.871085   3.906371   4.540890   2.707800
    19  H    2.810789   2.489704   2.740675   4.188157   2.818742
                    6          7          8          9         10
     6  C    0.000000
     7  C    1.513121   0.000000
     8  C    2.418174   3.155286   0.000000
     9  C    3.748197   4.303836   1.511517   0.000000
    10  H    1.097102   2.184008   2.476042   3.970249   0.000000
    11  H    1.090539   2.156820   3.289188   4.511442   1.779141
    12  H    2.131274   1.098069   4.084615   5.336128   2.509881
    13  H    2.157526   1.096971   3.633000   4.505736   3.088786
    14  H    2.183420   1.097428   2.952772   3.996652   2.550858
    15  H    2.750480   3.775135   1.097277   2.176185   2.402261
    16  H    2.477955   2.730139   1.094744   2.148431   2.451984
    17  H    4.503785   4.959823   2.117830   1.097745   4.533593
    18  H    3.964828   4.206307   2.162612   1.096611   4.423867
    19  H    4.220991   5.017295   2.176670   1.094965   4.450611
                   11         12         13         14         15
    11  H    0.000000
    12  H    2.477979   0.000000
    13  H    2.490105   1.781774   0.000000
    14  H    3.085798   1.772807   1.787503   0.000000
    15  H    3.509149   4.537619   4.419002   3.646082   0.000000
    16  H    3.528799   3.597189   3.345925   2.194652   1.784669
    17  H    5.369429   5.938457   5.277081   4.451512   2.512550
    18  H    4.701155   5.291967   4.168479   3.874322   3.087077
    19  H    4.790233   6.039063   5.156208   4.884694   2.511950
                   16         17         18         19
    16  H    0.000000
    17  H    2.422420   0.000000
    18  H    2.513735   1.780413   0.000000
    19  H    3.075212   1.775652   1.788062   0.000000
 Stoichiometry    C4H10BF3O
 Framework group  C1[X(C4H10BF3O)]
 Deg. of freedom    51
 Full point group                 C1      NOp   1
 Largest Abelian subgroup         C1      NOp   1
 Largest concise Abelian subgroup C1      NOp   1
                         Standard orientation:                         
 ---------------------------------------------------------------------
 Center     Atomic      Atomic             Coordinates (Angstroms)
 Number     Number       Type             X           Y           Z
 ---------------------------------------------------------------------
      1          5           0       -0.999220   -0.673296   -0.042775
      2          9           0       -1.638805   -0.195789   -1.171089
      3          9           0       -1.641428   -0.346356    1.140377
      4          9           0       -0.690047   -2.017577   -0.142484
      5          8           0        0.432661    0.114257   -0.006835
      6          6           0        1.609177   -0.611937    0.466817
      7          6           0        2.790183   -0.356525   -0.443966
      8          6           0        0.406159    1.485584    0.493528
      9          6           0       -0.543383    2.361387   -0.291343
     10          1           0        1.798001   -0.297400    1.500763
     11          1           0        1.338888   -1.668446    0.464042
     12          1           0        3.644900   -0.937868   -0.073488
     13          1           0        2.563930   -0.682435   -1.466677
     14          1           0        3.087484    0.699722   -0.461341
     15          1           0        0.144732    1.444505    1.558415
     16          1           0        1.430428    1.858428    0.391926
     17          1           0       -0.418924    3.389898    0.071590
     18          1           0       -0.305244    2.339652   -1.361564
     19          1           0       -1.589669    2.072816   -0.146568
 ---------------------------------------------------------------------
 Rotational constants (GHZ):           1.7794661           1.3898519           0.9934272
 Standard basis: Aug-CC-pVDZ (5D, 7F)
 There are   315 symmetry adapted cartesian basis functions of A   symmetry.
 There are   297 symmetry adapted basis functions of A   symmetry.
   297 basis functions,   497 primitive gaussians,   315 cartesian basis functions
    37 alpha electrons       37 beta electrons
       nuclear repulsion energy       523.1111254585 Hartrees.
 NAtoms=   19 NActive=   19 NUniq=   19 SFac= 1.00D+00 NAtFMM=   60 NAOKFM=F Big=F
 Integral buffers will be    131072 words long.
 Raffenetti 2 integral format.
 Two-electron integral symmetry is turned on.
 Nuclear repulsion after empirical dispersion term =      523.0990977946 Hartrees.
 Force PCM accuracy= 1.00D-12.
 ------------------------------------------------------------------------------
 Polarizable Continuum Model (PCM)
 =================================
 Model                : C-PCM.
 Atomic radii         : UFF (Universal Force Field).
 Polarization charges : Total charges.
 Charge compensation  : None.
 Solution method      : On-the-fly selection.
 Cavity type          : Scaled VdW (van der Waals Surface) (Alpha=1.100).
 Cavity algorithm     : GePol (No added spheres)
                        Default sphere list used, NSphG=   19.
                        Lebedev-Laikov grids with approx.  5.0 points / Ang**2.
                        Smoothing algorithm: York/Karplus (Gamma=1.0000).
                        Polarization charges: spherical gaussians, with
                                              point-specific exponents (IZeta= 3).
                        Self-potential: point-specific (ISelfS= 7).
                        Self-field    : sphere-specific E.n sum rule (ISelfD= 2).
 1st derivatives      : Analytical E(r).r(x)/FMM algorithm (CHGder, D1EAlg=3).
                        Cavity 1st derivative terms included.
 Solvent              : Water, Eps=  78.355300 Eps(inf)=   1.777849
 ------------------------------------------------------------------------------
 Spheres list:
 ISph  on   Nord     Re0    Alpha      Xe            Ye            Ze
    1   B      1    2.0415  1.100     -0.999220     -0.673296     -0.042775
    2   F      2    1.6820  1.100     -1.638805     -0.195789     -1.171089
    3   F      3    1.6820  1.100     -1.641428     -0.346356      1.140377
    4   F      4    1.6820  1.100     -0.690047     -2.017577     -0.142484
    5   O      5    1.7500  1.100      0.432661      0.114257     -0.006835
    6   C      6    1.9255  1.100      1.609177     -0.611937      0.466817
    7   C      7    1.9255  1.100      2.790183     -0.356525     -0.443966
    8   C      8    1.9255  1.100      0.406159      1.485584      0.493528
    9   C      9    1.9255  1.100     -0.543383      2.361387     -0.291343
   10   H     10    1.4430  1.100      1.798001     -0.297400      1.500763
   11   H     11    1.4430  1.100      1.338888     -1.668446      0.464042
   12   H     12    1.4430  1.100      3.644900     -0.937868     -0.073488
   13   H     13    1.4430  1.100      2.563930     -0.682435     -1.466677
   14   H     14    1.4430  1.100      3.087484      0.699722     -0.461341
   15   H     15    1.4430  1.100      0.144732      1.444505      1.558415
   16   H     16    1.4430  1.100      1.430428      1.858428      0.391926
   17   H     17    1.4430  1.100     -0.418924      3.389898      0.071590
   18   H     18    1.4430  1.100     -0.305244      2.339652     -1.361564
   19   H     19    1.4430  1.100     -1.589669      2.072816     -0.146568
 ------------------------------------------------------------------------------
 One-electron integrals computed using PRISM.
 NBasis=   297 RedAO= T EigKep=  2.62D-05  NBF=   297
 NBsUse=   297 1.00D-06 EigRej= -1.00D+00 NBFU=   297
 Initial guess from the checkpoint file:  "/inspire/hdd/project/materialscienceresearch/lipenghui-253107030018/g16/00-B-DFT-Shift/04-output/BF3OEt2_D2O/BF3OEt2_D2O.chk"
 B after Tr=    -0.000000   -0.000000   -0.000000
         Rot=    0.999992   -0.003009   -0.000167    0.002458 Ang=  -0.45 deg.
 ExpMin= 2.38D-02 ExpMax= 1.47D+04 ExpMxC= 5.03D+02 IAcc=3 IRadAn=         5 AccDes= 0.00D+00
 Harris functional with IExCor= 4639 and IRadAn=       5 diagonalized for initial guess.
 HarFok:  IExCor= 4639 AccDes= 0.00D+00 IRadAn=         5 IDoV= 1 UseB2=F ITyADJ=14
 ICtDFT=  3500011 ScaDFX=  1.000000  1.000000  1.000000  1.000000
 FoFCou: FMM=F IPFlag=           0 FMFlag=      100000 FMFlg1=           0
         NFxFlg=           0 DoJE=T BraDBF=F KetDBF=T FulRan=T
         wScrn=  0.000000 ICntrl=       500 IOpCl=  0 I1Cent=   200000004 NGrid=           0
         NMat0=    1 NMatS0=      1 NMatT0=    0 NMatD0=    1 NMtDS0=    0 NMtDT0=    0
 Petite list used in FoFCou.
 Requested convergence on RMS density matrix=1.00D-08 within 128 cycles.
 Requested convergence on MAX density matrix=1.00D-06.
 Requested convergence on             energy=1.00D-06.
 No special actions if energy rises.
 Inv3:  Mode=1 IEnd=     6949452.
 Iteration    1 A*A^-1 deviation from unit magnitude is 4.66D-15 for   1522.
 Iteration    1 A*A^-1 deviation from orthogonality  is 2.45D-15 for   1082    623.
 Iteration    1 A^-1*A deviation from unit magnitude is 4.66D-15 for   1522.
 Iteration    1 A^-1*A deviation from orthogonality  is 1.39D-15 for   1500    970.
 Error on total polarization charges =  0.01129
 SCF Done:  E(RwB97XD) =  -558.151762209     A.U. after   10 cycles
            NFock= 10  Conv=0.41D-08     -V/T= 2.0061
 D1PCM: C-PCM CHGder 1st derivatives, ID1Alg=3 FixD1E=F DoIter=F DoCFld=F I1PDM=0.
 Calling FoFJK, ICntrl=      2127 FMM=F ISym2X=0 I1Cent= 0 IOpClX= 0 NMat=1 NMatS=1 NMatT=0.
 ***** Axes restored to original set *****
 -------------------------------------------------------------------
 Center     Atomic                   Forces (Hartrees/Bohr)
 Number     Number              X              Y              Z
 -------------------------------------------------------------------
      1        5           0.005081127   -0.002776763   -0.000353459
      2        9          -0.000657163   -0.000034800    0.000426590
      3        9          -0.000279638    0.000108294   -0.000414464
      4        9           0.000390189    0.000347444    0.000122247
      5        8          -0.008024951    0.003269323   -0.000889862
      6        6           0.000494130   -0.005533855   -0.000121039
      7        6           0.000494402    0.000171056   -0.000271305
      8        6           0.004901460    0.002982773    0.002121330
      9        6          -0.000389247    0.000497773   -0.000309655
     10        1           0.000058862    0.000665436   -0.000351776
     11        1           0.000194151    0.001238055    0.000240215
     12        1          -0.000271193    0.000516227    0.000004168
     13        1           0.000070436   -0.000087491    0.000354735
     14        1          -0.000474425    0.000080814   -0.000067243
     15        1          -0.000623308   -0.000159099   -0.000730182
     16        1          -0.001137798   -0.000144603   -0.000127145
     17        1          -0.000158877   -0.000600989    0.000008273
     18        1          -0.000155127   -0.000101828    0.000424470
     19        1           0.000486970   -0.000437767   -0.000065897
 -------------------------------------------------------------------
 Cartesian Forces:  Max     0.008024951 RMS     0.001806761

 GradGradGradGradGradGradGradGradGradGradGradGradGradGradGradGradGradGrad
 Berny optimization.
 Using GEDIIS/GDIIS optimizer.
 FormGI is forming the generalized inverse of G from B-inverse, IUseBI=4.
 Internal  Forces:  Max     0.005073267 RMS     0.000846881
 Search for a local minimum.
 Step number  11 out of a maximum of   97
 All quantities printed in internal units (Hartrees-Bohrs-Radians)
 Mixed Optimization -- En-DIIS/RFO-DIIS
 Update second derivatives using D2CorX and points    9   10   11
 DE= -2.51D-04 DEPred=-1.49D-04 R= 1.69D+00
 TightC=F SS=  1.41D+00  RLast= 5.59D-02 DXNew= 2.1910D+00 1.6775D-01
 Trust test= 1.69D+00 RLast= 5.59D-02 DXMaxT set to 1.30D+00
 ITU=  1  1  1  1  1  1  1  1  1  1  0
 Use linear search instead of GDIIS.
     Eigenvalues ---    0.00112   0.00286   0.00382   0.01218   0.01474
     Eigenvalues ---    0.02226   0.04441   0.04984   0.05206   0.05312
     Eigenvalues ---    0.05360   0.05467   0.05775   0.05860   0.08429
     Eigenvalues ---    0.09657   0.10770   0.12732   0.12904   0.13004
     Eigenvalues ---    0.13476   0.15981   0.16000   0.16011   0.16053
     Eigenvalues ---    0.16510   0.17076   0.20922   0.21566   0.24893
     Eigenvalues ---    0.25412   0.25503   0.28019   0.28374   0.28478
     Eigenvalues ---    0.28764   0.30334   0.31892   0.31977   0.32058
     Eigenvalues ---    0.32111   0.32128   0.32165   0.32187   0.32219
     Eigenvalues ---    0.32729   0.34094   0.37707   0.38876   0.43186
     Eigenvalues ---    0.53801
 RFO step:  Lambda=-4.87135417D-04 EMin= 1.12102138D-03
 Quartic linear search produced a step of  2.00000.
 Iteration  1 RMS(Cart)=  0.08909533 RMS(Int)=  0.00331903
 Iteration  2 RMS(Cart)=  0.00445312 RMS(Int)=  0.00012182
 Iteration  3 RMS(Cart)=  0.00001117 RMS(Int)=  0.00012158
 Iteration  4 RMS(Cart)=  0.00000000 RMS(Int)=  0.00012158
 Variable       Old X    -DE/DX   Delta X   Delta X   Delta X     New X
                                 (Linear)    (Quad)   (Total)
    R1        2.61177  -0.00042   0.00329   0.00415   0.00744   2.61921
    R2        2.61792  -0.00028   0.00343   0.00301   0.00644   2.62436
    R3        2.61345  -0.00053   0.00483   0.00139   0.00623   2.61967
    R4        3.08889  -0.00507  -0.04266  -0.02590  -0.06856   3.02033
    R5        2.76178   0.00286   0.00992   0.00328   0.01320   2.77498
    R6        2.75900   0.00372   0.01133   0.00633   0.01766   2.77666
    R7        2.85938  -0.00045  -0.00387  -0.00037  -0.00424   2.85515
    R8        2.07322  -0.00041  -0.00259  -0.00010  -0.00269   2.07053
    R9        2.06082  -0.00063  -0.00108  -0.00082  -0.00190   2.05892
   R10        2.07505  -0.00049  -0.00153  -0.00080  -0.00233   2.07272
   R11        2.07298  -0.00037  -0.00022  -0.00066  -0.00089   2.07209
   R12        2.07384  -0.00043   0.00022   0.00027   0.00049   2.07433
   R13        2.85635  -0.00064  -0.00356  -0.00101  -0.00457   2.85178
   R14        2.07355  -0.00051  -0.00133  -0.00097  -0.00230   2.07125
   R15        2.06877  -0.00084  -0.00068  -0.00069  -0.00138   2.06739
   R16        2.07444  -0.00034  -0.00102  -0.00010  -0.00113   2.07331
   R17        2.07230  -0.00044  -0.00115  -0.00008  -0.00123   2.07107
   R18        2.06918  -0.00066  -0.00101  -0.00094  -0.00195   2.06723
    A1        1.98359  -0.00070  -0.00962  -0.00684  -0.01659   1.96700
    A2        1.96105  -0.00037  -0.00311  -0.00350  -0.00671   1.95435
    A3        1.83058   0.00127   0.00743   0.00818   0.01551   1.84609
    A4        1.97644  -0.00025  -0.00382  -0.00142  -0.00533   1.97111
    A5        1.84794   0.00070   0.00844   0.00443   0.01278   1.86071
    A6        1.84843  -0.00039   0.00385   0.00134   0.00511   1.85354
    A7        2.06339  -0.00029   0.00195   0.01801   0.01956   2.08295
    A8        2.03106   0.00079   0.00473   0.00658   0.01078   2.04184
    A9        1.95008  -0.00025   0.00673  -0.00313   0.00298   1.95307
   A10        1.92770  -0.00002  -0.00660  -0.00988  -0.01648   1.91122
   A11        1.87710  -0.00032  -0.00888  -0.00107  -0.00999   1.86711
   A12        1.85567  -0.00069   0.00130  -0.00323  -0.00179   1.85388
   A13        1.96551   0.00028   0.00005   0.00552   0.00530   1.97081
   A14        1.93419   0.00065   0.01367   0.00791   0.02151   1.95570
   A15        1.89949   0.00002   0.00004   0.00008  -0.00007   1.89942
   A16        1.89134  -0.00037   0.00066   0.00443   0.00510   1.89645
   A17        1.92841   0.00009   0.00298  -0.00031   0.00261   1.93103
   A18        1.96432  -0.00015  -0.01178  -0.00553  -0.01733   1.94698
   A19        1.89421   0.00009   0.00147   0.00183   0.00326   1.89747
   A20        1.87971   0.00031   0.00889   0.00307   0.01200   1.89172
   A21        1.90399   0.00004  -0.00162  -0.00309  -0.00480   1.89919
   A22        1.95808   0.00086  -0.00444  -0.00039  -0.00480   1.95328
   A23        1.87733  -0.00072  -0.00716  -0.00456  -0.01170   1.86563
   A24        1.84533  -0.00075  -0.00607  -0.00327  -0.00931   1.83602
   A25        1.95622   0.00015   0.00551   0.00334   0.00875   1.96498
   A26        1.92009   0.00018   0.00709   0.00494   0.01194   1.93203
   A27        1.90258   0.00021   0.00444  -0.00062   0.00360   1.90619
   A28        1.87546  -0.00071  -0.00572   0.00052  -0.00520   1.87026
   A29        1.93784  -0.00009  -0.00177  -0.00124  -0.00302   1.93482
   A30        1.95942   0.00012  -0.00002  -0.00214  -0.00217   1.95726
   A31        1.89295   0.00030   0.00285   0.00128   0.00411   1.89706
   A32        1.88761   0.00033   0.00552   0.00133   0.00684   1.89446
   A33        1.90850   0.00007  -0.00058   0.00045  -0.00015   1.90835
    D1       -2.51010   0.00015  -0.01087   0.03727   0.02654  -2.48356
    D2        1.37645  -0.00008  -0.03125   0.01030  -0.02106   1.35539
    D3        1.67040   0.00000  -0.00746   0.03901   0.03166   1.70205
    D4       -0.72625  -0.00022  -0.02784   0.01204  -0.01594  -0.74219
    D5       -0.43287   0.00014  -0.00914   0.03777   0.02876  -0.40411
    D6       -2.82952  -0.00009  -0.02952   0.01081  -0.01884  -2.84835
    D7        2.36104  -0.00040   0.01441  -0.14024  -0.12592   2.23511
    D8       -1.77095  -0.00028   0.00447  -0.14027  -0.13576  -1.90671
    D9        0.26146  -0.00076   0.00085  -0.14231  -0.14151   0.11995
   D10       -1.49323   0.00023   0.03321  -0.11108  -0.07789  -1.57112
   D11        0.65797   0.00035   0.02326  -0.11110  -0.08773   0.57024
   D12        2.69039  -0.00013   0.01965  -0.11315  -0.09348   2.59691
   D13       -0.99701  -0.00018  -0.00766  -0.04658  -0.05431  -1.05132
   D14        1.16212   0.00007  -0.00865  -0.04582  -0.05452   1.10760
   D15       -3.09010  -0.00040  -0.00994  -0.05030  -0.06028   3.13281
   D16        2.84303  -0.00033  -0.02481  -0.08030  -0.10508   2.73796
   D17       -1.28102  -0.00009  -0.02580  -0.07954  -0.10529  -1.38630
   D18        0.74995  -0.00056  -0.02709  -0.08402  -0.11104   0.63890
   D19       -3.11512   0.00010  -0.01779  -0.03887  -0.05664   3.11142
   D20       -1.04192   0.00004  -0.01387  -0.03413  -0.04798  -1.08989
   D21        1.09125   0.00005  -0.02210  -0.04223  -0.06427   1.02698
   D22        1.06911   0.00034  -0.00182  -0.03431  -0.03609   1.03302
   D23       -3.14087   0.00027   0.00211  -0.02957  -0.02742   3.11489
   D24       -1.00770   0.00028  -0.00612  -0.03768  -0.04371  -1.05142
   D25       -1.06329  -0.00036  -0.01183  -0.04413  -0.05606  -1.11936
   D26        1.00991  -0.00042  -0.00790  -0.03939  -0.04740   0.96251
   D27       -3.14010  -0.00041  -0.01614  -0.04749  -0.06369   3.07939
   D28       -3.03183   0.00011   0.00050   0.00955   0.01005  -3.02178
   D29       -0.96439  -0.00002  -0.00053   0.01072   0.01019  -0.95421
   D30        1.17801   0.00009  -0.00260   0.00884   0.00624   1.18425
   D31        1.13700   0.00032   0.00901   0.01334   0.02241   1.15941
   D32       -3.07875   0.00019   0.00798   0.01451   0.02255  -3.05620
   D33       -0.93634   0.00030   0.00591   0.01263   0.01860  -0.91774
   D34       -0.98286  -0.00017  -0.00522   0.00843   0.00315  -0.97971
   D35        1.08458  -0.00030  -0.00626   0.00960   0.00328   1.08787
   D36       -3.05620  -0.00019  -0.00833   0.00772  -0.00066  -3.05686
         Item               Value     Threshold  Converged?
 Maximum Force            0.005073     0.000450     NO 
 RMS     Force            0.000847     0.000300     NO 
 Maximum Displacement     0.293743     0.001800     NO 
 RMS     Displacement     0.090040     0.001200     NO 
 Predicted change in Energy=-5.089513D-04
 GradGradGradGradGradGradGradGradGradGradGradGradGradGradGradGradGradGrad

                          Input orientation:                          
 ---------------------------------------------------------------------
 Center     Atomic      Atomic             Coordinates (Angstroms)
 Number     Number       Type             X           Y           Z
 ---------------------------------------------------------------------
      1          5           0       -1.775705    0.669938   -0.208193
      2          9           0       -1.571650    1.625060   -1.191640
      3          9           0       -2.114903    1.227070    1.017848
      4          9           0       -2.661107   -0.315107   -0.617458
      5          8           0       -0.365208   -0.054168   -0.006462
      6          6           0       -0.328275   -1.500281    0.246027
      7          6           0        0.620610   -2.158408   -0.728264
      8          6           0        0.647490    0.665284    0.778276
      9          6           0        1.005607    1.991924    0.154453
     10          1           0       -0.028058   -1.635015    1.291124
     11          1           0       -1.350809   -1.856522    0.125184
     12          1           0        0.661247   -3.232052   -0.507611
     13          1           0        0.271103   -2.023975   -1.758841
     14          1           0        1.635286   -1.748586   -0.642238
     15          1           0        0.247566    0.771655    1.793208
     16          1           0        1.516956    0.001690    0.801566
     17          1           0        1.847011    2.402090    0.726763
     18          1           0        1.319924    1.861094   -0.887286
     19          1           0        0.176452    2.704291    0.195958
 ---------------------------------------------------------------------
                    Distance matrix (angstroms):
                    1          2          3          4          5
     1  B    0.000000
     2  F    1.386025   0.000000
     3  F    1.388750   2.309839   0.000000
     4  F    1.386271   2.298009   2.313195   0.000000
     5  O    1.598289   2.383266   2.398377   2.390095   0.000000
     6  C    2.647871   3.657953   3.350550   2.755421   1.468454
     7  C    3.743306   4.397198   4.689712   3.765595   2.433241
     8  C    2.616298   3.118705   2.829101   3.722371   1.469347
     9  C    3.100783   2.930668   3.326866   4.400344   2.468100
    10  H    3.258071   4.378913   3.552623   3.509670   2.072794
    11  H    2.583540   3.728835   3.299883   2.155077   2.058451
    12  H    4.610197   5.389366   5.469717   4.422518   3.376938
    13  H    3.721707   4.127095   4.896153   3.580620   2.712170
    14  H    4.203869   4.686979   5.066984   4.529290   2.697637
    15  H    2.847732   3.598218   2.527815   3.930997   2.072749
    16  H    3.508246   4.018419   3.839106   4.423822   2.049042
    17  H    4.122932   3.996410   4.142724   5.432607   3.385961
    18  H    3.385697   2.917113   3.978638   4.545027   2.698843
    19  H    2.848306   2.479119   2.847453   4.222576   2.818415
                    6          7          8          9         10
     6  C    0.000000
     7  C    1.510880   0.000000
     8  C    2.434148   3.200565   0.000000
     9  C    3.739401   4.260594   1.509098   0.000000
    10  H    1.095678   2.184636   2.451683   3.938930   0.000000
    11  H    1.089535   2.169332   3.283174   4.512659   1.777119
    12  H    2.132171   1.096837   4.104013   5.277010   2.502222
    13  H    2.157082   1.096502   3.716280   4.508618   3.089186
    14  H    2.169388   1.097689   2.969910   3.875903   2.552939
    15  H    2.808390   3.883588   1.096057   2.179266   2.473887
    16  H    2.443239   2.794609   1.094016   2.154359   2.303376
    17  H    4.493492   4.941589   2.111398   1.097149   4.486937
    18  H    3.911496   4.082980   2.157829   1.095961   4.334202
    19  H    4.235053   4.969638   2.172216   1.093933   4.480043
                   11         12         13         14         15
    11  H    0.000000
    12  H    2.518110   0.000000
    13  H    2.491624   1.782481   0.000000
    14  H    3.085020   1.779761   1.784275   0.000000
    15  H    3.499203   4.636224   4.520305   3.769454   0.000000
    16  H    3.483464   3.592112   3.494446   2.272012   1.785371
    17  H    5.359452   5.888401   5.315239   4.375740   2.520684
    18  H    4.688132   5.149578   4.117451   3.631707   3.085754
    19  H    4.810254   5.997516   5.117294   4.760135   2.508256
                   16         17         18         19
    16  H    0.000000
    17  H    2.424139   0.000000
    18  H    2.519608   1.782036   0.000000
    19  H    3.076973   1.778721   1.786596   0.000000
 Stoichiometry    C4H10BF3O
 Framework group  C1[X(C4H10BF3O)]
 Deg. of freedom    51
 Full point group                 C1      NOp   1
 Largest Abelian subgroup         C1      NOp   1
 Largest concise Abelian subgroup C1      NOp   1
                         Standard orientation:                         
 ---------------------------------------------------------------------
 Center     Atomic      Atomic             Coordinates (Angstroms)
 Number     Number       Type             X           Y           Z
 ---------------------------------------------------------------------
      1          5           0       -0.967229   -0.678392   -0.046226
      2          9           0       -1.599437   -0.208520   -1.186664
      3          9           0       -1.671740   -0.388808    1.114993
      4          9           0       -0.631433   -2.019033   -0.154259
      5          8           0        0.413643    0.121149    0.045726
      6          6           0        1.618935   -0.575659    0.512722
      7          6           0        2.737848   -0.369606   -0.481426
      8          6           0        0.352393    1.502824    0.541914
      9          6           0       -0.516322    2.376305   -0.329719
     10          1           0        1.852958   -0.178833    1.506842
     11          1           0        1.345315   -1.625891    0.608803
     12          1           0        3.638658   -0.869030   -0.104374
     13          1           0        2.475797   -0.803554   -1.453710
     14          1           0        2.964285    0.695673   -0.618644
     15          1           0       -0.004252    1.453939    1.577171
     16          1           0        1.387629    1.856513    0.534024
     17          1           0       -0.408624    3.405731    0.034174
     18          1           0       -0.186291    2.336564   -1.374052
     19          1           0       -1.572112    2.095732   -0.272495
 ---------------------------------------------------------------------
 Rotational constants (GHZ):           1.7546323           1.4124643           1.0054582
 Standard basis: Aug-CC-pVDZ (5D, 7F)
 There are   315 symmetry adapted cartesian basis functions of A   symmetry.
 There are   297 symmetry adapted basis functions of A   symmetry.
   297 basis functions,   497 primitive gaussians,   315 cartesian basis functions
    37 alpha electrons       37 beta electrons
       nuclear repulsion energy       523.8052185539 Hartrees.
 NAtoms=   19 NActive=   19 NUniq=   19 SFac= 1.00D+00 NAtFMM=   60 NAOKFM=F Big=F
 Integral buffers will be    131072 words long.
 Raffenetti 2 integral format.
 Two-electron integral symmetry is turned on.
 Nuclear repulsion after empirical dispersion term =      523.7931550412 Hartrees.
 Force PCM accuracy= 1.00D-12.
 ------------------------------------------------------------------------------
 Polarizable Continuum Model (PCM)
 =================================
 Model                : C-PCM.
 Atomic radii         : UFF (Universal Force Field).
 Polarization charges : Total charges.
 Charge compensation  : None.
 Solution method      : On-the-fly selection.
 Cavity type          : Scaled VdW (van der Waals Surface) (Alpha=1.100).
 Cavity algorithm     : GePol (No added spheres)
                        Default sphere list used, NSphG=   19.
                        Lebedev-Laikov grids with approx.  5.0 points / Ang**2.
                        Smoothing algorithm: York/Karplus (Gamma=1.0000).
                        Polarization charges: spherical gaussians, with
                                              point-specific exponents (IZeta= 3).
                        Self-potential: point-specific (ISelfS= 7).
                        Self-field    : sphere-specific E.n sum rule (ISelfD= 2).
 1st derivatives      : Analytical E(r).r(x)/FMM algorithm (CHGder, D1EAlg=3).
                        Cavity 1st derivative terms included.
 Solvent              : Water, Eps=  78.355300 Eps(inf)=   1.777849
 ------------------------------------------------------------------------------
 Spheres list:
 ISph  on   Nord     Re0    Alpha      Xe            Ye            Ze
    1   B      1    2.0415  1.100     -0.967229     -0.678392     -0.046226
    2   F      2    1.6820  1.100     -1.599437     -0.208520     -1.186664
    3   F      3    1.6820  1.100     -1.671740     -0.388808      1.114993
    4   F      4    1.6820  1.100     -0.631433     -2.019033     -0.154259
    5   O      5    1.7500  1.100      0.413643      0.121149      0.045726
    6   C      6    1.9255  1.100      1.618935     -0.575659      0.512722
    7   C      7    1.9255  1.100      2.737848     -0.369606     -0.481426
    8   C      8    1.9255  1.100      0.352393      1.502824      0.541914
    9   C      9    1.9255  1.100     -0.516322      2.376305     -0.329719
   10   H     10    1.4430  1.100      1.852958     -0.178833      1.506842
   11   H     11    1.4430  1.100      1.345315     -1.625891      0.608803
   12   H     12    1.4430  1.100      3.638658     -0.869030     -0.104374
   13   H     13    1.4430  1.100      2.475797     -0.803554     -1.453710
   14   H     14    1.4430  1.100      2.964285      0.695673     -0.618644
   15   H     15    1.4430  1.100     -0.004252      1.453939      1.577171
   16   H     16    1.4430  1.100      1.387629      1.856513      0.534024
   17   H     17    1.4430  1.100     -0.408624      3.405731      0.034174
   18   H     18    1.4430  1.100     -0.186291      2.336564     -1.374052
   19   H     19    1.4430  1.100     -1.572112      2.095732     -0.272495
 ------------------------------------------------------------------------------
 One-electron integrals computed using PRISM.
 NBasis=   297 RedAO= T EigKep=  2.74D-05  NBF=   297
 NBsUse=   297 1.00D-06 EigRej= -1.00D+00 NBFU=   297
 Initial guess from the checkpoint file:  "/inspire/hdd/project/materialscienceresearch/lipenghui-253107030018/g16/00-B-DFT-Shift/04-output/BF3OEt2_D2O/BF3OEt2_D2O.chk"
 B after Tr=     0.000000   -0.000000    0.000000
         Rot=    0.999978    0.001650    0.004980   -0.004111 Ang=   0.76 deg.
 ExpMin= 2.38D-02 ExpMax= 1.47D+04 ExpMxC= 5.03D+02 IAcc=3 IRadAn=         5 AccDes= 0.00D+00
 Harris functional with IExCor= 4639 and IRadAn=       5 diagonalized for initial guess.
 HarFok:  IExCor= 4639 AccDes= 0.00D+00 IRadAn=         5 IDoV= 1 UseB2=F ITyADJ=14
 ICtDFT=  3500011 ScaDFX=  1.000000  1.000000  1.000000  1.000000
 FoFCou: FMM=F IPFlag=           0 FMFlag=      100000 FMFlg1=           0
         NFxFlg=           0 DoJE=T BraDBF=F KetDBF=T FulRan=T
         wScrn=  0.000000 ICntrl=       500 IOpCl=  0 I1Cent=   200000004 NGrid=           0
         NMat0=    1 NMatS0=      1 NMatT0=    0 NMatD0=    1 NMtDS0=    0 NMtDT0=    0
 Petite list used in FoFCou.
 Requested convergence on RMS density matrix=1.00D-08 within 128 cycles.
 Requested convergence on MAX density matrix=1.00D-06.
 Requested convergence on             energy=1.00D-06.
 No special actions if energy rises.
 Inv3:  Mode=1 IEnd=     6976875.
 Iteration    1 A*A^-1 deviation from unit magnitude is 4.88D-15 for   1501.
 Iteration    1 A*A^-1 deviation from orthogonality  is 5.34D-15 for   1501   1145.
 Iteration    1 A^-1*A deviation from unit magnitude is 3.33D-15 for   1482.
 Iteration    1 A^-1*A deviation from orthogonality  is 6.56D-15 for   1501   1145.
 Error on total polarization charges =  0.01130
 SCF Done:  E(RwB97XD) =  -558.152250298     A.U. after   11 cycles
            NFock= 11  Conv=0.39D-08     -V/T= 2.0060
 D1PCM: C-PCM CHGder 1st derivatives, ID1Alg=3 FixD1E=F DoIter=F DoCFld=F I1PDM=0.
 Calling FoFJK, ICntrl=      2127 FMM=F ISym2X=0 I1Cent= 0 IOpClX= 0 NMat=1 NMatS=1 NMatT=0.
 ***** Axes restored to original set *****
 -------------------------------------------------------------------
 Center     Atomic                   Forces (Hartrees/Bohr)
 Number     Number              X              Y              Z
 -------------------------------------------------------------------
      1        5           0.001267389   -0.000757622   -0.000683472
      2        9          -0.000258142   -0.000262996    0.000020519
      3        9          -0.000229332   -0.000105662    0.000214027
      4        9           0.000159071    0.000242078    0.000083415
      5        8          -0.001898673    0.001311726    0.000812146
      6        6          -0.000144514   -0.001428350   -0.000219052
      7        6           0.000081426    0.000877047   -0.000136751
      8        6           0.000860864    0.000278743    0.000468857
      9        6          -0.000114982   -0.000245457    0.000036146
     10        1           0.000121823    0.000038392   -0.000138904
     11        1          -0.000069877    0.000009499   -0.000357558
     12        1           0.000236594   -0.000150186    0.000049069
     13        1          -0.000238783   -0.000073186    0.000200793
     14        1          -0.000067780   -0.000852627    0.000114400
     15        1           0.000044722    0.000173694   -0.000099208
     16        1          -0.000267029    0.000428089   -0.000504865
     17        1           0.000041640    0.000269723   -0.000103277
     18        1           0.000192304    0.000035323    0.000088695
     19        1           0.000283279    0.000211773    0.000155021
 -------------------------------------------------------------------
 Cartesian Forces:  Max     0.001898673 RMS     0.000511529

 GradGradGradGradGradGradGradGradGradGradGradGradGradGradGradGradGradGrad
 Berny optimization.
 Using GEDIIS/GDIIS optimizer.
 FormGI is forming the generalized inverse of G from B-inverse, IUseBI=4.
 Internal  Forces:  Max     0.001476004 RMS     0.000394838
 Search for a local minimum.
 Step number  12 out of a maximum of   97
 All quantities printed in internal units (Hartrees-Bohrs-Radians)
 Mixed Optimization -- En-DIIS/RFO-DIIS
 Swapping is turned off.
 Update second derivatives using D2CorX and points   10   11   12
 DE= -4.88D-04 DEPred=-5.09D-04 R= 9.59D-01
 TightC=F SS=  1.41D+00  RLast= 3.97D-01 DXNew= 2.1910D+00 1.1914D+00
 Trust test= 9.59D-01 RLast= 3.97D-01 DXMaxT set to 1.30D+00
 ITU=  1  1  1  1  1  1  1  1  1  1  1  0
     Eigenvalues ---    0.00154   0.00286   0.00378   0.01198   0.01472
     Eigenvalues ---    0.01995   0.04509   0.04828   0.05084   0.05302
     Eigenvalues ---    0.05416   0.05548   0.05742   0.05891   0.07704
     Eigenvalues ---    0.09637   0.10624   0.12626   0.12842   0.12870
     Eigenvalues ---    0.13311   0.15998   0.16001   0.16030   0.16052
     Eigenvalues ---    0.16562   0.17194   0.21281   0.22026   0.25016
     Eigenvalues ---    0.25277   0.25480   0.27714   0.28357   0.28483
     Eigenvalues ---    0.28764   0.30338   0.31896   0.31973   0.32051
     Eigenvalues ---    0.32112   0.32115   0.32163   0.32186   0.32219
     Eigenvalues ---    0.32791   0.34067   0.37725   0.38358   0.42827
     Eigenvalues ---    0.53630
 En-DIIS/RFO-DIIS/Sim-DIIS IScMMF=       -3 using points:    12   11
 RFO step:  Lambda=-1.51415558D-04.
 DidBck=T Rises=F RFO-DIIS coefs:    0.66800    0.33200
 Iteration  1 RMS(Cart)=  0.03814227 RMS(Int)=  0.00079931
 Iteration  2 RMS(Cart)=  0.00091740 RMS(Int)=  0.00003764
 Iteration  3 RMS(Cart)=  0.00000050 RMS(Int)=  0.00003764
 Variable       Old X    -DE/DX   Delta X   Delta X   Delta X     New X
                                 (Linear)    (Quad)   (Total)
    R1        2.61921  -0.00023  -0.00247   0.00485   0.00238   2.62159
    R2        2.62436   0.00020  -0.00214   0.00653   0.00439   2.62874
    R3        2.61967  -0.00030  -0.00207   0.00474   0.00268   2.62235
    R4        3.02033  -0.00118   0.02276  -0.04989  -0.02713   2.99320
    R5        2.77498   0.00148  -0.00438   0.01379   0.00941   2.78439
    R6        2.77666   0.00130  -0.00586   0.01511   0.00924   2.78591
    R7        2.85515  -0.00006   0.00141  -0.00285  -0.00145   2.85370
    R8        2.07053  -0.00010   0.00089  -0.00147  -0.00057   2.06996
    R9        2.05892   0.00010   0.00063  -0.00097  -0.00034   2.05858
   R10        2.07272   0.00017   0.00077  -0.00063   0.00014   2.07286
   R11        2.07209  -0.00013   0.00029  -0.00068  -0.00039   2.07170
   R12        2.07433  -0.00037  -0.00016  -0.00131  -0.00147   2.07286
   R13        2.85178   0.00026   0.00152  -0.00158  -0.00006   2.85172
   R14        2.07125  -0.00009   0.00077  -0.00149  -0.00072   2.07053
   R15        2.06739  -0.00048   0.00046  -0.00262  -0.00216   2.06523
   R16        2.07331   0.00008   0.00037  -0.00023   0.00015   2.07346
   R17        2.07107  -0.00003   0.00041  -0.00085  -0.00044   2.07062
   R18        2.06723  -0.00007   0.00065  -0.00119  -0.00054   2.06669
    A1        1.96700   0.00007   0.00551  -0.00889  -0.00337   1.96363
    A2        1.95435  -0.00025   0.00223  -0.00719  -0.00495   1.94940
    A3        1.84609   0.00038  -0.00515   0.01199   0.00684   1.85294
    A4        1.97111  -0.00020   0.00177  -0.00678  -0.00500   1.96611
    A5        1.86071   0.00014  -0.00424   0.00903   0.00480   1.86551
    A6        1.85354  -0.00009  -0.00170   0.00526   0.00357   1.85711
    A7        2.08295  -0.00113  -0.00649   0.00015  -0.00625   2.07670
    A8        2.04184   0.00059  -0.00358   0.00963   0.00621   2.04805
    A9        1.95307   0.00069  -0.00099   0.00576   0.00497   1.95803
   A10        1.91122   0.00092   0.00547  -0.00122   0.00425   1.91547
   A11        1.86711  -0.00020   0.00332  -0.00543  -0.00211   1.86500
   A12        1.85388  -0.00040   0.00060  -0.00728  -0.00673   1.84715
   A13        1.97081  -0.00026  -0.00176   0.00220   0.00052   1.97133
   A14        1.95570  -0.00036  -0.00714   0.00659  -0.00052   1.95517
   A15        1.89942   0.00029   0.00002   0.00397   0.00405   1.90346
   A16        1.89645   0.00003  -0.00169  -0.00240  -0.00410   1.89235
   A17        1.93103  -0.00036  -0.00087   0.00036  -0.00050   1.93053
   A18        1.94698   0.00067   0.00576  -0.00058   0.00517   1.95215
   A19        1.89747   0.00005  -0.00108  -0.00049  -0.00158   1.89590
   A20        1.89172  -0.00053  -0.00399   0.00029  -0.00370   1.88802
   A21        1.89919   0.00012   0.00159   0.00280   0.00441   1.90360
   A22        1.95328   0.00081   0.00159   0.00190   0.00348   1.95676
   A23        1.86563  -0.00011   0.00388  -0.00575  -0.00188   1.86376
   A24        1.83602  -0.00031   0.00309  -0.00907  -0.00599   1.83003
   A25        1.96498  -0.00029  -0.00291   0.00398   0.00110   1.96608
   A26        1.93203  -0.00042  -0.00396   0.00222  -0.00172   1.93031
   A27        1.90619   0.00032  -0.00120   0.00577   0.00463   1.91081
   A28        1.87026   0.00029   0.00173  -0.00374  -0.00201   1.86825
   A29        1.93482  -0.00000   0.00100  -0.00029   0.00071   1.93553
   A30        1.95726   0.00030   0.00072   0.00210   0.00282   1.96008
   A31        1.89706  -0.00022  -0.00137  -0.00047  -0.00183   1.89524
   A32        1.89446  -0.00036  -0.00227   0.00085  -0.00142   1.89304
   A33        1.90835  -0.00003   0.00005   0.00140   0.00145   1.90980
    D1       -2.48356   0.00041  -0.00881  -0.00544  -0.01430  -2.49786
    D2        1.35539  -0.00011   0.00699  -0.03066  -0.02362   1.33177
    D3        1.70205   0.00006  -0.01051  -0.00578  -0.01634   1.68571
    D4       -0.74219  -0.00046   0.00529  -0.03100  -0.02566  -0.76785
    D5       -0.40411   0.00027  -0.00955  -0.00527  -0.01487  -0.41898
    D6       -2.84835  -0.00025   0.00625  -0.03049  -0.02419  -2.87254
    D7        2.23511  -0.00031   0.04181   0.00439   0.04623   2.28134
    D8       -1.90671  -0.00021   0.04507   0.00299   0.04806  -1.85865
    D9        0.11995  -0.00016   0.04698   0.00147   0.04848   0.16843
   D10       -1.57112   0.00019   0.02586   0.03000   0.05585  -1.51526
   D11        0.57024   0.00030   0.02913   0.02860   0.05768   0.62793
   D12        2.59691   0.00034   0.03103   0.02708   0.05811   2.65501
   D13       -1.05132  -0.00017   0.01803  -0.00355   0.01453  -1.03679
   D14        1.10760  -0.00009   0.01810  -0.00131   0.01683   1.12443
   D15        3.13281   0.00008   0.02001  -0.00161   0.01844  -3.13193
   D16        2.73796   0.00005   0.03488  -0.02463   0.01021   2.74817
   D17       -1.38630   0.00012   0.03495  -0.02240   0.01251  -1.37379
   D18        0.63890   0.00030   0.03687  -0.02269   0.01413   0.65303
   D19        3.11142   0.00014   0.01881   0.01863   0.03743  -3.13433
   D20       -1.08989  -0.00000   0.01593   0.01676   0.03268  -1.05721
   D21        1.02698   0.00036   0.02134   0.02018   0.04150   1.06849
   D22        1.03302  -0.00007   0.01198   0.02490   0.03686   1.06988
   D23        3.11489  -0.00021   0.00910   0.02302   0.03211  -3.13619
   D24       -1.05142   0.00015   0.01451   0.02644   0.04093  -1.01049
   D25       -1.11936   0.00002   0.01861   0.01285   0.03150  -1.08786
   D26        0.96251  -0.00012   0.01573   0.01098   0.02674   0.98926
   D27        3.07939   0.00024   0.02114   0.01440   0.03557   3.11496
   D28       -3.02178   0.00014  -0.00334   0.00797   0.00463  -3.01715
   D29       -0.95421   0.00005  -0.00338   0.00500   0.00162  -0.95259
   D30        1.18425   0.00022  -0.00207   0.00810   0.00603   1.19028
   D31        1.15941  -0.00010  -0.00744   0.01123   0.00377   1.16318
   D32       -3.05620  -0.00019  -0.00749   0.00825   0.00075  -3.05545
   D33       -0.91774  -0.00001  -0.00618   0.01135   0.00516  -0.91258
   D34       -0.97971  -0.00000  -0.00105  -0.00073  -0.00176  -0.98147
   D35        1.08787  -0.00010  -0.00109  -0.00370  -0.00478   1.08309
   D36       -3.05686   0.00008   0.00022  -0.00060  -0.00037  -3.05722
         Item               Value     Threshold  Converged?
 Maximum Force            0.001476     0.000450     NO 
 RMS     Force            0.000395     0.000300     NO 
 Maximum Displacement     0.164167     0.001800     NO 
 RMS     Displacement     0.038154     0.001200     NO 
 Predicted change in Energy=-7.814842D-05
 GradGradGradGradGradGradGradGradGradGradGradGradGradGradGradGradGradGrad

                          Input orientation:                          
 ---------------------------------------------------------------------
 Center     Atomic      Atomic             Coordinates (Angstroms)
 Number     Number       Type             X           Y           Z
 ---------------------------------------------------------------------
      1          5           0       -1.776223    0.667143   -0.192071
      2          9           0       -1.586762    1.642986   -1.159749
      3          9           0       -2.119110    1.203286    1.044885
      4          9           0       -2.665769   -0.309863   -0.616155
      5          8           0       -0.376282   -0.051112   -0.010084
      6          6           0       -0.345576   -1.503575    0.235717
      7          6           0        0.637361   -2.159525   -0.704500
      8          6           0        0.657686    0.665565    0.758462
      9          6           0        1.002100    1.998953    0.141425
     10          1           0       -0.084908   -1.641761    1.290612
     11          1           0       -1.363836   -1.854335    0.071988
     12          1           0        0.637362   -3.238756   -0.508355
     13          1           0        0.343578   -1.993191   -1.747520
     14          1           0        1.657384   -1.784655   -0.555365
     15          1           0        0.281942    0.759423    1.783407
     16          1           0        1.525464    0.001326    0.747788
     17          1           0        1.859673    2.398544    0.697122
     18          1           0        1.290927    1.880641   -0.908907
     19          1           0        0.178526    2.714886    0.213714
 ---------------------------------------------------------------------
                    Distance matrix (angstroms):
                    1          2          3          4          5
     1  B    0.000000
     2  F    1.387287   0.000000
     3  F    1.391071   2.310225   0.000000
     4  F    1.387688   2.296381   2.312468   0.000000
     5  O    1.583933   2.378436   2.392472   2.382440   0.000000
     6  C    2.634724   3.659059   3.335757   2.744800   1.473435
     7  C    3.752070   4.428664   4.686894   3.786783   2.440306
     8  C    2.612935   3.110053   2.842847   3.726443   1.474238
     9  C    3.099035   2.919242   3.345337   4.399751   2.475006
    10  H    3.223342   4.364561   3.506088   3.474270   2.075301
    11  H    2.568587   3.714582   3.296364   2.134002   2.057574
    12  H    4.602334   5.403929   5.453662   4.415961   3.381837
    13  H    3.740369   4.158542   4.907120   3.629015   2.703434
    14  H    4.234732   4.757992   5.074495   4.568190   2.727325
    15  H    2.854308   3.596513   2.550977   3.948451   2.075291
    16  H    3.496825   4.002461   3.849142   4.418553   2.047866
    17  H    4.124095   3.987074   4.168969   5.435052   3.391232
    18  H    3.375477   2.898362   3.988041   4.532047   2.705390
    19  H    2.859888   2.480245   2.873136   4.234123   2.829955
                    6          7          8          9         10
     6  C    0.000000
     7  C    1.510114   0.000000
     8  C    2.446419   3.181478   0.000000
     9  C    3.754040   4.259291   1.509065   0.000000
    10  H    1.095375   2.184084   2.481609   3.969510   0.000000
    11  H    1.089354   2.168148   3.302680   4.522200   1.779295
    12  H    2.128536   1.096910   4.104749   5.290447   2.511642
    13  H    2.155896   1.096296   3.667096   4.465308   3.088259
    14  H    2.171788   1.096911   2.954508   3.902640   2.542367
    15  H    2.812522   3.851786   1.095675   2.179717   2.478530
    16  H    2.455144   2.750844   1.092871   2.152231   2.363829
    17  H    4.505836   4.922864   2.109918   1.097227   4.523018
    18  H    3.929532   4.097788   2.158129   1.095726   4.374714
    19  H    4.250951   4.981318   2.173950   1.093646   4.495496
                   11         12         13         14         15
    11  H    0.000000
    12  H    2.501642   0.000000
    13  H    2.499030   1.781367   0.000000
    14  H    3.086454   1.776812   1.786283   0.000000
    15  H    3.531185   4.622113   4.477513   3.719412   0.000000
    16  H    3.499748   3.586746   3.406100   2.214800   1.787054
    17  H    5.372968   5.892909   5.249968   4.371362   2.521105
    18  H    4.686146   5.176467   4.075207   3.700497   3.086055
    19  H    4.824598   6.014796   5.102909   4.798372   2.509674
                   16         17         18         19
    16  H    0.000000
    17  H    2.420934   0.000000
    18  H    2.516241   1.780738   0.000000
    19  H    3.076180   1.777642   1.787088   0.000000
 Stoichiometry    C4H10BF3O
 Framework group  C1[X(C4H10BF3O)]
 Deg. of freedom    51
 Full point group                 C1      NOp   1
 Largest Abelian subgroup         C1      NOp   1
 Largest concise Abelian subgroup C1      NOp   1
                         Standard orientation:                         
 ---------------------------------------------------------------------
 Center     Atomic      Atomic             Coordinates (Angstroms)
 Number     Number       Type             X           Y           Z
 ---------------------------------------------------------------------
      1          5           0       -0.969569   -0.666364   -0.046489
      2          9           0       -1.621878   -0.172666   -1.166900
      3          9           0       -1.658485   -0.398555    1.131964
      4          9           0       -0.653941   -2.010318   -0.187360
      5          8           0        0.408311    0.110104    0.039470
      6          6           0        1.608605   -0.613641    0.493893
      7          6           0        2.746861   -0.368470   -0.467724
      8          6           0        0.373765    1.497847    0.535811
      9          6           0       -0.499448    2.384794   -0.317477
     10          1           0        1.824648   -0.264396    1.509373
     11          1           0        1.325241   -1.664806    0.531962
     12          1           0        3.625171   -0.921985   -0.113600
     13          1           0        2.488356   -0.726666   -1.471087
     14          1           0        3.012047    0.694418   -0.523947
     15          1           0        0.038771    1.452880    1.578050
     16          1           0        1.413174    1.833702    0.501224
     17          1           0       -0.364482    3.412107    0.043519
     18          1           0       -0.192655    2.340737   -1.368455
     19          1           0       -1.558879    2.125677   -0.236703
 ---------------------------------------------------------------------
 Rotational constants (GHZ):           1.7580931           1.4103172           1.0026641
 Standard basis: Aug-CC-pVDZ (5D, 7F)
 There are   315 symmetry adapted cartesian basis functions of A   symmetry.
 There are   297 symmetry adapted basis functions of A   symmetry.
   297 basis functions,   497 primitive gaussians,   315 cartesian basis functions
    37 alpha electrons       37 beta electrons
       nuclear repulsion energy       523.7587941166 Hartrees.
 NAtoms=   19 NActive=   19 NUniq=   19 SFac= 1.00D+00 NAtFMM=   60 NAOKFM=F Big=F
 Integral buffers will be    131072 words long.
 Raffenetti 2 integral format.
 Two-electron integral symmetry is turned on.
 Nuclear repulsion after empirical dispersion term =      523.7467460855 Hartrees.
 Force PCM accuracy= 1.00D-12.
 ------------------------------------------------------------------------------
 Polarizable Continuum Model (PCM)
 =================================
 Model                : C-PCM.
 Atomic radii         : UFF (Universal Force Field).
 Polarization charges : Total charges.
 Charge compensation  : None.
 Solution method      : On-the-fly selection.
 Cavity type          : Scaled VdW (van der Waals Surface) (Alpha=1.100).
 Cavity algorithm     : GePol (No added spheres)
                        Default sphere list used, NSphG=   19.
                        Lebedev-Laikov grids with approx.  5.0 points / Ang**2.
                        Smoothing algorithm: York/Karplus (Gamma=1.0000).
                        Polarization charges: spherical gaussians, with
                                              point-specific exponents (IZeta= 3).
                        Self-potential: point-specific (ISelfS= 7).
                        Self-field    : sphere-specific E.n sum rule (ISelfD= 2).
 1st derivatives      : Analytical E(r).r(x)/FMM algorithm (CHGder, D1EAlg=3).
                        Cavity 1st derivative terms included.
 Solvent              : Water, Eps=  78.355300 Eps(inf)=   1.777849
 ------------------------------------------------------------------------------
 Spheres list:
 ISph  on   Nord     Re0    Alpha      Xe            Ye            Ze
    1   B      1    2.0415  1.100     -0.969569     -0.666364     -0.046489
    2   F      2    1.6820  1.100     -1.621878     -0.172666     -1.166900
    3   F      3    1.6820  1.100     -1.658485     -0.398555      1.131964
    4   F      4    1.6820  1.100     -0.653941     -2.010318     -0.187360
    5   O      5    1.7500  1.100      0.408311      0.110104      0.039470
    6   C      6    1.9255  1.100      1.608605     -0.613641      0.493893
    7   C      7    1.9255  1.100      2.746861     -0.368470     -0.467724
    8   C      8    1.9255  1.100      0.373765      1.497847      0.535811
    9   C      9    1.9255  1.100     -0.499448      2.384794     -0.317477
   10   H     10    1.4430  1.100      1.824648     -0.264396      1.509373
   11   H     11    1.4430  1.100      1.325241     -1.664806      0.531962
   12   H     12    1.4430  1.100      3.625171     -0.921985     -0.113600
   13   H     13    1.4430  1.100      2.488356     -0.726666     -1.471087
   14   H     14    1.4430  1.100      3.012047      0.694418     -0.523947
   15   H     15    1.4430  1.100      0.038771      1.452880      1.578050
   16   H     16    1.4430  1.100      1.413174      1.833702      0.501224
   17   H     17    1.4430  1.100     -0.364482      3.412107      0.043519
   18   H     18    1.4430  1.100     -0.192655      2.340737     -1.368455
   19   H     19    1.4430  1.100     -1.558879      2.125677     -0.236703
 ------------------------------------------------------------------------------
 One-electron integrals computed using PRISM.
 NBasis=   297 RedAO= T EigKep=  2.68D-05  NBF=   297
 NBsUse=   297 1.00D-06 EigRej= -1.00D+00 NBFU=   297
 Initial guess from the checkpoint file:  "/inspire/hdd/project/materialscienceresearch/lipenghui-253107030018/g16/00-B-DFT-Shift/04-output/BF3OEt2_D2O/BF3OEt2_D2O.chk"
 B after Tr=    -0.000000    0.000000   -0.000000
         Rot=    0.999973   -0.005761   -0.001888    0.004260 Ang=  -0.85 deg.
 ExpMin= 2.38D-02 ExpMax= 1.47D+04 ExpMxC= 5.03D+02 IAcc=3 IRadAn=         5 AccDes= 0.00D+00
 Harris functional with IExCor= 4639 and IRadAn=       5 diagonalized for initial guess.
 HarFok:  IExCor= 4639 AccDes= 0.00D+00 IRadAn=         5 IDoV= 1 UseB2=F ITyADJ=14
 ICtDFT=  3500011 ScaDFX=  1.000000  1.000000  1.000000  1.000000
 FoFCou: FMM=F IPFlag=           0 FMFlag=      100000 FMFlg1=           0
         NFxFlg=           0 DoJE=T BraDBF=F KetDBF=T FulRan=T
         wScrn=  0.000000 ICntrl=       500 IOpCl=  0 I1Cent=   200000004 NGrid=           0
         NMat0=    1 NMatS0=      1 NMatT0=    0 NMatD0=    1 NMtDS0=    0 NMtDT0=    0
 Petite list used in FoFCou.
 Requested convergence on RMS density matrix=1.00D-08 within 128 cycles.
 Requested convergence on MAX density matrix=1.00D-06.
 Requested convergence on             energy=1.00D-06.
 No special actions if energy rises.
 Inv3:  Mode=1 IEnd=     6949452.
 Iteration    1 A*A^-1 deviation from unit magnitude is 3.66D-15 for   1505.
 Iteration    1 A*A^-1 deviation from orthogonality  is 2.63D-15 for   1507   1255.
 Iteration    1 A^-1*A deviation from unit magnitude is 3.66D-15 for   1505.
 Iteration    1 A^-1*A deviation from orthogonality  is 1.67D-15 for   1487    701.
 Error on total polarization charges =  0.01127
 SCF Done:  E(RwB97XD) =  -558.152269806     A.U. after   11 cycles
            NFock= 11  Conv=0.23D-08     -V/T= 2.0060
 D1PCM: C-PCM CHGder 1st derivatives, ID1Alg=3 FixD1E=F DoIter=F DoCFld=F I1PDM=0.
 Calling FoFJK, ICntrl=      2127 FMM=F ISym2X=0 I1Cent= 0 IOpClX= 0 NMat=1 NMatS=1 NMatT=0.
 ***** Axes restored to original set *****
 -------------------------------------------------------------------
 Center     Atomic                   Forces (Hartrees/Bohr)
 Number     Number              X              Y              Z
 -------------------------------------------------------------------
      1        5          -0.000798079    0.000554289   -0.000428384
      2        9          -0.000009185   -0.000147755    0.000046859
      3        9           0.000093256   -0.000106518    0.000025659
      4        9          -0.000168380    0.000253584   -0.000036210
      5        8           0.000740648   -0.000233235    0.000744282
      6        6           0.000336545    0.000666487    0.000103152
      7        6          -0.000164885    0.000520439   -0.000201041
      8        6          -0.000759929   -0.000947815   -0.000435859
      9        6          -0.000075751   -0.000337622   -0.000012135
     10        1           0.000175507    0.000063535    0.000207015
     11        1           0.000216528   -0.000070692   -0.000202578
     12        1           0.000180274   -0.000169582    0.000130801
     13        1          -0.000140852   -0.000046627    0.000057421
     14        1           0.000158467   -0.000563197   -0.000247254
     15        1          -0.000044787    0.000095573    0.000026436
     16        1           0.000127500    0.000163354    0.000173922
     17        1           0.000061565    0.000157987    0.000005306
     18        1           0.000111651    0.000034621   -0.000043342
     19        1          -0.000040093    0.000113174    0.000085949
 -------------------------------------------------------------------
 Cartesian Forces:  Max     0.000947815 RMS     0.000322939

 GradGradGradGradGradGradGradGradGradGradGradGradGradGradGradGradGradGrad
 Berny optimization.
 Using GEDIIS/GDIIS optimizer.
 FormGI is forming the generalized inverse of G from B-inverse, IUseBI=4.
 Internal  Forces:  Max     0.001075784 RMS     0.000283398
 Search for a local minimum.
 Step number  13 out of a maximum of   97
 All quantities printed in internal units (Hartrees-Bohrs-Radians)
 Mixed Optimization -- En-DIIS/RFO-DIIS
 Swapping is turned off.
 Update second derivatives using D2CorX and points   10   11   12   13
 DE= -1.95D-05 DEPred=-7.81D-05 R= 2.50D-01
 Trust test= 2.50D-01 RLast= 1.82D-01 DXMaxT set to 1.30D+00
 ITU=  0  1  1  1  1  1  1  1  1  1  1  1  0
     Eigenvalues ---    0.00199   0.00287   0.00364   0.01231   0.01462
     Eigenvalues ---    0.01957   0.04494   0.04941   0.05069   0.05284
     Eigenvalues ---    0.05395   0.05660   0.05779   0.05907   0.08527
     Eigenvalues ---    0.09673   0.10727   0.12701   0.12778   0.12903
     Eigenvalues ---    0.13283   0.15994   0.16001   0.16019   0.16051
     Eigenvalues ---    0.16561   0.17029   0.21300   0.22252   0.25035
     Eigenvalues ---    0.25261   0.26294   0.28316   0.28351   0.28601
     Eigenvalues ---    0.29035   0.30406   0.31889   0.31957   0.32066
     Eigenvalues ---    0.32108   0.32154   0.32176   0.32215   0.32430
     Eigenvalues ---    0.32908   0.33714   0.37632   0.38100   0.42495
     Eigenvalues ---    0.53975
 En-DIIS/RFO-DIIS/Sim-DIIS IScMMF=       -3 using points:    13   12   11
 RFO step:  Lambda=-7.73428040D-05.
 DidBck=T Rises=F RFO-DIIS coefs:    0.61116    0.51740   -0.12856
 Iteration  1 RMS(Cart)=  0.02654245 RMS(Int)=  0.00032827
 Iteration  2 RMS(Cart)=  0.00040692 RMS(Int)=  0.00001986
 Iteration  3 RMS(Cart)=  0.00000008 RMS(Int)=  0.00001986
 Variable       Old X    -DE/DX   Delta X   Delta X   Delta X     New X
                                 (Linear)    (Quad)   (Total)
    R1        2.62159  -0.00014   0.00003  -0.00103  -0.00100   2.62059
    R2        2.62874  -0.00004  -0.00088  -0.00026  -0.00114   2.62760
    R3        2.62235  -0.00006  -0.00024  -0.00089  -0.00113   2.62122
    R4        2.99320   0.00108   0.00173   0.00782   0.00955   3.00275
    R5        2.78439  -0.00040  -0.00196  -0.00081  -0.00277   2.78162
    R6        2.78591  -0.00089  -0.00132  -0.00181  -0.00314   2.78277
    R7        2.85370   0.00029   0.00002   0.00036   0.00038   2.85408
    R8        2.06996   0.00023  -0.00012   0.00022   0.00009   2.07005
    R9        2.05858  -0.00015  -0.00011   0.00036   0.00025   2.05883
   R10        2.07286   0.00019  -0.00035   0.00077   0.00041   2.07327
   R11        2.07170  -0.00003   0.00004  -0.00005  -0.00001   2.07169
   R12        2.07286  -0.00008   0.00064  -0.00032   0.00032   2.07318
   R13        2.85172  -0.00003  -0.00056   0.00085   0.00029   2.85201
   R14        2.07053   0.00005  -0.00002   0.00019   0.00018   2.07071
   R15        2.06523  -0.00000   0.00066   0.00001   0.00068   2.06590
   R16        2.07346   0.00011  -0.00020   0.00037   0.00017   2.07362
   R17        2.07062   0.00007   0.00001   0.00023   0.00025   2.07087
   R18        2.06669   0.00011  -0.00004   0.00040   0.00036   2.06705
    A1        1.96363   0.00012  -0.00082   0.00233   0.00148   1.96511
    A2        1.94940  -0.00020   0.00106   0.00032   0.00137   1.95076
    A3        1.85294  -0.00011  -0.00067  -0.00151  -0.00219   1.85074
    A4        1.96611  -0.00010   0.00126   0.00026   0.00151   1.96761
    A5        1.86551  -0.00032  -0.00022  -0.00171  -0.00195   1.86356
    A6        1.85711   0.00064  -0.00073  -0.00007  -0.00081   1.85630
    A7        2.07670   0.00082   0.00495   0.00034   0.00522   2.08191
    A8        2.04805  -0.00022  -0.00103   0.00166   0.00054   2.04859
    A9        1.95803  -0.00059  -0.00155   0.00103  -0.00063   1.95741
   A10        1.91547   0.00066  -0.00377   0.00224  -0.00153   1.91394
   A11        1.86500  -0.00031  -0.00046   0.00065   0.00019   1.86519
   A12        1.84715  -0.00007   0.00238   0.00057   0.00297   1.85012
   A13        1.97133   0.00008   0.00048  -0.00022   0.00023   1.97156
   A14        1.95517  -0.00056   0.00297  -0.00404  -0.00108   1.95409
   A15        1.90346   0.00021  -0.00158   0.00108  -0.00054   1.90293
   A16        1.89235  -0.00010   0.00225  -0.00101   0.00124   1.89359
   A17        1.93053  -0.00027   0.00053  -0.00124  -0.00071   1.92982
   A18        1.95215   0.00088  -0.00424   0.00479   0.00056   1.95271
   A19        1.89590   0.00007   0.00103  -0.00062   0.00041   1.89631
   A20        1.88802  -0.00045   0.00298  -0.00403  -0.00105   1.88697
   A21        1.90360  -0.00015  -0.00233   0.00188  -0.00045   1.90315
   A22        1.95676  -0.00008  -0.00197   0.00104  -0.00093   1.95583
   A23        1.86376  -0.00002  -0.00077   0.00180   0.00103   1.86479
   A24        1.83003   0.00025   0.00113   0.00058   0.00171   1.83174
   A25        1.96608  -0.00001   0.00070  -0.00122  -0.00053   1.96555
   A26        1.93031  -0.00012   0.00220  -0.00255  -0.00035   1.92996
   A27        1.91081  -0.00001  -0.00134   0.00062  -0.00074   1.91007
   A28        1.86825   0.00015   0.00011   0.00159   0.00171   1.86995
   A29        1.93553   0.00006  -0.00066   0.00059  -0.00007   1.93546
   A30        1.96008  -0.00001  -0.00138   0.00097  -0.00040   1.95967
   A31        1.89524  -0.00011   0.00124  -0.00154  -0.00030   1.89494
   A32        1.89304  -0.00011   0.00143  -0.00229  -0.00086   1.89217
   A33        1.90980   0.00001  -0.00058   0.00052  -0.00006   1.90974
    D1       -2.49786  -0.00017   0.00897   0.00361   0.01261  -2.48525
    D2        1.33177   0.00006   0.00648  -0.00131   0.00514   1.33691
    D3        1.68571  -0.00008   0.01043   0.00257   0.01302   1.69872
    D4       -0.76785   0.00015   0.00793  -0.00236   0.00555  -0.76230
    D5       -0.41898  -0.00013   0.00948   0.00320   0.01270  -0.40628
    D6       -2.87254   0.00010   0.00698  -0.00173   0.00523  -2.86731
    D7        2.28134  -0.00036  -0.03416  -0.00836  -0.04253   2.23881
    D8       -1.85865  -0.00006  -0.03614  -0.00690  -0.04304  -1.90169
    D9        0.16843  -0.00000  -0.03704  -0.00510  -0.04215   0.12628
   D10       -1.51526  -0.00047  -0.03173  -0.00342  -0.03515  -1.55041
   D11        0.62793  -0.00018  -0.03371  -0.00196  -0.03565   0.59228
   D12        2.65501  -0.00012  -0.03461  -0.00015  -0.03476   2.62025
   D13       -1.03679   0.00012  -0.01263   0.00433  -0.00831  -1.04510
   D14        1.12443   0.00005  -0.01355   0.00471  -0.00885   1.11558
   D15       -3.13193   0.00015  -0.01492   0.00649  -0.00844  -3.14038
   D16        2.74817  -0.00019  -0.01748   0.00001  -0.01746   2.73071
   D17       -1.37379  -0.00027  -0.01840   0.00039  -0.01800  -1.39179
   D18        0.65303  -0.00016  -0.01977   0.00217  -0.01759   0.63544
   D19       -3.13433   0.00004  -0.02184   0.00430  -0.01754   3.13132
   D20       -1.05721  -0.00009  -0.01887   0.00219  -0.01669  -1.07390
   D21        1.06849   0.00013  -0.02440   0.00703  -0.01738   1.05111
   D22        1.06988  -0.00006  -0.01897   0.00208  -0.01688   1.05300
   D23       -3.13619  -0.00020  -0.01601  -0.00003  -0.01603   3.13097
   D24       -1.01049   0.00002  -0.02154   0.00481  -0.01672  -1.02720
   D25       -1.08786   0.00004  -0.01945   0.00396  -0.01550  -1.10336
   D26        0.98926  -0.00010  -0.01649   0.00185  -0.01465   0.97461
   D27        3.11496   0.00012  -0.02202   0.00669  -0.01534   3.09962
   D28       -3.01715  -0.00011  -0.00051  -0.00167  -0.00219  -3.01933
   D29       -0.95259  -0.00012   0.00068  -0.00224  -0.00156  -0.95415
   D30        1.19028  -0.00006  -0.00154  -0.00044  -0.00198   1.18830
   D31        1.16318  -0.00003   0.00142  -0.00389  -0.00247   1.16071
   D32       -3.05545  -0.00003   0.00261  -0.00446  -0.00185  -3.05730
   D33       -0.91258   0.00002   0.00038  -0.00266  -0.00227  -0.91485
   D34       -0.98147   0.00007   0.00109  -0.00195  -0.00087  -0.98233
   D35        1.08309   0.00007   0.00228  -0.00252  -0.00024   1.08285
   D36       -3.05722   0.00012   0.00006  -0.00071  -0.00066  -3.05789
         Item               Value     Threshold  Converged?
 Maximum Force            0.001076     0.000450     NO 
 RMS     Force            0.000283     0.000300     YES
 Maximum Displacement     0.110205     0.001800     NO 
 RMS     Displacement     0.026563     0.001200     NO 
 Predicted change in Energy=-3.866770D-05
 GradGradGradGradGradGradGradGradGradGradGradGradGradGradGradGradGradGrad

                          Input orientation:                          
 ---------------------------------------------------------------------
 Center     Atomic      Atomic             Coordinates (Angstroms)
 Number     Number       Type             X           Y           Z
 ---------------------------------------------------------------------
      1          5           0       -1.775885    0.664420   -0.202687
      2          9           0       -1.575828    1.629435   -1.178302
      3          9           0       -2.128490    1.211912    1.025859
      4          9           0       -2.658830   -0.318564   -0.624788
      5          8           0       -0.372249   -0.052111    0.000464
      6          6           0       -0.333284   -1.503009    0.245552
      7          6           0        0.624549   -2.156307   -0.722334
      8          6           0        0.650491    0.669667    0.776047
      9          6           0        1.007341    1.994967    0.148372
     10          1           0       -0.042890   -1.640773    1.292762
     11          1           0       -1.354412   -1.857997    0.110422
     12          1           0        0.646761   -3.233674   -0.516231
     13          1           0        0.291717   -2.003835   -1.755693
     14          1           0        1.644507   -1.767121   -0.613683
     15          1           0        0.259770    0.777155    1.794131
     16          1           0        1.517640    0.004033    0.787527
     17          1           0        1.855950    2.401954    0.712573
     18          1           0        1.313326    1.863191   -0.895616
     19          1           0        0.183354    2.712640    0.198040
 ---------------------------------------------------------------------
                    Distance matrix (angstroms):
                    1          2          3          4          5
     1  B    0.000000
     2  F    1.386759   0.000000
     3  F    1.390468   2.310429   0.000000
     4  F    1.387090   2.296513   2.312629   0.000000
     5  O    1.588988   2.380270   2.394488   2.385454   0.000000
     6  C    2.641925   3.658344   3.347005   2.751103   1.471969
     7  C    3.740136   4.402431   4.688315   3.763959   2.437967
     8  C    2.616343   3.114021   2.842388   3.727002   1.472579
     9  C    3.104827   2.926848   3.349118   4.403523   2.472989
    10  H    3.248624   4.376107   3.543837   3.502625   2.074213
    11  H    2.576483   3.724516   3.295689   2.147533   2.058631
    12  H    4.600289   5.387770   5.462902   4.408694   3.380488
    13  H    3.715695   4.125743   4.892388   3.581174   2.708166
    14  H    4.216681   4.714440   5.079197   4.540612   2.717672
    15  H    2.853749   3.595991   2.546181   3.945883   2.074697
    16  H    3.501992   4.009483   3.848381   4.420589   2.047999
    17  H    4.128796   3.993657   4.170145   5.438106   3.390340
    18  H    3.385325   2.912346   3.995287   4.539981   2.704163
    19  H    2.862587   2.482413   2.877862   4.235948   2.826937
                    6          7          8          9         10
     6  C    0.000000
     7  C    1.510313   0.000000
     8  C    2.443310   3.198741   0.000000
     9  C    3.747340   4.258841   1.509217   0.000000
    10  H    1.095425   2.184459   2.466963   3.953634   0.000000
    11  H    1.089485   2.167661   3.294204   4.519364   1.779102
    12  H    2.129789   1.097129   4.111699   5.283029   2.507071
    13  H    2.155559   1.096291   3.699465   4.486424   3.088179
    14  H    2.172487   1.097081   2.976131   3.891017   2.549079
    15  H    2.819390   3.882120   1.095770   2.179553   2.487841
    16  H    2.447618   2.782869   1.093229   2.152381   2.322908
    17  H    4.501066   4.934881   2.111392   1.097314   4.503982
    18  H    3.917256   4.081764   2.158310   1.095857   4.348112
    19  H    4.247454   4.974774   2.173946   1.093835   4.494642
                   11         12         13         14         15
    11  H    0.000000
    12  H    2.507962   0.000000
    13  H    2.492668   1.781804   0.000000
    14  H    3.086438   1.776449   1.786130   0.000000
    15  H    3.519160   4.644812   4.509565   3.766750   0.000000
    16  H    3.489170   3.597354   3.464446   2.261961   1.786955
    17  H    5.368072   5.893420   5.286789   4.380052   2.521415
    18  H    4.687875   5.154248   4.091125   3.656273   3.086129
    19  H    4.823186   6.006960   5.106266   4.781435   2.509869
                   16         17         18         19
    16  H    0.000000
    17  H    2.422829   0.000000
    18  H    2.516184   1.780725   0.000000
    19  H    3.076421   1.777314   1.787311   0.000000
 Stoichiometry    C4H10BF3O
 Framework group  C1[X(C4H10BF3O)]
 Deg. of freedom    51
 Full point group                 C1      NOp   1
 Largest Abelian subgroup         C1      NOp   1
 Largest concise Abelian subgroup C1      NOp   1
                         Standard orientation:                         
 ---------------------------------------------------------------------
 Center     Atomic      Atomic             Coordinates (Angstroms)
 Number     Number       Type             X           Y           Z
 ---------------------------------------------------------------------
      1          5           0       -0.965453   -0.674293   -0.046749
      2          9           0       -1.605525   -0.192541   -1.178705
      3          9           0       -1.669467   -0.403012    1.121229
      4          9           0       -0.634833   -2.015363   -0.174191
      5          8           0        0.408437    0.117962    0.051429
      6          6           0        1.615879   -0.588560    0.509254
      7          6           0        2.737248   -0.371081   -0.478815
      8          6           0        0.356601    1.504957    0.543412
      9          6           0       -0.507228    2.383621   -0.328072
     10          1           0        1.847563   -0.206670    1.509473
     11          1           0        1.338249   -1.639301    0.585691
     12          1           0        3.628991   -0.896074   -0.114302
     13          1           0        2.468888   -0.776489   -1.461405
     14          1           0        2.987182    0.691737   -0.586222
     15          1           0        0.003028    1.461298    1.579651
     16          1           0        1.394180    1.848930    0.527203
     17          1           0       -0.388563    3.413236    0.032356
     18          1           0       -0.180314    2.339798   -1.373113
     19          1           0       -1.566024    2.115930   -0.266690
 ---------------------------------------------------------------------
 Rotational constants (GHZ):           1.7512731           1.4129425           1.0043365
 Standard basis: Aug-CC-pVDZ (5D, 7F)
 There are   315 symmetry adapted cartesian basis functions of A   symmetry.
 There are   297 symmetry adapted basis functions of A   symmetry.
   297 basis functions,   497 primitive gaussians,   315 cartesian basis functions
    37 alpha electrons       37 beta electrons
       nuclear repulsion energy       523.6433886594 Hartrees.
 NAtoms=   19 NActive=   19 NUniq=   19 SFac= 1.00D+00 NAtFMM=   60 NAOKFM=F Big=F
 Integral buffers will be    131072 words long.
 Raffenetti 2 integral format.
 Two-electron integral symmetry is turned on.
 Nuclear repulsion after empirical dispersion term =      523.6313318421 Hartrees.
 Force PCM accuracy= 1.00D-12.
 ------------------------------------------------------------------------------
 Polarizable Continuum Model (PCM)
 =================================
 Model                : C-PCM.
 Atomic radii         : UFF (Universal Force Field).
 Polarization charges : Total charges.
 Charge compensation  : None.
 Solution method      : On-the-fly selection.
 Cavity type          : Scaled VdW (van der Waals Surface) (Alpha=1.100).
 Cavity algorithm     : GePol (No added spheres)
                        Default sphere list used, NSphG=   19.
                        Lebedev-Laikov grids with approx.  5.0 points / Ang**2.
                        Smoothing algorithm: York/Karplus (Gamma=1.0000).
                        Polarization charges: spherical gaussians, with
                                              point-specific exponents (IZeta= 3).
                        Self-potential: point-specific (ISelfS= 7).
                        Self-field    : sphere-specific E.n sum rule (ISelfD= 2).
 1st derivatives      : Analytical E(r).r(x)/FMM algorithm (CHGder, D1EAlg=3).
                        Cavity 1st derivative terms included.
 Solvent              : Water, Eps=  78.355300 Eps(inf)=   1.777849
 ------------------------------------------------------------------------------
 Spheres list:
 ISph  on   Nord     Re0    Alpha      Xe            Ye            Ze
    1   B      1    2.0415  1.100     -0.965453     -0.674293     -0.046749
    2   F      2    1.6820  1.100     -1.605525     -0.192541     -1.178705
    3   F      3    1.6820  1.100     -1.669467     -0.403012      1.121229
    4   F      4    1.6820  1.100     -0.634833     -2.015363     -0.174191
    5   O      5    1.7500  1.100      0.408437      0.117962      0.051429
    6   C      6    1.9255  1.100      1.615879     -0.588560      0.509254
    7   C      7    1.9255  1.100      2.737248     -0.371081     -0.478815
    8   C      8    1.9255  1.100      0.356601      1.504957      0.543412
    9   C      9    1.9255  1.100     -0.507228      2.383621     -0.328072
   10   H     10    1.4430  1.100      1.847563     -0.206670      1.509473
   11   H     11    1.4430  1.100      1.338249     -1.639301      0.585691
   12   H     12    1.4430  1.100      3.628991     -0.896074     -0.114302
   13   H     13    1.4430  1.100      2.468888     -0.776489     -1.461405
   14   H     14    1.4430  1.100      2.987182      0.691737     -0.586222
   15   H     15    1.4430  1.100      0.003028      1.461298      1.579651
   16   H     16    1.4430  1.100      1.394180      1.848930      0.527203
   17   H     17    1.4430  1.100     -0.388563      3.413236      0.032356
   18   H     18    1.4430  1.100     -0.180314      2.339798     -1.373113
   19   H     19    1.4430  1.100     -1.566024      2.115930     -0.266690
 ------------------------------------------------------------------------------
 One-electron integrals computed using PRISM.
 NBasis=   297 RedAO= T EigKep=  2.73D-05  NBF=   297
 NBsUse=   297 1.00D-06 EigRej= -1.00D+00 NBFU=   297
 Initial guess from the checkpoint file:  "/inspire/hdd/project/materialscienceresearch/lipenghui-253107030018/g16/00-B-DFT-Shift/04-output/BF3OEt2_D2O/BF3OEt2_D2O.chk"
 B after Tr=     0.000000    0.000000   -0.000000
         Rot=    0.999990    0.002984    0.001542   -0.002858 Ang=   0.51 deg.
 ExpMin= 2.38D-02 ExpMax= 1.47D+04 ExpMxC= 5.03D+02 IAcc=3 IRadAn=         5 AccDes= 0.00D+00
 Harris functional with IExCor= 4639 and IRadAn=       5 diagonalized for initial guess.
 HarFok:  IExCor= 4639 AccDes= 0.00D+00 IRadAn=         5 IDoV= 1 UseB2=F ITyADJ=14
 ICtDFT=  3500011 ScaDFX=  1.000000  1.000000  1.000000  1.000000
 FoFCou: FMM=F IPFlag=           0 FMFlag=      100000 FMFlg1=           0
         NFxFlg=           0 DoJE=T BraDBF=F KetDBF=T FulRan=T
         wScrn=  0.000000 ICntrl=       500 IOpCl=  0 I1Cent=   200000004 NGrid=           0
         NMat0=    1 NMatS0=      1 NMatT0=    0 NMatD0=    1 NMtDS0=    0 NMtDT0=    0
 Petite list used in FoFCou.
 Requested convergence on RMS density matrix=1.00D-08 within 128 cycles.
 Requested convergence on MAX density matrix=1.00D-06.
 Requested convergence on             energy=1.00D-06.
 No special actions if energy rises.
 Inv3:  Mode=1 IEnd=     6976875.
 Iteration    1 A*A^-1 deviation from unit magnitude is 4.00D-15 for   1509.
 Iteration    1 A*A^-1 deviation from orthogonality  is 2.27D-15 for   1496   1027.
 Iteration    1 A^-1*A deviation from unit magnitude is 4.66D-15 for   1509.
 Iteration    1 A^-1*A deviation from orthogonality  is 3.31D-15 for   1489    707.
 Error on total polarization charges =  0.01129
 SCF Done:  E(RwB97XD) =  -558.152312108     A.U. after   10 cycles
            NFock= 10  Conv=0.66D-08     -V/T= 2.0060
 D1PCM: C-PCM CHGder 1st derivatives, ID1Alg=3 FixD1E=F DoIter=F DoCFld=F I1PDM=0.
 Calling FoFJK, ICntrl=      2127 FMM=F ISym2X=0 I1Cent= 0 IOpClX= 0 NMat=1 NMatS=1 NMatT=0.
 ***** Axes restored to original set *****
 -------------------------------------------------------------------
 Center     Atomic                   Forces (Hartrees/Bohr)
 Number     Number              X              Y              Z
 -------------------------------------------------------------------
      1        5          -0.000005013    0.000045504   -0.000332274
      2        9          -0.000062718   -0.000094304    0.000049344
      3        9           0.000085340   -0.000083951   -0.000019739
      4        9           0.000041114    0.000068071    0.000040362
      5        8          -0.000083704    0.000227682    0.000722842
      6        6           0.000135741    0.000144380   -0.000078108
      7        6          -0.000095999    0.000242554   -0.000118586
      8        6          -0.000188749   -0.000397763   -0.000303755
      9        6          -0.000095256   -0.000148788    0.000005943
     10        1           0.000072667    0.000030091    0.000041892
     11        1           0.000051359    0.000009560   -0.000118319
     12        1           0.000054335   -0.000079534    0.000034444
     13        1          -0.000058512   -0.000030099    0.000030704
     14        1           0.000027493   -0.000259673    0.000005262
     15        1          -0.000009964    0.000048764   -0.000003484
     16        1           0.000023445    0.000156205   -0.000034807
     17        1           0.000020138    0.000055686    0.000013191
     18        1           0.000042172    0.000013240    0.000003268
     19        1           0.000046110    0.000052374    0.000061822
 -------------------------------------------------------------------
 Cartesian Forces:  Max     0.000722842 RMS     0.000152651

 GradGradGradGradGradGradGradGradGradGradGradGradGradGradGradGradGradGrad
 Berny optimization.
 Using GEDIIS/GDIIS optimizer.
 FormGI is forming the generalized inverse of G from B-inverse, IUseBI=4.
 Internal  Forces:  Max     0.000421826 RMS     0.000095925
 Search for a local minimum.
 Step number  14 out of a maximum of   97
 All quantities printed in internal units (Hartrees-Bohrs-Radians)
 Mixed Optimization -- En-DIIS/RFO-DIIS
 Swapping is turned off.
 Update second derivatives using D2CorX and points   10   11   12   13   14
 DE= -4.23D-05 DEPred=-3.87D-05 R= 1.09D+00
 TightC=F SS=  1.41D+00  RLast= 1.16D-01 DXNew= 2.1910D+00 3.4849D-01
 Trust test= 1.09D+00 RLast= 1.16D-01 DXMaxT set to 1.30D+00
 ITU=  1  0  1  1  1  1  1  1  1  1  1  1  1  0
     Eigenvalues ---    0.00229   0.00290   0.00349   0.01267   0.01439
     Eigenvalues ---    0.01906   0.04496   0.04979   0.05068   0.05253
     Eigenvalues ---    0.05360   0.05399   0.05768   0.05895   0.08401
     Eigenvalues ---    0.09658   0.10727   0.12592   0.12809   0.12893
     Eigenvalues ---    0.13288   0.15944   0.15997   0.16002   0.16051
     Eigenvalues ---    0.16538   0.16575   0.21241   0.22286   0.24354
     Eigenvalues ---    0.25259   0.25521   0.28339   0.28392   0.28712
     Eigenvalues ---    0.28894   0.30498   0.31870   0.31954   0.32058
     Eigenvalues ---    0.32105   0.32151   0.32169   0.32218   0.32409
     Eigenvalues ---    0.32744   0.33537   0.37420   0.38337   0.42710
     Eigenvalues ---    0.53792
 En-DIIS/RFO-DIIS/Sim-DIIS IScMMF=       -3 using points:    14   13   12   11
 RFO step:  Lambda=-9.08311517D-06.
 DidBck=F Rises=F RFO-DIIS coefs:    1.86668   -0.49258   -0.42512    0.05102
 Iteration  1 RMS(Cart)=  0.00652082 RMS(Int)=  0.00001827
 Iteration  2 RMS(Cart)=  0.00002819 RMS(Int)=  0.00000422
 Iteration  3 RMS(Cart)=  0.00000000 RMS(Int)=  0.00000422
 Variable       Old X    -DE/DX   Delta X   Delta X   Delta X     New X
                                 (Linear)    (Quad)   (Total)
    R1        2.62059  -0.00011  -0.00035  -0.00014  -0.00049   2.62010
    R2        2.62760  -0.00008   0.00032  -0.00070  -0.00038   2.62723
    R3        2.62122  -0.00008  -0.00029  -0.00000  -0.00030   2.62092
    R4        3.00275  -0.00005   0.00163  -0.00053   0.00110   3.00385
    R5        2.78162  -0.00008   0.00045  -0.00103  -0.00058   2.78103
    R6        2.78277  -0.00036  -0.00016  -0.00138  -0.00154   2.78123
    R7        2.85408   0.00004   0.00000  -0.00028  -0.00028   2.85379
    R8        2.07005   0.00006   0.00000   0.00007   0.00008   2.07013
    R9        2.05883  -0.00004   0.00018  -0.00017   0.00001   2.05884
   R10        2.07327   0.00009   0.00053  -0.00001   0.00052   2.07380
   R11        2.07169  -0.00002  -0.00011   0.00007  -0.00004   2.07165
   R12        2.07318  -0.00006  -0.00030   0.00022  -0.00007   2.07311
   R13        2.85201  -0.00005   0.00046  -0.00079  -0.00033   2.85168
   R14        2.07071   0.00001   0.00000   0.00005   0.00005   2.07076
   R15        2.06590  -0.00008  -0.00015   0.00017   0.00002   2.06592
   R16        2.07362   0.00004   0.00026  -0.00000   0.00025   2.07388
   R17        2.07087   0.00001   0.00011  -0.00004   0.00007   2.07094
   R18        2.06705   0.00000   0.00021  -0.00012   0.00008   2.06713
    A1        1.96511   0.00006   0.00087  -0.00018   0.00069   1.96581
    A2        1.95076  -0.00004  -0.00033   0.00064   0.00032   1.95108
    A3        1.85074   0.00011  -0.00013   0.00063   0.00050   1.85124
    A4        1.96761   0.00003  -0.00029   0.00055   0.00026   1.96787
    A5        1.86356  -0.00019  -0.00055  -0.00103  -0.00157   1.86199
    A6        1.85630   0.00003   0.00037  -0.00073  -0.00036   1.85594
    A7        2.08191  -0.00006   0.00118   0.00037   0.00155   2.08346
    A8        2.04859   0.00012   0.00224   0.00079   0.00304   2.05163
    A9        1.95741  -0.00003   0.00116  -0.00044   0.00073   1.95813
   A10        1.91394   0.00042   0.00111   0.00003   0.00114   1.91508
   A11        1.86519  -0.00014  -0.00012  -0.00022  -0.00033   1.86485
   A12        1.85012  -0.00015   0.00015  -0.00058  -0.00044   1.84968
   A13        1.97156  -0.00004   0.00012   0.00030   0.00044   1.97199
   A14        1.95409  -0.00022  -0.00223   0.00040  -0.00182   1.95227
   A15        1.90293   0.00012   0.00105  -0.00002   0.00104   1.90397
   A16        1.89359  -0.00004  -0.00072  -0.00008  -0.00080   1.89280
   A17        1.92982  -0.00007  -0.00093   0.00085  -0.00009   1.92974
   A18        1.95271   0.00025   0.00330  -0.00175   0.00155   1.95426
   A19        1.89631   0.00001  -0.00040   0.00008  -0.00033   1.89598
   A20        1.88697  -0.00016  -0.00291   0.00106  -0.00185   1.88512
   A21        1.90315   0.00000   0.00150  -0.00010   0.00140   1.90455
   A22        1.95583   0.00010   0.00074  -0.00030   0.00044   1.95627
   A23        1.86479  -0.00002   0.00079  -0.00083  -0.00004   1.86475
   A24        1.83174   0.00006  -0.00029   0.00111   0.00082   1.83256
   A25        1.96555  -0.00007  -0.00049  -0.00052  -0.00101   1.96454
   A26        1.92996  -0.00010  -0.00156   0.00075  -0.00081   1.92915
   A27        1.91007   0.00005   0.00090  -0.00015   0.00076   1.91083
   A28        1.86995   0.00003   0.00099  -0.00099  -0.00000   1.86995
   A29        1.93546   0.00002   0.00036   0.00008   0.00043   1.93589
   A30        1.95967   0.00004   0.00082  -0.00035   0.00046   1.96014
   A31        1.89494  -0.00003  -0.00115   0.00071  -0.00045   1.89449
   A32        1.89217  -0.00007  -0.00163   0.00049  -0.00114   1.89104
   A33        1.90974   0.00000   0.00050   0.00010   0.00060   1.91034
    D1       -2.48525   0.00004   0.00423   0.00276   0.00699  -2.47826
    D2        1.33691  -0.00001  -0.00330   0.00182  -0.00148   1.33543
    D3        1.69872   0.00001   0.00355   0.00317   0.00672   1.70545
    D4       -0.76230  -0.00004  -0.00398   0.00223  -0.00174  -0.76405
    D5       -0.40628   0.00006   0.00397   0.00345   0.00742  -0.39886
    D6       -2.86731   0.00002  -0.00356   0.00251  -0.00104  -2.86835
    D7        2.23881  -0.00017  -0.01314  -0.00269  -0.01582   2.22298
    D8       -1.90169  -0.00006  -0.01240  -0.00243  -0.01483  -1.91652
    D9        0.12628  -0.00006  -0.01117  -0.00284  -0.01401   0.11228
   D10       -1.55041  -0.00007  -0.00559  -0.00136  -0.00695  -1.55736
   D11        0.59228   0.00004  -0.00484  -0.00110  -0.00596   0.58632
   D12        2.62025   0.00004  -0.00362  -0.00151  -0.00514   2.61512
   D13       -1.04510   0.00004   0.00100   0.00382   0.00483  -1.04027
   D14        1.11558   0.00000   0.00140   0.00241   0.00383   1.11940
   D15       -3.14038   0.00008   0.00266   0.00239   0.00506  -3.13532
   D16        2.73071   0.00002  -0.00595   0.00268  -0.00328   2.72743
   D17       -1.39179  -0.00002  -0.00555   0.00127  -0.00429  -1.39608
   D18        0.63544   0.00005  -0.00429   0.00125  -0.00305   0.63239
   D19        3.13132   0.00006   0.00169   0.00296   0.00465   3.13597
   D20       -1.07390   0.00000   0.00021   0.00350   0.00371  -1.07019
   D21        1.05111   0.00013   0.00375   0.00277   0.00651   1.05763
   D22        1.05300  -0.00004   0.00100   0.00301   0.00401   1.05701
   D23        3.13097  -0.00009  -0.00048   0.00356   0.00307   3.13405
   D24       -1.02720   0.00004   0.00306   0.00282   0.00588  -1.02133
   D25       -1.10336   0.00001   0.00121   0.00250   0.00371  -1.09965
   D26        0.97461  -0.00004  -0.00027   0.00305   0.00278   0.97739
   D27        3.09962   0.00008   0.00326   0.00231   0.00558   3.10520
   D28       -3.01933  -0.00003  -0.00067   0.00162   0.00094  -3.01839
   D29       -0.95415  -0.00004  -0.00127   0.00191   0.00065  -0.95351
   D30        1.18830   0.00001   0.00022   0.00185   0.00207   1.19037
   D31        1.16071  -0.00002  -0.00188   0.00328   0.00140   1.16211
   D32       -3.05730  -0.00003  -0.00247   0.00358   0.00110  -3.05619
   D33       -0.91485   0.00002  -0.00098   0.00352   0.00253  -0.91232
   D34       -0.98233   0.00003  -0.00157   0.00329   0.00172  -0.98061
   D35        1.08285   0.00002  -0.00217   0.00359   0.00143   1.08427
   D36       -3.05789   0.00007  -0.00068   0.00353   0.00285  -3.05504
         Item               Value     Threshold  Converged?
 Maximum Force            0.000422     0.000450     YES
 RMS     Force            0.000096     0.000300     YES
 Maximum Displacement     0.021644     0.001800     NO 
 RMS     Displacement     0.006524     0.001200     NO 
 Predicted change in Energy=-4.258123D-06
 GradGradGradGradGradGradGradGradGradGradGradGradGradGradGradGradGradGrad

                          Input orientation:                          
 ---------------------------------------------------------------------
 Center     Atomic      Atomic             Coordinates (Angstroms)
 Number     Number       Type             X           Y           Z
 ---------------------------------------------------------------------
      1          5           0       -1.775088    0.662687   -0.207143
      2          9           0       -1.572046    1.623229   -1.186177
      3          9           0       -2.132013    1.214570    1.017960
      4          9           0       -2.654981   -0.323349   -0.627976
      5          8           0       -0.371306   -0.051977    0.005902
      6          6           0       -0.329453   -1.502764    0.249316
      7          6           0        0.620455   -2.156062   -0.726116
      8          6           0        0.650237    0.671308    0.780109
      9          6           0        1.006840    1.995738    0.150881
     10          1           0       -0.031436   -1.640899    1.294376
     11          1           0       -1.351236   -1.858131    0.120229
     12          1           0        0.639978   -3.234264   -0.522647
     13          1           0        0.281357   -2.000244   -1.756913
     14          1           0        1.643107   -1.772757   -0.622386
     15          1           0        0.258699    0.781156    1.797658
     16          1           0        1.518328    0.006915    0.793202
     17          1           0        1.855777    2.403386    0.714371
     18          1           0        1.312793    1.863207   -0.893057
     19          1           0        0.183528    2.714233    0.200827
 ---------------------------------------------------------------------
                    Distance matrix (angstroms):
                    1          2          3          4          5
     1  B    0.000000
     2  F    1.386497   0.000000
     3  F    1.390269   2.310581   0.000000
     4  F    1.386932   2.296411   2.312530   0.000000
     5  O    1.589571   2.380997   2.393426   2.385501   0.000000
     6  C    2.643367   3.657391   3.350215   2.751135   1.471660
     7  C    3.735412   4.393377   4.688181   3.754590   2.438568
     8  C    2.618576   3.116244   2.844753   3.727803   1.471764
     9  C    3.105532   2.928676   3.348798   4.403830   2.472538
    10  H    3.255978   4.379630   3.555634   3.509183   2.073729
    11  H    2.577081   3.724959   3.295000   2.148282   2.058039
    12  H    4.595466   5.378528   5.463472   4.397871   3.380681
    13  H    3.704315   4.109793   4.884598   3.564906   2.707255
    14  H    4.217566   4.710392   5.085901   4.535898   2.722809
    15  H    2.858242   3.600554   2.551721   3.948818   2.073983
    16  H    3.503900   4.010091   3.851485   4.421010   2.047933
    17  H    4.130666   3.996336   4.172280   5.439110   3.389784
    18  H    3.383302   2.909606   3.992418   4.538120   2.704117
    19  H    2.865564   2.489199   2.877225   4.239216   2.828030
                    6          7          8          9         10
     6  C    0.000000
     7  C    1.510163   0.000000
     8  C    2.442974   3.203689   0.000000
     9  C    3.746316   4.260969   1.509042   0.000000
    10  H    1.095466   2.184661   2.464844   3.951042   0.000000
    11  H    1.089491   2.166247   3.292325   4.518160   1.779799
    12  H    2.129276   1.097406   4.117132   5.285938   2.508223
    13  H    2.155349   1.096270   3.702667   4.487079   3.088257
    14  H    2.173419   1.097041   2.987681   3.899273   2.548619
    15  H    2.821271   3.889415   1.095799   2.178715   2.490747
    16  H    2.447292   2.791590   1.093239   2.151653   2.316946
    17  H    4.499946   4.938582   2.111336   1.097448   4.500470
    18  H    3.915578   4.081878   2.158492   1.095892   4.344028
    19  H    4.248360   4.976937   2.174149   1.093879   4.495468
                   11         12         13         14         15
    11  H    0.000000
    12  H    2.504389   0.000000
    13  H    2.491830   1.781804   0.000000
    14  H    3.086236   1.775448   1.786971   0.000000
    15  H    3.517314   4.653255   4.513499   3.780961   0.000000
    16  H    3.487935   3.606688   3.473020   2.277431   1.787470
    17  H    5.366421   5.898430   5.289424   4.390025   2.521071
    18  H    4.687447   5.155007   4.091010   3.660957   3.085757
    19  H    4.823745   6.009690   5.105743   4.789690   2.508447
                   16         17         18         19
    16  H    0.000000
    17  H    2.421396   0.000000
    18  H    2.516254   1.780575   0.000000
    19  H    3.076064   1.776730   1.787755   0.000000
 Stoichiometry    C4H10BF3O
 Framework group  C1[X(C4H10BF3O)]
 Deg. of freedom    51
 Full point group                 C1      NOp   1
 Largest Abelian subgroup         C1      NOp   1
 Largest concise Abelian subgroup C1      NOp   1
                         Standard orientation:                         
 ---------------------------------------------------------------------
 Center     Atomic      Atomic             Coordinates (Angstroms)
 Number     Number       Type             X           Y           Z
 ---------------------------------------------------------------------
      1          5           0       -0.961901   -0.678959   -0.046733
      2          9           0       -1.599364   -0.203666   -1.182564
      3          9           0       -1.671664   -0.408719    1.117765
      4          9           0       -0.622239   -2.018058   -0.169298
      5          8           0        0.407236    0.121931    0.057070
      6          6           0        1.619354   -0.576685    0.513675
      7          6           0        2.734807   -0.366023   -0.482306
      8          6           0        0.348868    1.509722    0.543610
      9          6           0       -0.518442    2.381580   -0.330944
     10          1           0        1.855284   -0.185439    1.509320
     11          1           0        1.345395   -1.627667    0.599552
     12          1           0        3.628154   -0.889818   -0.119166
     13          1           0        2.460589   -0.778071   -1.460482
     14          1           0        2.987263    0.695352   -0.597404
     15          1           0       -0.005898    1.468311    1.579564
     16          1           0        1.384575    1.859285    0.526581
     17          1           0       -0.403584    3.413164    0.025474
     18          1           0       -0.191799    2.335458   -1.376006
     19          1           0       -1.576486    2.111190   -0.267668
 ---------------------------------------------------------------------
 Rotational constants (GHZ):           1.7488680           1.4143522           1.0048892
 Standard basis: Aug-CC-pVDZ (5D, 7F)
 There are   315 symmetry adapted cartesian basis functions of A   symmetry.
 There are   297 symmetry adapted basis functions of A   symmetry.
   297 basis functions,   497 primitive gaussians,   315 cartesian basis functions
    37 alpha electrons       37 beta electrons
       nuclear repulsion energy       523.6329230061 Hartrees.
 NAtoms=   19 NActive=   19 NUniq=   19 SFac= 1.00D+00 NAtFMM=   60 NAOKFM=F Big=F
 Integral buffers will be    131072 words long.
 Raffenetti 2 integral format.
 Two-electron integral symmetry is turned on.
 Nuclear repulsion after empirical dispersion term =      523.6208612111 Hartrees.
 Force PCM accuracy= 1.00D-12.
 ------------------------------------------------------------------------------
 Polarizable Continuum Model (PCM)
 =================================
 Model                : C-PCM.
 Atomic radii         : UFF (Universal Force Field).
 Polarization charges : Total charges.
 Charge compensation  : None.
 Solution method      : On-the-fly selection.
 Cavity type          : Scaled VdW (van der Waals Surface) (Alpha=1.100).
 Cavity algorithm     : GePol (No added spheres)
                        Default sphere list used, NSphG=   19.
                        Lebedev-Laikov grids with approx.  5.0 points / Ang**2.
                        Smoothing algorithm: York/Karplus (Gamma=1.0000).
                        Polarization charges: spherical gaussians, with
                                              point-specific exponents (IZeta= 3).
                        Self-potential: point-specific (ISelfS= 7).
                        Self-field    : sphere-specific E.n sum rule (ISelfD= 2).
 1st derivatives      : Analytical E(r).r(x)/FMM algorithm (CHGder, D1EAlg=3).
                        Cavity 1st derivative terms included.
 Solvent              : Water, Eps=  78.355300 Eps(inf)=   1.777849
 ------------------------------------------------------------------------------
 Spheres list:
 ISph  on   Nord     Re0    Alpha      Xe            Ye            Ze
    1   B      1    2.0415  1.100     -0.961901     -0.678959     -0.046733
    2   F      2    1.6820  1.100     -1.599364     -0.203666     -1.182564
    3   F      3    1.6820  1.100     -1.671664     -0.408719      1.117765
    4   F      4    1.6820  1.100     -0.622239     -2.018058     -0.169298
    5   O      5    1.7500  1.100      0.407236      0.121931      0.057070
    6   C      6    1.9255  1.100      1.619354     -0.576685      0.513675
    7   C      7    1.9255  1.100      2.734807     -0.366023     -0.482306
    8   C      8    1.9255  1.100      0.348868      1.509722      0.543610
    9   C      9    1.9255  1.100     -0.518442      2.381580     -0.330944
   10   H     10    1.4430  1.100      1.855284     -0.185439      1.509320
   11   H     11    1.4430  1.100      1.345395     -1.627667      0.599552
   12   H     12    1.4430  1.100      3.628154     -0.889818     -0.119166
   13   H     13    1.4430  1.100      2.460589     -0.778071     -1.460482
   14   H     14    1.4430  1.100      2.987263      0.695352     -0.597404
   15   H     15    1.4430  1.100     -0.005898      1.468311      1.579564
   16   H     16    1.4430  1.100      1.384575      1.859285      0.526581
   17   H     17    1.4430  1.100     -0.403584      3.413164      0.025474
   18   H     18    1.4430  1.100     -0.191799      2.335458     -1.376006
   19   H     19    1.4430  1.100     -1.576486      2.111190     -0.267668
 ------------------------------------------------------------------------------
 One-electron integrals computed using PRISM.
 NBasis=   297 RedAO= T EigKep=  2.74D-05  NBF=   297
 NBsUse=   297 1.00D-06 EigRej= -1.00D+00 NBFU=   297
 Initial guess from the checkpoint file:  "/inspire/hdd/project/materialscienceresearch/lipenghui-253107030018/g16/00-B-DFT-Shift/04-output/BF3OEt2_D2O/BF3OEt2_D2O.chk"
 B after Tr=    -0.000000   -0.000000    0.000000
         Rot=    0.999997    0.001054    0.000337   -0.002196 Ang=   0.28 deg.
 ExpMin= 2.38D-02 ExpMax= 1.47D+04 ExpMxC= 5.03D+02 IAcc=3 IRadAn=         5 AccDes= 0.00D+00
 Harris functional with IExCor= 4639 and IRadAn=       5 diagonalized for initial guess.
 HarFok:  IExCor= 4639 AccDes= 0.00D+00 IRadAn=         5 IDoV= 1 UseB2=F ITyADJ=14
 ICtDFT=  3500011 ScaDFX=  1.000000  1.000000  1.000000  1.000000
 FoFCou: FMM=F IPFlag=           0 FMFlag=      100000 FMFlg1=           0
         NFxFlg=           0 DoJE=T BraDBF=F KetDBF=T FulRan=T
         wScrn=  0.000000 ICntrl=       500 IOpCl=  0 I1Cent=   200000004 NGrid=           0
         NMat0=    1 NMatS0=      1 NMatT0=    0 NMatD0=    1 NMtDS0=    0 NMtDT0=    0
 Petite list used in FoFCou.
 Requested convergence on RMS density matrix=1.00D-08 within 128 cycles.
 Requested convergence on MAX density matrix=1.00D-06.
 Requested convergence on             energy=1.00D-06.
 No special actions if energy rises.
 Inv3:  Mode=1 IEnd=     7022700.
 Iteration    1 A*A^-1 deviation from unit magnitude is 2.89D-15 for    383.
 Iteration    1 A*A^-1 deviation from orthogonality  is 1.91D-15 for    770    471.
 Iteration    1 A^-1*A deviation from unit magnitude is 3.11D-15 for   1493.
 Iteration    1 A^-1*A deviation from orthogonality  is 2.22D-15 for   1505    980.
 Error on total polarization charges =  0.01130
 SCF Done:  E(RwB97XD) =  -558.152318642     A.U. after    9 cycles
            NFock=  9  Conv=0.59D-08     -V/T= 2.0060
 D1PCM: C-PCM CHGder 1st derivatives, ID1Alg=3 FixD1E=F DoIter=F DoCFld=F I1PDM=0.
 Calling FoFJK, ICntrl=      2127 FMM=F ISym2X=0 I1Cent= 0 IOpClX= 0 NMat=1 NMatS=1 NMatT=0.
 ***** Axes restored to original set *****
 -------------------------------------------------------------------
 Center     Atomic                   Forces (Hartrees/Bohr)
 Number     Number              X              Y              Z
 -------------------------------------------------------------------
      1        5           0.000191272   -0.000088569   -0.000131686
      2        9          -0.000017352   -0.000021343    0.000034150
      3        9          -0.000004756    0.000050000    0.000033087
      4        9           0.000014446    0.000038764    0.000005845
      5        8          -0.000002799    0.000059646    0.000329346
      6        6          -0.000071512    0.000123194   -0.000126051
      7        6           0.000064073   -0.000097915   -0.000003796
      8        6          -0.000193790   -0.000163523   -0.000146209
      9        6           0.000042628    0.000086817   -0.000005445
     10        1           0.000001305   -0.000026213   -0.000027071
     11        1           0.000015552   -0.000015920    0.000058971
     12        1          -0.000020741    0.000037493   -0.000022295
     13        1           0.000007758    0.000004167    0.000014824
     14        1          -0.000016766   -0.000006442   -0.000009800
     15        1           0.000064265   -0.000025969    0.000041793
     16        1          -0.000025737    0.000045828   -0.000037514
     17        1          -0.000021873   -0.000002978   -0.000012874
     18        1          -0.000009688    0.000012897    0.000021025
     19        1          -0.000016288   -0.000009935   -0.000016300
 -------------------------------------------------------------------
 Cartesian Forces:  Max     0.000329346 RMS     0.000078044

 GradGradGradGradGradGradGradGradGradGradGradGradGradGradGradGradGradGrad
 Berny optimization.
 Using GEDIIS/GDIIS optimizer.
 FormGI is forming the generalized inverse of G from B-inverse, IUseBI=4.
 Internal  Forces:  Max     0.000225403 RMS     0.000043724
 Search for a local minimum.
 Step number  15 out of a maximum of   97
 All quantities printed in internal units (Hartrees-Bohrs-Radians)
 Mixed Optimization -- En-DIIS/RFO-DIIS
 Swapping is turned off.
 Update second derivatives using D2CorX and points   10   11   12   13   14
                                                     15
 DE= -6.53D-06 DEPred=-4.26D-06 R= 1.53D+00
 TightC=F SS=  1.41D+00  RLast= 3.60D-02 DXNew= 2.1910D+00 1.0791D-01
 Trust test= 1.53D+00 RLast= 3.60D-02 DXMaxT set to 1.30D+00
 ITU=  1  1  0  1  1  1  1  1  1  1  1  1  1  1  0
     Eigenvalues ---    0.00228   0.00283   0.00308   0.01058   0.01412
     Eigenvalues ---    0.01687   0.04510   0.05037   0.05092   0.05274
     Eigenvalues ---    0.05385   0.05692   0.05774   0.05896   0.08689
     Eigenvalues ---    0.09661   0.10611   0.12735   0.12825   0.13012
     Eigenvalues ---    0.13324   0.15990   0.16001   0.16015   0.16064
     Eigenvalues ---    0.16568   0.17231   0.21215   0.22418   0.24036
     Eigenvalues ---    0.25290   0.25455   0.28353   0.28384   0.28772
     Eigenvalues ---    0.28909   0.30322   0.31847   0.31998   0.32052
     Eigenvalues ---    0.32112   0.32135   0.32160   0.32223   0.32440
     Eigenvalues ---    0.32558   0.33622   0.37034   0.38603   0.43283
     Eigenvalues ---    0.54108
 En-DIIS/RFO-DIIS/Sim-DIIS IScMMF=       -3 using points:    15   14   13   12   11
 RFO step:  Lambda=-3.15653726D-06.
 DidBck=F Rises=F RFO-DIIS coefs:    1.11790    0.35438   -0.27440   -0.24262    0.04474
 Iteration  1 RMS(Cart)=  0.00284010 RMS(Int)=  0.00000490
 Iteration  2 RMS(Cart)=  0.00000538 RMS(Int)=  0.00000360
 Iteration  3 RMS(Cart)=  0.00000000 RMS(Int)=  0.00000360
 Variable       Old X    -DE/DX   Delta X   Delta X   Delta X     New X
                                 (Linear)    (Quad)   (Total)
    R1        2.62010  -0.00004  -0.00039   0.00029  -0.00010   2.62000
    R2        2.62723   0.00005  -0.00000   0.00020   0.00020   2.62743
    R3        2.62092  -0.00004  -0.00032   0.00027  -0.00005   2.62087
    R4        3.00385  -0.00016   0.00234  -0.00290  -0.00056   3.00330
    R5        2.78103  -0.00003  -0.00011  -0.00004  -0.00014   2.78089
    R6        2.78123  -0.00023  -0.00062  -0.00006  -0.00069   2.78054
    R7        2.85379   0.00006   0.00005  -0.00002   0.00003   2.85383
    R8        2.07013  -0.00002   0.00006  -0.00009  -0.00003   2.07010
    R9        2.05884  -0.00002   0.00014  -0.00015  -0.00001   2.05883
   R10        2.07380  -0.00004   0.00039  -0.00029   0.00010   2.07389
   R11        2.07165  -0.00002  -0.00005  -0.00001  -0.00006   2.07159
   R12        2.07311  -0.00002  -0.00017   0.00011  -0.00006   2.07305
   R13        2.85168   0.00008   0.00029  -0.00014   0.00015   2.85182
   R14        2.07076   0.00001   0.00005  -0.00001   0.00004   2.07080
   R15        2.06592  -0.00005  -0.00004  -0.00004  -0.00009   2.06583
   R16        2.07388  -0.00003   0.00019  -0.00014   0.00005   2.07392
   R17        2.07094  -0.00002   0.00009  -0.00012  -0.00003   2.07091
   R18        2.06713   0.00001   0.00016  -0.00013   0.00003   2.06716
    A1        1.96581  -0.00003   0.00086  -0.00087  -0.00000   1.96581
    A2        1.95108  -0.00002   0.00000  -0.00020  -0.00019   1.95089
    A3        1.85124   0.00001  -0.00032   0.00071   0.00040   1.85164
    A4        1.96787   0.00000  -0.00001  -0.00002  -0.00002   1.96785
    A5        1.86199   0.00002  -0.00073   0.00048  -0.00025   1.86174
    A6        1.85594   0.00003   0.00005   0.00005   0.00010   1.85604
    A7        2.08346   0.00001   0.00053   0.00041   0.00095   2.08441
    A8        2.05163  -0.00008   0.00136  -0.00005   0.00132   2.05295
    A9        1.95813   0.00009   0.00064   0.00004   0.00069   1.95882
   A10        1.91508   0.00008   0.00099  -0.00044   0.00055   1.91563
   A11        1.86485  -0.00001   0.00008  -0.00027  -0.00019   1.86466
   A12        1.84968  -0.00002   0.00010  -0.00004   0.00006   1.84973
   A13        1.97199  -0.00004   0.00002  -0.00013  -0.00009   1.97190
   A14        1.95227  -0.00000  -0.00179   0.00135  -0.00044   1.95182
   A15        1.90397  -0.00001   0.00067  -0.00054   0.00014   1.90411
   A16        1.89280  -0.00001  -0.00055   0.00026  -0.00029   1.89251
   A17        1.92974   0.00000  -0.00056   0.00046  -0.00011   1.92963
   A18        1.95426   0.00001   0.00224  -0.00161   0.00063   1.95489
   A19        1.89598  -0.00000  -0.00030   0.00014  -0.00016   1.89582
   A20        1.88512   0.00001  -0.00198   0.00143  -0.00055   1.88456
   A21        1.90455  -0.00001   0.00104  -0.00060   0.00043   1.90498
   A22        1.95627  -0.00005   0.00052  -0.00021   0.00031   1.95658
   A23        1.86475   0.00005   0.00063  -0.00040   0.00024   1.86498
   A24        1.83256   0.00001   0.00013  -0.00010   0.00004   1.83260
   A25        1.96454  -0.00001  -0.00054   0.00017  -0.00037   1.96417
   A26        1.92915   0.00002  -0.00114   0.00082  -0.00031   1.92884
   A27        1.91083  -0.00001   0.00049  -0.00036   0.00015   1.91098
   A28        1.86995   0.00001   0.00064  -0.00053   0.00011   1.87006
   A29        1.93589   0.00001   0.00029  -0.00012   0.00017   1.93607
   A30        1.96014  -0.00002   0.00052  -0.00041   0.00011   1.96025
   A31        1.89449  -0.00000  -0.00074   0.00056  -0.00018   1.89432
   A32        1.89104   0.00001  -0.00113   0.00077  -0.00036   1.89068
   A33        1.91034  -0.00001   0.00034  -0.00022   0.00011   1.91045
    D1       -2.47826   0.00004   0.00276   0.00103   0.00379  -2.47447
    D2        1.33543  -0.00003  -0.00148   0.00040  -0.00107   1.33436
    D3        1.70545   0.00006   0.00229   0.00143   0.00372   1.70917
    D4       -0.76405  -0.00001  -0.00195   0.00080  -0.00115  -0.76519
    D5       -0.39886   0.00003   0.00264   0.00118   0.00382  -0.39504
    D6       -2.86835  -0.00004  -0.00160   0.00055  -0.00104  -2.86940
    D7        2.22298   0.00000  -0.00717   0.00045  -0.00672   2.21626
    D8       -1.91652  -0.00001  -0.00649  -0.00013  -0.00663  -1.92315
    D9        0.11228  -0.00003  -0.00563  -0.00090  -0.00653   0.10575
   D10       -1.55736   0.00001  -0.00288   0.00100  -0.00188  -1.55924
   D11        0.58632   0.00000  -0.00220   0.00042  -0.00179   0.58453
   D12        2.61512  -0.00002  -0.00134  -0.00034  -0.00169   2.61343
   D13       -1.04027   0.00008   0.00195   0.00213   0.00409  -1.03618
   D14        1.11940   0.00006   0.00204   0.00193   0.00398   1.12338
   D15       -3.13532   0.00007   0.00296   0.00131   0.00427  -3.13105
   D16        2.72743   0.00003  -0.00191   0.00140  -0.00052   2.72692
   D17       -1.39608   0.00002  -0.00182   0.00120  -0.00062  -1.39671
   D18        0.63239   0.00003  -0.00090   0.00058  -0.00033   0.63205
   D19        3.13597   0.00001   0.00221  -0.00047   0.00174   3.13771
   D20       -1.07019   0.00000   0.00117   0.00014   0.00131  -1.06888
   D21        1.05763  -0.00000   0.00365  -0.00143   0.00222   1.05985
   D22        1.05701  -0.00001   0.00141   0.00025   0.00166   1.05868
   D23        3.13405  -0.00002   0.00037   0.00086   0.00123   3.13528
   D24       -1.02133  -0.00002   0.00285  -0.00071   0.00215  -1.01918
   D25       -1.09965   0.00003   0.00186   0.00003   0.00189  -1.09776
   D26        0.97739   0.00003   0.00082   0.00063   0.00146   0.97884
   D27        3.10520   0.00003   0.00330  -0.00093   0.00237   3.10757
   D28       -3.01839  -0.00000  -0.00045  -0.00047  -0.00092  -3.01931
   D29       -0.95351   0.00001  -0.00080  -0.00017  -0.00097  -0.95448
   D30        1.19037  -0.00001   0.00022  -0.00084  -0.00062   1.18975
   D31        1.16211  -0.00002  -0.00126   0.00008  -0.00119   1.16093
   D32       -3.05619  -0.00001  -0.00160   0.00037  -0.00123  -3.05743
   D33       -0.91232  -0.00002  -0.00058  -0.00030  -0.00088  -0.91320
   D34       -0.98061  -0.00000  -0.00070  -0.00019  -0.00088  -0.98149
   D35        1.08427   0.00000  -0.00104   0.00011  -0.00093   1.08334
   D36       -3.05504  -0.00001  -0.00002  -0.00056  -0.00058  -3.05561
         Item               Value     Threshold  Converged?
 Maximum Force            0.000225     0.000450     YES
 RMS     Force            0.000044     0.000300     YES
 Maximum Displacement     0.008067     0.001800     NO 
 RMS     Displacement     0.002841     0.001200     NO 
 Predicted change in Energy=-1.360036D-06
 GradGradGradGradGradGradGradGradGradGradGradGradGradGradGradGradGradGrad

                          Input orientation:                          
 ---------------------------------------------------------------------
 Center     Atomic      Atomic             Coordinates (Angstroms)
 Number     Number       Type             X           Y           Z
 ---------------------------------------------------------------------
      1          5           0       -1.773926    0.662151   -0.209082
      2          9           0       -1.569179    1.620365   -1.189967
      3          9           0       -2.133065    1.216942    1.014179
      4          9           0       -2.653249   -0.324620   -0.629295
      5          8           0       -0.371004   -0.052149    0.008590
      6          6           0       -0.328243   -1.503011    0.250931
      7          6           0        0.618670   -2.156309   -0.727435
      8          6           0        0.650537    0.671740    0.781547
      9          6           0        1.005951    1.996496    0.152146
     10          1           0       -0.027167   -1.641573    1.295043
     11          1           0       -1.350304   -1.858512    0.124493
     12          1           0        0.636969   -3.234815   -0.525190
     13          1           0        0.277226   -1.998988   -1.757195
     14          1           0        1.642341   -1.775310   -0.625606
     15          1           0        0.260062    0.781654    1.799521
     16          1           0        1.519143    0.008080    0.793736
     17          1           0        1.854546    2.405078    0.715522
     18          1           0        1.312079    1.864320   -0.891769
     19          1           0        0.182152    2.714444    0.202246
 ---------------------------------------------------------------------
                    Distance matrix (angstroms):
                    1          2          3          4          5
     1  B    0.000000
     2  F    1.386445   0.000000
     3  F    1.390375   2.310623   0.000000
     4  F    1.386904   2.296198   2.312577   0.000000
     5  O    1.589276   2.381064   2.393044   2.385326   0.000000
     6  C    2.643774   3.656718   3.352324   2.751192   1.471584
     7  C    3.733219   4.389064   4.688719   3.751022   2.438991
     8  C    2.619057   3.116712   2.846015   3.728030   1.471401
     9  C    3.104622   2.928146   3.347272   4.403177   2.472561
    10  H    3.258942   4.381018   3.561572   3.511943   2.073512
    11  H    2.577687   3.725358   3.295857   2.149112   2.058011
    12  H    4.593330   5.374178   5.464511   4.393815   3.380872
    13  H    3.699398   4.102521   4.881826   3.558560   2.707099
    14  H    4.217297   4.707757   5.088827   4.533940   2.724894
    15  H    2.861097   3.603693   2.556031   3.950996   2.073862
    16  H    3.503963   4.009024   3.853384   4.420923   2.047617
    17  H    4.130194   3.996068   4.171559   5.438749   3.389806
    18  H    3.381523   2.906903   3.990082   4.536978   2.704860
    19  H    2.864846   2.490468   2.874366   4.238734   2.827989
                    6          7          8          9         10
     6  C    0.000000
     7  C    1.510179   0.000000
     8  C    2.443175   3.205605   0.000000
     9  C    3.746516   4.262563   1.509120   0.000000
    10  H    1.095452   2.184600   2.464625   3.950834   0.000000
    11  H    1.089485   2.165946   3.291999   4.518162   1.779872
    12  H    2.129117   1.097458   4.119334   5.287868   2.508535
    13  H    2.155263   1.096239   3.703695   4.487819   3.088132
    14  H    2.173859   1.097011   2.991957   3.903385   2.548340
    15  H    2.822044   3.891753   1.095821   2.178540   2.491792
    16  H    2.447625   2.794530   1.093192   2.151465   2.315975
    17  H    4.500397   4.941232   2.111506   1.097472   4.500230
    18  H    3.916036   4.083293   2.158673   1.095876   4.343617
    19  H    4.248506   4.977861   2.174308   1.093894   4.495877
                   11         12         13         14         15
    11  H    0.000000
    12  H    2.503108   0.000000
    13  H    2.491854   1.781719   0.000000
    14  H    3.086340   1.775109   1.787195   0.000000
    15  H    3.517027   4.656003   4.514698   3.785500   0.000000
    16  H    3.487948   3.610287   3.475332   2.282585   1.787542
    17  H    5.366431   5.901716   5.291320   4.395373   2.520504
    18  H    4.688341   5.156678   4.092069   3.664263   3.085765
    19  H    4.823525   6.010799   5.105379   4.793265   2.508592
                   16         17         18         19
    16  H    0.000000
    17  H    2.421613   0.000000
    18  H    2.515835   1.780470   0.000000
    19  H    3.076006   1.776530   1.787824   0.000000
 Stoichiometry    C4H10BF3O
 Framework group  C1[X(C4H10BF3O)]
 Deg. of freedom    51
 Full point group                 C1      NOp   1
 Largest Abelian subgroup         C1      NOp   1
 Largest concise Abelian subgroup C1      NOp   1
                         Standard orientation:                         
 ---------------------------------------------------------------------
 Center     Atomic      Atomic             Coordinates (Angstroms)
 Number     Number       Type             X           Y           Z
 ---------------------------------------------------------------------
      1          5           0       -0.959250   -0.681559   -0.046649
      2          9           0       -1.595726   -0.209811   -1.184447
      3          9           0       -1.672668   -0.412407    1.115991
      4          9           0       -0.615008   -2.019660   -0.167015
      5          8           0        0.406715    0.123788    0.059904
      6          6           0        1.621661   -0.570363    0.515557
      7          6           0        2.734407   -0.360963   -0.483738
      8          6           0        0.344293    1.512103    0.543337
      9          6           0       -0.526881    2.379547   -0.331901
     10          1           0        1.859165   -0.175087    1.509220
     11          1           0        1.350534   -1.621722    0.605624
     12          1           0        3.629044   -0.883200   -0.121378
     13          1           0        2.458186   -0.775945   -1.460074
     14          1           0        2.986387    0.700142   -0.602032
     15          1           0       -0.009246    1.472059    1.579788
     16          1           0        1.378726    1.865162    0.524179
     17          1           0       -0.415668    3.412117    0.022888
     18          1           0       -0.200902    2.333301   -1.377149
     19          1           0       -1.583953    2.105622   -0.267353
 ---------------------------------------------------------------------
 Rotational constants (GHZ):           1.7481776           1.4149169           1.0051743
 Standard basis: Aug-CC-pVDZ (5D, 7F)
 There are   315 symmetry adapted cartesian basis functions of A   symmetry.
 There are   297 symmetry adapted basis functions of A   symmetry.
   297 basis functions,   497 primitive gaussians,   315 cartesian basis functions
    37 alpha electrons       37 beta electrons
       nuclear repulsion energy       523.6388272551 Hartrees.
 NAtoms=   19 NActive=   19 NUniq=   19 SFac= 1.00D+00 NAtFMM=   60 NAOKFM=F Big=F
 Integral buffers will be    131072 words long.
 Raffenetti 2 integral format.
 Two-electron integral symmetry is turned on.
 Nuclear repulsion after empirical dispersion term =      523.6267632892 Hartrees.
 Force PCM accuracy= 1.00D-12.
 ------------------------------------------------------------------------------
 Polarizable Continuum Model (PCM)
 =================================
 Model                : C-PCM.
 Atomic radii         : UFF (Universal Force Field).
 Polarization charges : Total charges.
 Charge compensation  : None.
 Solution method      : On-the-fly selection.
 Cavity type          : Scaled VdW (van der Waals Surface) (Alpha=1.100).
 Cavity algorithm     : GePol (No added spheres)
                        Default sphere list used, NSphG=   19.
                        Lebedev-Laikov grids with approx.  5.0 points / Ang**2.
                        Smoothing algorithm: York/Karplus (Gamma=1.0000).
                        Polarization charges: spherical gaussians, with
                                              point-specific exponents (IZeta= 3).
                        Self-potential: point-specific (ISelfS= 7).
                        Self-field    : sphere-specific E.n sum rule (ISelfD= 2).
 1st derivatives      : Analytical E(r).r(x)/FMM algorithm (CHGder, D1EAlg=3).
                        Cavity 1st derivative terms included.
 Solvent              : Water, Eps=  78.355300 Eps(inf)=   1.777849
 ------------------------------------------------------------------------------
 Spheres list:
 ISph  on   Nord     Re0    Alpha      Xe            Ye            Ze
    1   B      1    2.0415  1.100     -0.959250     -0.681559     -0.046649
    2   F      2    1.6820  1.100     -1.595726     -0.209811     -1.184447
    3   F      3    1.6820  1.100     -1.672668     -0.412407      1.115991
    4   F      4    1.6820  1.100     -0.615008     -2.019660     -0.167015
    5   O      5    1.7500  1.100      0.406715      0.123788      0.059904
    6   C      6    1.9255  1.100      1.621661     -0.570363      0.515557
    7   C      7    1.9255  1.100      2.734407     -0.360963     -0.483738
    8   C      8    1.9255  1.100      0.344293      1.512103      0.543337
    9   C      9    1.9255  1.100     -0.526881      2.379547     -0.331901
   10   H     10    1.4430  1.100      1.859165     -0.175087      1.509220
   11   H     11    1.4430  1.100      1.350534     -1.621722      0.605624
   12   H     12    1.4430  1.100      3.629044     -0.883200     -0.121378
   13   H     13    1.4430  1.100      2.458186     -0.775945     -1.460074
   14   H     14    1.4430  1.100      2.986387      0.700142     -0.602032
   15   H     15    1.4430  1.100     -0.009246      1.472059      1.579788
   16   H     16    1.4430  1.100      1.378726      1.865162      0.524179
   17   H     17    1.4430  1.100     -0.415668      3.412117      0.022888
   18   H     18    1.4430  1.100     -0.200902      2.333301     -1.377149
   19   H     19    1.4430  1.100     -1.583953      2.105622     -0.267353
 ------------------------------------------------------------------------------
 One-electron integrals computed using PRISM.
 NBasis=   297 RedAO= T EigKep=  2.74D-05  NBF=   297
 NBsUse=   297 1.00D-06 EigRej= -1.00D+00 NBFU=   297
 Initial guess from the checkpoint file:  "/inspire/hdd/project/materialscienceresearch/lipenghui-253107030018/g16/00-B-DFT-Shift/04-output/BF3OEt2_D2O/BF3OEt2_D2O.chk"
 B after Tr=    -0.000000    0.000000   -0.000000
         Rot=    0.999999    0.000460    0.000160   -0.001475 Ang=   0.18 deg.
 Requested convergence on RMS density matrix=1.00D-08 within 128 cycles.
 Requested convergence on MAX density matrix=1.00D-06.
 Requested convergence on             energy=1.00D-06.
 No special actions if energy rises.
 Inv3:  Mode=1 IEnd=     7050267.
 Iteration    1 A*A^-1 deviation from unit magnitude is 4.00D-15 for   1523.
 Iteration    1 A*A^-1 deviation from orthogonality  is 2.56D-15 for   1507   1067.
 Iteration    1 A^-1*A deviation from unit magnitude is 4.00D-15 for   1523.
 Iteration    1 A^-1*A deviation from orthogonality  is 3.49D-15 for   1532    718.
 Error on total polarization charges =  0.01130
 SCF Done:  E(RwB97XD) =  -558.152319975     A.U. after    8 cycles
            NFock=  8  Conv=0.76D-08     -V/T= 2.0060
 D1PCM: C-PCM CHGder 1st derivatives, ID1Alg=3 FixD1E=F DoIter=F DoCFld=F I1PDM=0.
 Calling FoFJK, ICntrl=      2127 FMM=F ISym2X=0 I1Cent= 0 IOpClX= 0 NMat=1 NMatS=1 NMatT=0.
 ***** Axes restored to original set *****
 -------------------------------------------------------------------
 Center     Atomic                   Forces (Hartrees/Bohr)
 Number     Number              X              Y              Z
 -------------------------------------------------------------------
      1        5           0.000141916   -0.000067248   -0.000039297
      2        9           0.000007476    0.000013976    0.000015952
      3        9           0.000004611    0.000049787    0.000000674
      4        9           0.000013032   -0.000003020    0.000015418
      5        8           0.000016021   -0.000020356    0.000148735
      6        6          -0.000067832    0.000102806   -0.000104382
      7        6           0.000062968   -0.000163584    0.000025778
      8        6          -0.000138723   -0.000039547   -0.000082523
      9        6           0.000045193    0.000108558    0.000004785
     10        1          -0.000014596   -0.000029435   -0.000024291
     11        1          -0.000008137    0.000002002    0.000087529
     12        1          -0.000043393    0.000054369   -0.000029025
     13        1           0.000027293    0.000015147   -0.000011694
     14        1          -0.000027066    0.000083311   -0.000002226
     15        1           0.000059476   -0.000048740    0.000038650
     16        1           0.000000491    0.000001718   -0.000023728
     17        1          -0.000028797   -0.000037479   -0.000004716
     18        1          -0.000026466    0.000005419    0.000011697
     19        1          -0.000023467   -0.000027684   -0.000027335
 -------------------------------------------------------------------
 Cartesian Forces:  Max     0.000163584 RMS     0.000057488

 GradGradGradGradGradGradGradGradGradGradGradGradGradGradGradGradGradGrad
 Berny optimization.
 Using GEDIIS/GDIIS optimizer.
 FormGI is forming the generalized inverse of G from B-inverse, IUseBI=4.
 Internal  Forces:  Max     0.000149581 RMS     0.000040048
 Search for a local minimum.
 Step number  16 out of a maximum of   97
 All quantities printed in internal units (Hartrees-Bohrs-Radians)
 Mixed Optimization -- En-DIIS/RFO-DIIS
 Swapping is turned off.
 Update second derivatives using D2CorX and points   10   11   12   13   14
                                                     15   16
 DE= -1.33D-06 DEPred=-1.36D-06 R= 9.80D-01
 TightC=F SS=  1.41D+00  RLast= 1.68D-02 DXNew= 2.1910D+00 5.0499D-02
 Trust test= 9.80D-01 RLast= 1.68D-02 DXMaxT set to 1.30D+00
 ITU=  1  1  1  0  1  1  1  1  1  1  1  1  1  1  1  0
     Eigenvalues ---    0.00212   0.00261   0.00300   0.00731   0.01452
     Eigenvalues ---    0.01712   0.04526   0.05029   0.05100   0.05292
     Eigenvalues ---    0.05408   0.05778   0.05863   0.05907   0.08855
     Eigenvalues ---    0.09661   0.10534   0.12819   0.12858   0.12990
     Eigenvalues ---    0.13335   0.15993   0.16001   0.16047   0.16065
     Eigenvalues ---    0.16618   0.18022   0.21518   0.22427   0.25112
     Eigenvalues ---    0.25426   0.26072   0.28359   0.28398   0.28932
     Eigenvalues ---    0.29259   0.30230   0.31903   0.32011   0.32057
     Eigenvalues ---    0.32121   0.32155   0.32192   0.32223   0.32466
     Eigenvalues ---    0.32804   0.33913   0.36996   0.38554   0.43759
     Eigenvalues ---    0.53468
 En-DIIS/RFO-DIIS/Sim-DIIS IScMMF=       -3 using points:    16   15   14   13   12   11
 RFO step:  Lambda=-2.62508908D-06.
 DidBck=F Rises=F RFO-DIIS coefs:    2.87378   -2.00000    0.00900    0.02878    0.07057
                  RFO-DIIS coefs:    0.01786
 Iteration  1 RMS(Cart)=  0.00491403 RMS(Int)=  0.00000942
 Iteration  2 RMS(Cart)=  0.00001256 RMS(Int)=  0.00000404
 Iteration  3 RMS(Cart)=  0.00000000 RMS(Int)=  0.00000404
 Variable       Old X    -DE/DX   Delta X   Delta X   Delta X     New X
                                 (Linear)    (Quad)   (Total)
    R1        2.62000   0.00000  -0.00035   0.00032  -0.00003   2.61997
    R2        2.62743   0.00002   0.00005   0.00009   0.00014   2.62757
    R3        2.62087  -0.00001  -0.00028   0.00022  -0.00006   2.62081
    R4        3.00330  -0.00015   0.00132  -0.00205  -0.00073   3.00257
    R5        2.78089  -0.00007  -0.00094   0.00039  -0.00055   2.78034
    R6        2.78054  -0.00014  -0.00186   0.00068  -0.00117   2.77937
    R7        2.85383   0.00002   0.00025  -0.00013   0.00013   2.85395
    R8        2.07010  -0.00002   0.00003  -0.00004  -0.00001   2.07009
    R9        2.05883  -0.00000   0.00001  -0.00002  -0.00001   2.05881
   R10        2.07389  -0.00006   0.00010  -0.00016  -0.00006   2.07383
   R11        2.07159  -0.00000  -0.00005   0.00004  -0.00002   2.07158
   R12        2.07305   0.00001  -0.00001  -0.00004  -0.00005   2.07300
   R13        2.85182   0.00004   0.00037  -0.00017   0.00021   2.85203
   R14        2.07080   0.00001   0.00016  -0.00006   0.00009   2.07090
   R15        2.06583  -0.00000  -0.00003   0.00001  -0.00002   2.06581
   R16        2.07392  -0.00004   0.00004  -0.00012  -0.00008   2.07384
   R17        2.07091  -0.00002  -0.00003  -0.00003  -0.00006   2.07084
   R18        2.06716  -0.00000   0.00008  -0.00008  -0.00000   2.06716
    A1        1.96581  -0.00004   0.00033  -0.00046  -0.00013   1.96568
    A2        1.95089   0.00002   0.00000  -0.00003  -0.00002   1.95087
    A3        1.85164  -0.00002   0.00005   0.00027   0.00033   1.85197
    A4        1.96785   0.00002   0.00028  -0.00021   0.00008   1.96793
    A5        1.86174   0.00004  -0.00069   0.00046  -0.00022   1.86152
    A6        1.85604  -0.00002  -0.00007   0.00005  -0.00002   1.85602
    A7        2.08441   0.00002   0.00117   0.00012   0.00131   2.08572
    A8        2.05295  -0.00008   0.00128   0.00009   0.00138   2.05433
    A9        1.95882   0.00007   0.00078   0.00020   0.00100   1.95982
   A10        1.91563  -0.00004   0.00098  -0.00043   0.00056   1.91618
   A11        1.86466   0.00003   0.00003  -0.00017  -0.00014   1.86453
   A12        1.84973   0.00001   0.00044  -0.00029   0.00014   1.84988
   A13        1.97190  -0.00002  -0.00040   0.00003  -0.00036   1.97154
   A14        1.95182   0.00007  -0.00081   0.00092   0.00011   1.95193
   A15        1.90411  -0.00004  -0.00016  -0.00013  -0.00029   1.90382
   A16        1.89251  -0.00000  -0.00031   0.00011  -0.00020   1.89231
   A17        1.92963   0.00004  -0.00011   0.00014   0.00003   1.92966
   A18        1.95489  -0.00009   0.00078  -0.00071   0.00007   1.95497
   A19        1.89582  -0.00001  -0.00022   0.00014  -0.00008   1.89574
   A20        1.88456   0.00007  -0.00057   0.00065   0.00008   1.88464
   A21        1.90498  -0.00000   0.00038  -0.00029   0.00009   1.90507
   A22        1.95658  -0.00007   0.00041  -0.00003   0.00038   1.95696
   A23        1.86498   0.00004   0.00070  -0.00021   0.00050   1.86548
   A24        1.83260   0.00001   0.00047  -0.00030   0.00016   1.83276
   A25        1.96417   0.00001  -0.00077   0.00030  -0.00046   1.96371
   A26        1.92884   0.00004  -0.00050   0.00020  -0.00029   1.92854
   A27        1.91098  -0.00003  -0.00021  -0.00002  -0.00022   1.91076
   A28        1.87006  -0.00003   0.00028  -0.00043  -0.00015   1.86991
   A29        1.93607   0.00001   0.00027  -0.00009   0.00018   1.93625
   A30        1.96025  -0.00002  -0.00001  -0.00001  -0.00002   1.96023
   A31        1.89432   0.00002  -0.00015   0.00024   0.00009   1.89440
   A32        1.89068   0.00004  -0.00043   0.00037  -0.00005   1.89062
   A33        1.91045  -0.00001   0.00001  -0.00007  -0.00005   1.91040
    D1       -2.47447   0.00003   0.00553   0.00087   0.00640  -2.46807
    D2        1.33436  -0.00002   0.00004   0.00017   0.00021   1.33456
    D3        1.70917   0.00006   0.00547   0.00102   0.00649   1.71566
    D4       -0.76519   0.00001  -0.00003   0.00032   0.00030  -0.76490
    D5       -0.39504   0.00003   0.00553   0.00100   0.00653  -0.38851
    D6       -2.86940  -0.00002   0.00004   0.00029   0.00033  -2.86906
    D7        2.21626   0.00004  -0.00745   0.00006  -0.00739   2.20887
    D8       -1.92315   0.00000  -0.00733  -0.00026  -0.00759  -1.93073
    D9        0.10575  -0.00003  -0.00728  -0.00063  -0.00791   0.09784
   D10       -1.55924   0.00003  -0.00207   0.00069  -0.00138  -1.56063
   D11        0.58453  -0.00000  -0.00195   0.00037  -0.00158   0.58295
   D12        2.61343  -0.00003  -0.00191   0.00000  -0.00191   2.61152
   D13       -1.03618   0.00007   0.00771   0.00166   0.00937  -1.02681
   D14        1.12338   0.00006   0.00750   0.00188   0.00937   1.13275
   D15       -3.13105   0.00006   0.00780   0.00162   0.00942  -3.12163
   D16        2.72692   0.00004   0.00247   0.00103   0.00350   2.73042
   D17       -1.39671   0.00004   0.00225   0.00125   0.00351  -1.39320
   D18        0.63205   0.00003   0.00255   0.00100   0.00355   0.63560
   D19        3.13771  -0.00000   0.00243  -0.00074   0.00169   3.13939
   D20       -1.06888   0.00001   0.00190  -0.00042   0.00149  -1.06740
   D21        1.05985  -0.00003   0.00286  -0.00118   0.00167   1.06152
   D22        1.05868   0.00000   0.00197  -0.00025   0.00171   1.06039
   D23        3.13528   0.00002   0.00144   0.00007   0.00151   3.13679
   D24       -1.01918  -0.00002   0.00240  -0.00070   0.00170  -1.01748
   D25       -1.09776   0.00002   0.00310  -0.00081   0.00229  -1.09547
   D26        0.97884   0.00003   0.00258  -0.00049   0.00209   0.98093
   D27        3.10757  -0.00001   0.00353  -0.00126   0.00227   3.10985
   D28       -3.01931   0.00000  -0.00218   0.00047  -0.00172  -3.02103
   D29       -0.95448   0.00001  -0.00204   0.00044  -0.00160  -0.95608
   D30        1.18975  -0.00001  -0.00183   0.00029  -0.00155   1.18820
   D31        1.16093  -0.00001  -0.00284   0.00054  -0.00230   1.15862
   D32       -3.05743   0.00000  -0.00270   0.00052  -0.00219  -3.05961
   D33       -0.91320  -0.00002  -0.00249   0.00036  -0.00213  -0.91533
   D34       -0.98149  -0.00001  -0.00167   0.00020  -0.00147  -0.98296
   D35        1.08334   0.00000  -0.00153   0.00017  -0.00135   1.08199
   D36       -3.05561  -0.00002  -0.00132   0.00002  -0.00130  -3.05691
         Item               Value     Threshold  Converged?
 Maximum Force            0.000150     0.000450     YES
 RMS     Force            0.000040     0.000300     YES
 Maximum Displacement     0.014450     0.001800     NO 
 RMS     Displacement     0.004916     0.001200     NO 
 Predicted change in Energy=-1.212571D-06
 GradGradGradGradGradGradGradGradGradGradGradGradGradGradGradGradGradGrad

                          Input orientation:                          
 ---------------------------------------------------------------------
 Center     Atomic      Atomic             Coordinates (Angstroms)
 Number     Number       Type             X           Y           Z
 ---------------------------------------------------------------------
      1          5           0       -1.771058    0.662314   -0.212442
      2          9           0       -1.563517    1.615494   -1.197614
      3          9           0       -2.131252    1.223683    1.007590
      4          9           0       -2.651131   -0.325199   -0.629219
      5          8           0       -0.369966   -0.052869    0.011220
      6          6           0       -0.327355   -1.503571    0.252780
      7          6           0        0.616307   -2.157772   -0.728225
      8          6           0        0.652046    0.671280    0.782124
      9          6           0        1.002811    1.998441    0.154922
     10          1           0       -0.023217   -1.642599    1.295936
     11          1           0       -1.350011   -1.858497    0.129635
     12          1           0        0.632690   -3.236466   -0.527000
     13          1           0        0.273028   -1.998864   -1.757122
     14          1           0        1.640946   -1.778997   -0.628128
     15          1           0        0.265109    0.778292    1.801811
     16          1           0        1.522275    0.009704    0.790020
     17          1           0        1.851145    2.408026    0.717878
     18          1           0        1.307529    1.869540   -0.889779
     19          1           0        0.177161    2.714042    0.208029
 ---------------------------------------------------------------------
                    Distance matrix (angstroms):
                    1          2          3          4          5
     1  B    0.000000
     2  F    1.386430   0.000000
     3  F    1.390451   2.310576   0.000000
     4  F    1.386872   2.296142   2.312672   0.000000
     5  O    1.588889   2.381025   2.392585   2.384961   0.000000
     6  C    2.644195   3.655176   3.355845   2.750713   1.471293
     7  C    3.730740   4.382864   4.690028   3.747569   2.439289
     8  C    2.619289   3.117631   2.846530   3.727713   1.470780
     9  C    3.100733   2.926097   3.339108   4.400622   2.472456
    10  H    3.262326   4.382406   3.569667   3.513929   2.073154
    11  H    2.578524   3.725022   3.298632   2.149367   2.057863
    12  H    4.591017   5.367920   5.466925   4.389693   3.380872
    13  H    3.694075   4.092620   4.879447   3.553031   2.706912
    14  H    4.215988   4.702708   5.091280   4.531606   2.726178
    15  H    2.866469   3.611278   2.563534   3.953740   2.073732
    16  H    3.503836   4.006414   3.856078   4.420827   2.047198
    17  H    4.127149   3.994637   4.164863   5.436514   3.389499
    18  H    3.375482   2.898656   3.980245   4.533846   2.705817
    19  H    2.860409   2.492508   2.861685   4.235234   2.827345
                    6          7          8          9         10
     6  C    0.000000
     7  C    1.510247   0.000000
     8  C    2.443237   3.207174   0.000000
     9  C    3.747400   4.266549   1.509230   0.000000
    10  H    1.095446   2.184404   2.464552   3.951179   0.000000
    11  H    1.089478   2.166078   3.291465   4.518006   1.779677
    12  H    2.129007   1.097425   4.121245   5.292094   2.508730
    13  H    2.155338   1.096231   3.704200   4.490762   3.088017
    14  H    2.173952   1.096984   2.995094   3.910169   2.547560
    15  H    2.820888   3.891644   1.095871   2.178350   2.489930
    16  H    2.449440   2.797105   1.093180   2.151340   2.318318
    17  H    4.501419   4.945963   2.111458   1.097428   4.500549
    18  H    3.918695   4.089392   2.158876   1.095842   4.345498
    19  H    4.247917   4.980360   2.174391   1.093894   4.494887
                   11         12         13         14         15
    11  H    0.000000
    12  H    2.502213   0.000000
    13  H    2.492752   1.781633   0.000000
    14  H    3.086478   1.775113   1.787224   0.000000
    15  H    3.515315   4.655831   4.514274   3.786457   0.000000
    16  H    3.489456   3.614350   3.476046   2.285755   1.787432
    17  H    5.366251   5.907170   5.294975   4.403076   2.519217
    18  H    4.690414   5.163169   4.097198   3.673071   3.085793
    19  H    4.821464   6.013013   5.107102   4.798877   2.508985
                   16         17         18         19
    16  H    0.000000
    17  H    2.421840   0.000000
    18  H    2.515319   1.780462   0.000000
    19  H    3.075953   1.776461   1.787763   0.000000
 Stoichiometry    C4H10BF3O
 Framework group  C1[X(C4H10BF3O)]
 Deg. of freedom    51
 Full point group                 C1      NOp   1
 Largest Abelian subgroup         C1      NOp   1
 Largest concise Abelian subgroup C1      NOp   1
                         Standard orientation:                         
 ---------------------------------------------------------------------
 Center     Atomic      Atomic             Coordinates (Angstroms)
 Number     Number       Type             X           Y           Z
 ---------------------------------------------------------------------
      1          5           0       -0.953935   -0.686740   -0.046361
      2          9           0       -1.588982   -0.222864   -1.188169
      3          9           0       -1.673466   -0.417713    1.112626
      4          9           0       -0.601229   -2.023129   -0.160715
      5          8           0        0.406437    0.126902    0.062930
      6          6           0        1.626217   -0.558672    0.517716
      7          6           0        2.735364   -0.348019   -0.485412
      8          6           0        0.335880    1.515908    0.541339
      9          6           0       -0.546641    2.373815   -0.332117
     10          1           0        1.864598   -0.157687    1.508870
     11          1           0        1.361001   -1.611014    0.613617
     12          1           0        3.632943   -0.865619   -0.123770
     13          1           0        2.458167   -0.767338   -1.459606
     14          1           0        2.982844    0.713653   -0.607815
     15          1           0       -0.011749    1.477559    1.579904
     16          1           0        1.367355    1.877051    0.515295
     17          1           0       -0.442549    3.408070    0.019778
     18          1           0       -0.225204    2.327821   -1.378746
     19          1           0       -1.601055    2.091151   -0.262001
 ---------------------------------------------------------------------
 Rotational constants (GHZ):           1.7483672           1.4157105           1.0057231
 Standard basis: Aug-CC-pVDZ (5D, 7F)
 There are   315 symmetry adapted cartesian basis functions of A   symmetry.
 There are   297 symmetry adapted basis functions of A   symmetry.
   297 basis functions,   497 primitive gaussians,   315 cartesian basis functions
    37 alpha electrons       37 beta electrons
       nuclear repulsion energy       523.6977594277 Hartrees.
 NAtoms=   19 NActive=   19 NUniq=   19 SFac= 1.00D+00 NAtFMM=   60 NAOKFM=F Big=F
 Integral buffers will be    131072 words long.
 Raffenetti 2 integral format.
 Two-electron integral symmetry is turned on.
 Nuclear repulsion after empirical dispersion term =      523.6856903382 Hartrees.
 Force PCM accuracy= 1.00D-12.
 ------------------------------------------------------------------------------
 Polarizable Continuum Model (PCM)
 =================================
 Model                : C-PCM.
 Atomic radii         : UFF (Universal Force Field).
 Polarization charges : Total charges.
 Charge compensation  : None.
 Solution method      : On-the-fly selection.
 Cavity type          : Scaled VdW (van der Waals Surface) (Alpha=1.100).
 Cavity algorithm     : GePol (No added spheres)
                        Default sphere list used, NSphG=   19.
                        Lebedev-Laikov grids with approx.  5.0 points / Ang**2.
                        Smoothing algorithm: York/Karplus (Gamma=1.0000).
                        Polarization charges: spherical gaussians, with
                                              point-specific exponents (IZeta= 3).
                        Self-potential: point-specific (ISelfS= 7).
                        Self-field    : sphere-specific E.n sum rule (ISelfD= 2).
 1st derivatives      : Analytical E(r).r(x)/FMM algorithm (CHGder, D1EAlg=3).
                        Cavity 1st derivative terms included.
 Solvent              : Water, Eps=  78.355300 Eps(inf)=   1.777849
 ------------------------------------------------------------------------------
 Spheres list:
 ISph  on   Nord     Re0    Alpha      Xe            Ye            Ze
    1   B      1    2.0415  1.100     -0.953935     -0.686740     -0.046361
    2   F      2    1.6820  1.100     -1.588982     -0.222864     -1.188169
    3   F      3    1.6820  1.100     -1.673466     -0.417713      1.112626
    4   F      4    1.6820  1.100     -0.601229     -2.023129     -0.160715
    5   O      5    1.7500  1.100      0.406437      0.126902      0.062930
    6   C      6    1.9255  1.100      1.626217     -0.558672      0.517716
    7   C      7    1.9255  1.100      2.735364     -0.348019     -0.485412
    8   C      8    1.9255  1.100      0.335880      1.515908      0.541339
    9   C      9    1.9255  1.100     -0.546641      2.373815     -0.332117
   10   H     10    1.4430  1.100      1.864598     -0.157687      1.508870
   11   H     11    1.4430  1.100      1.361001     -1.611014      0.613617
   12   H     12    1.4430  1.100      3.632943     -0.865619     -0.123770
   13   H     13    1.4430  1.100      2.458167     -0.767338     -1.459606
   14   H     14    1.4430  1.100      2.982844      0.713653     -0.607815
   15   H     15    1.4430  1.100     -0.011749      1.477559      1.579904
   16   H     16    1.4430  1.100      1.367355      1.877051      0.515295
   17   H     17    1.4430  1.100     -0.442549      3.408070      0.019778
   18   H     18    1.4430  1.100     -0.225204      2.327821     -1.378746
   19   H     19    1.4430  1.100     -1.601055      2.091151     -0.262001
 ------------------------------------------------------------------------------
 One-electron integrals computed using PRISM.
 NBasis=   297 RedAO= T EigKep=  2.74D-05  NBF=   297
 NBsUse=   297 1.00D-06 EigRej= -1.00D+00 NBFU=   297
 Initial guess from the checkpoint file:  "/inspire/hdd/project/materialscienceresearch/lipenghui-253107030018/g16/00-B-DFT-Shift/04-output/BF3OEt2_D2O/BF3OEt2_D2O.chk"
 B after Tr=    -0.000000   -0.000000   -0.000000
         Rot=    0.999995    0.000938    0.000174   -0.003153 Ang=   0.38 deg.
 Requested convergence on RMS density matrix=1.00D-08 within 128 cycles.
 Requested convergence on MAX density matrix=1.00D-06.
 Requested convergence on             energy=1.00D-06.
 No special actions if energy rises.
 Inv3:  Mode=1 IEnd=     7031883.
 Iteration    1 A*A^-1 deviation from unit magnitude is 3.33D-15 for   1500.
 Iteration    1 A*A^-1 deviation from orthogonality  is 2.46D-15 for   1482    913.
 Iteration    1 A^-1*A deviation from unit magnitude is 3.33D-15 for   1500.
 Iteration    1 A^-1*A deviation from orthogonality  is 2.29D-15 for   1507   1153.
 Error on total polarization charges =  0.01130
 SCF Done:  E(RwB97XD) =  -558.152321660     A.U. after    9 cycles
            NFock=  9  Conv=0.58D-08     -V/T= 2.0060
 D1PCM: C-PCM CHGder 1st derivatives, ID1Alg=3 FixD1E=F DoIter=F DoCFld=F I1PDM=0.
 Calling FoFJK, ICntrl=      2127 FMM=F ISym2X=0 I1Cent= 0 IOpClX= 0 NMat=1 NMatS=1 NMatT=0.
 ***** Axes restored to original set *****
 -------------------------------------------------------------------
 Center     Atomic                   Forces (Hartrees/Bohr)
 Number     Number              X              Y              Z
 -------------------------------------------------------------------
      1        5           0.000088729   -0.000031873    0.000032734
      2        9           0.000009511    0.000017762   -0.000009738
      3        9          -0.000007186    0.000033976   -0.000013795
      4        9          -0.000011782   -0.000012890    0.000014959
      5        8          -0.000032909   -0.000054327   -0.000076135
      6        6          -0.000032368    0.000003802   -0.000026793
      7        6           0.000015608   -0.000120814    0.000027545
      8        6           0.000002766    0.000088601    0.000045832
      9        6           0.000023431    0.000069768    0.000011448
     10        1          -0.000007371   -0.000013805   -0.000011067
     11        1          -0.000015562    0.000014037    0.000068231
     12        1          -0.000029183    0.000032809   -0.000023442
     13        1           0.000023197    0.000016381   -0.000021813
     14        1          -0.000016300    0.000102470    0.000004058
     15        1           0.000022662   -0.000055481    0.000016702
     16        1           0.000015725   -0.000036213   -0.000026130
     17        1          -0.000009502   -0.000033841    0.000005084
     18        1          -0.000018403   -0.000000482    0.000004648
     19        1          -0.000021062   -0.000019880   -0.000022327
 -------------------------------------------------------------------
 Cartesian Forces:  Max     0.000120814 RMS     0.000038429

 GradGradGradGradGradGradGradGradGradGradGradGradGradGradGradGradGradGrad
 Berny optimization.
 Using GEDIIS/GDIIS optimizer.
 FormGI is forming the generalized inverse of G from B-inverse, IUseBI=4.
 Internal  Forces:  Max     0.000117005 RMS     0.000031613
 Search for a local minimum.
 Step number  17 out of a maximum of   97
 All quantities printed in internal units (Hartrees-Bohrs-Radians)
 Mixed Optimization -- En-DIIS/RFO-DIIS
 Swapping is turned off.
 Update second derivatives using D2CorX and points   10   11   12   13   14
                                                     15   16   17
 DE= -1.68D-06 DEPred=-1.21D-06 R= 1.39D+00
 TightC=F SS=  1.41D+00  RLast= 2.60D-02 DXNew= 2.1910D+00 7.8098D-02
 Trust test= 1.39D+00 RLast= 2.60D-02 DXMaxT set to 1.30D+00
 ITU=  1  1  1  1  0  1  1  1  1  1  1  1  1  1  1  1  0
     Eigenvalues ---    0.00157   0.00249   0.00309   0.00488   0.01459
     Eigenvalues ---    0.01815   0.04535   0.05012   0.05124   0.05293
     Eigenvalues ---    0.05422   0.05717   0.05820   0.05910   0.08715
     Eigenvalues ---    0.09673   0.10579   0.12746   0.12841   0.12961
     Eigenvalues ---    0.13329   0.15994   0.16005   0.16038   0.16062
     Eigenvalues ---    0.16633   0.17570   0.21565   0.22512   0.25056
     Eigenvalues ---    0.25348   0.26737   0.28388   0.28418   0.28896
     Eigenvalues ---    0.29556   0.30520   0.31934   0.31955   0.32058
     Eigenvalues ---    0.32111   0.32154   0.32212   0.32226   0.32496
     Eigenvalues ---    0.32958   0.34327   0.37280   0.38309   0.42761
     Eigenvalues ---    0.55062
 En-DIIS/RFO-DIIS/Sim-DIIS IScMMF=       -3 using points:    17   16   15   14   13   12   11
 RFO step:  Lambda=-2.42516041D-06.
 DIIS inversion failure, remove point   7.
 DIIS inversion failure, remove point   6.
 RFO-DIIS uses    5 points instead of    7
 DidBck=F Rises=F RFO-DIIS coefs:    2.44884   -2.00000    0.41352    0.21354   -0.07590
                  RFO-DIIS coefs:    0.00000    0.00000
 Iteration  1 RMS(Cart)=  0.00709180 RMS(Int)=  0.00001776
 Iteration  2 RMS(Cart)=  0.00002334 RMS(Int)=  0.00000171
 Iteration  3 RMS(Cart)=  0.00000000 RMS(Int)=  0.00000171
 Variable       Old X    -DE/DX   Delta X   Delta X   Delta X     New X
                                 (Linear)    (Quad)   (Total)
    R1        2.61997   0.00002   0.00001   0.00009   0.00009   2.62007
    R2        2.62757  -0.00000   0.00006   0.00002   0.00008   2.62765
    R3        2.62081   0.00001  -0.00010   0.00012   0.00002   2.62083
    R4        3.00257  -0.00007  -0.00018  -0.00082  -0.00100   3.00157
    R5        2.78034  -0.00003  -0.00085   0.00026  -0.00059   2.77976
    R6        2.77937   0.00003  -0.00135   0.00046  -0.00089   2.77848
    R7        2.85395  -0.00001   0.00024  -0.00018   0.00006   2.85401
    R8        2.07009  -0.00001  -0.00001  -0.00000  -0.00001   2.07008
    R9        2.05881   0.00000   0.00000  -0.00004  -0.00003   2.05878
   R10        2.07383  -0.00004  -0.00018   0.00003  -0.00015   2.07368
   R11        2.07158   0.00001   0.00001   0.00001   0.00003   2.07160
   R12        2.07300   0.00002  -0.00001   0.00003   0.00002   2.07302
   R13        2.85203   0.00001   0.00029  -0.00014   0.00015   2.85218
   R14        2.07090   0.00000   0.00012  -0.00005   0.00007   2.07097
   R15        2.06581   0.00003   0.00006   0.00003   0.00010   2.06591
   R16        2.07384  -0.00002  -0.00017   0.00004  -0.00012   2.07372
   R17        2.07084  -0.00001  -0.00007  -0.00002  -0.00009   2.07075
   R18        2.06716   0.00000  -0.00000   0.00002   0.00002   2.06718
    A1        1.96568  -0.00003  -0.00017  -0.00008  -0.00025   1.96543
    A2        1.95087   0.00001   0.00013  -0.00010   0.00003   1.95090
    A3        1.85197  -0.00002   0.00002   0.00007   0.00009   1.85206
    A4        1.96793  -0.00001   0.00020  -0.00020   0.00000   1.96793
    A5        1.86152   0.00006  -0.00012   0.00023   0.00011   1.86162
    A6        1.85602  -0.00001  -0.00010   0.00014   0.00004   1.85606
    A7        2.08572   0.00004   0.00156   0.00023   0.00178   2.08750
    A8        2.05433  -0.00002   0.00090   0.00034   0.00123   2.05556
    A9        1.95982  -0.00002   0.00092  -0.00025   0.00066   1.96048
   A10        1.91618  -0.00012   0.00023  -0.00025  -0.00002   1.91616
   A11        1.86453   0.00004  -0.00003  -0.00021  -0.00025   1.86428
   A12        1.84988   0.00003   0.00046  -0.00015   0.00032   1.85019
   A13        1.97154   0.00000  -0.00051   0.00010  -0.00041   1.97113
   A14        1.95193   0.00008   0.00057   0.00029   0.00086   1.95279
   A15        1.90382  -0.00004  -0.00068   0.00018  -0.00050   1.90332
   A16        1.89231   0.00002   0.00008   0.00018   0.00026   1.89257
   A17        1.92966   0.00004   0.00006   0.00008   0.00014   1.92980
   A18        1.95497  -0.00012  -0.00041  -0.00046  -0.00087   1.95410
   A19        1.89574  -0.00001   0.00004   0.00008   0.00013   1.89587
   A20        1.88464   0.00007   0.00059   0.00008   0.00068   1.88532
   A21        1.90507   0.00000  -0.00033   0.00004  -0.00029   1.90478
   A22        1.95696  -0.00001   0.00025   0.00019   0.00044   1.95740
   A23        1.86548  -0.00000   0.00067  -0.00053   0.00014   1.86562
   A24        1.83276  -0.00002   0.00023  -0.00034  -0.00011   1.83265
   A25        1.96371   0.00002  -0.00037   0.00020  -0.00016   1.96354
   A26        1.92854   0.00003  -0.00017   0.00010  -0.00007   1.92847
   A27        1.91076  -0.00002  -0.00056   0.00032  -0.00024   1.91052
   A28        1.86991  -0.00003  -0.00015  -0.00023  -0.00038   1.86953
   A29        1.93625  -0.00000   0.00011  -0.00003   0.00008   1.93633
   A30        1.96023  -0.00002  -0.00018   0.00014  -0.00004   1.96019
   A31        1.89440   0.00002   0.00026  -0.00001   0.00025   1.89465
   A32        1.89062   0.00003   0.00021   0.00006   0.00028   1.89090
   A33        1.91040  -0.00000  -0.00022   0.00005  -0.00017   1.91023
    D1       -2.46807   0.00001   0.00718   0.00147   0.00865  -2.45943
    D2        1.33456   0.00002   0.00149   0.00105   0.00253   1.33709
    D3        1.71566   0.00002   0.00742   0.00141   0.00883   1.72449
    D4       -0.76490   0.00003   0.00173   0.00099   0.00272  -0.76218
    D5       -0.38851   0.00001   0.00729   0.00146   0.00875  -0.37976
    D6       -2.86906   0.00002   0.00160   0.00103   0.00263  -2.86643
    D7        2.20887   0.00004  -0.00806  -0.00146  -0.00952   2.19936
    D8       -1.93073  -0.00000  -0.00856  -0.00161  -0.01018  -1.94091
    D9        0.09784  -0.00002  -0.00914  -0.00158  -0.01072   0.08712
   D10       -1.56063   0.00003  -0.00268  -0.00086  -0.00354  -1.56416
   D11        0.58295  -0.00001  -0.00319  -0.00102  -0.00420   0.57875
   D12        2.61152  -0.00003  -0.00376  -0.00098  -0.00474   2.60678
   D13       -1.02681   0.00004   0.01002   0.00186   0.01188  -1.01494
   D14        1.13275   0.00005   0.01019   0.00187   0.01205   1.14480
   D15       -3.12163   0.00003   0.00995   0.00184   0.01179  -3.10984
   D16        2.73042   0.00003   0.00448   0.00131   0.00579   2.73621
   D17       -1.39320   0.00004   0.00465   0.00132   0.00597  -1.38723
   D18        0.63560   0.00001   0.00442   0.00129   0.00571   0.64131
   D19        3.13939  -0.00001  -0.00048   0.00018  -0.00030   3.13909
   D20       -1.06740   0.00001  -0.00035   0.00044   0.00009  -1.06730
   D21        1.06152  -0.00004  -0.00102   0.00023  -0.00078   1.06074
   D22        1.06039   0.00001  -0.00026   0.00055   0.00029   1.06068
   D23        3.13679   0.00003  -0.00013   0.00081   0.00068   3.13747
   D24       -1.01748  -0.00001  -0.00080   0.00061  -0.00019  -1.01767
   D25       -1.09547  -0.00000   0.00059   0.00001   0.00060  -1.09487
   D26        0.98093   0.00002   0.00073   0.00027   0.00100   0.98192
   D27        3.10985  -0.00003   0.00006   0.00006   0.00012   3.10997
   D28       -3.02103   0.00000  -0.00227  -0.00062  -0.00289  -3.02392
   D29       -0.95608   0.00001  -0.00199  -0.00078  -0.00277  -0.95885
   D30        1.18820  -0.00001  -0.00233  -0.00063  -0.00296   1.18524
   D31        1.15862   0.00000  -0.00306  -0.00022  -0.00328   1.15534
   D32       -3.05961   0.00001  -0.00278  -0.00038  -0.00316  -3.06278
   D33       -0.91533  -0.00001  -0.00312  -0.00023  -0.00335  -0.91868
   D34       -0.98296  -0.00001  -0.00195  -0.00085  -0.00280  -0.98576
   D35        1.08199  -0.00001  -0.00166  -0.00102  -0.00268   1.07931
   D36       -3.05691  -0.00002  -0.00201  -0.00086  -0.00287  -3.05978
         Item               Value     Threshold  Converged?
 Maximum Force            0.000117     0.000450     YES
 RMS     Force            0.000032     0.000300     YES
 Maximum Displacement     0.022183     0.001800     NO 
 RMS     Displacement     0.007095     0.001200     NO 
 Predicted change in Energy=-1.097162D-06
 GradGradGradGradGradGradGradGradGradGradGradGradGradGradGradGradGradGrad

                          Input orientation:                          
 ---------------------------------------------------------------------
 Center     Atomic      Atomic             Coordinates (Angstroms)
 Number     Number       Type             X           Y           Z
 ---------------------------------------------------------------------
      1          5           0       -1.766873    0.662615   -0.217367
      2          9           0       -1.555711    1.607972   -1.209352
      3          9           0       -2.127462    1.234233    0.997829
      4          9           0       -2.648838   -0.325836   -0.627910
      5          8           0       -0.368316   -0.054038    0.013581
      6          6           0       -0.326125   -1.504415    0.255283
      7          6           0        0.612642   -2.159803   -0.729663
      8          6           0        0.654020    0.670408    0.782875
      9          6           0        0.998750    2.000988    0.159394
     10          1           0       -0.016929   -1.643225    1.296973
     11          1           0       -1.349753   -1.858460    0.137961
     12          1           0        0.629250   -3.238383   -0.528271
     13          1           0        0.265230   -2.000802   -1.757175
     14          1           0        1.637652   -1.780869   -0.633932
     15          1           0        0.270803    0.772628    1.804499
     16          1           0        1.526271    0.011374    0.785225
     17          1           0        1.845943    2.411923    0.722959
     18          1           0        1.302792    1.876665   -0.886009
     19          1           0        0.170194    2.713005    0.215517
 ---------------------------------------------------------------------
                    Distance matrix (angstroms):
                    1          2          3          4          5
     1  B    0.000000
     2  F    1.386479   0.000000
     3  F    1.390494   2.310462   0.000000
     4  F    1.386883   2.296218   2.312720   0.000000
     5  O    1.588361   2.380704   2.392276   2.384568   0.000000
     6  C    2.644838   3.652942   3.361009   2.750286   1.470983
     7  C    3.727007   4.373555   4.691682   3.743132   2.439044
     8  C    2.619403   3.119441   2.846181   3.727156   1.470308
     9  C    3.095459   2.924585   3.326273   4.397597   2.472502
    10  H    3.266868   4.384039   3.581005   3.516765   2.072699
    11  H    2.579935   3.724758   3.302870   2.150143   2.057821
    12  H    4.588665   5.359578   5.471081   4.386196   3.380649
    13  H    3.687037   4.079116   4.876523   3.545778   2.706815
    14  H    4.211286   4.691793   5.092108   4.526715   2.724908
    15  H    2.872659   3.621775   2.572056   3.955697   2.073460
    16  H    3.503442   4.003258   3.858802   4.420656   2.046747
    17  H    4.122709   3.993921   4.153367   5.433528   3.389265
    18  H    3.368062   2.889253   3.965881   4.531336   2.707301
    19  H    2.853720   2.496016   2.842183   4.229996   2.826181
                    6          7          8          9         10
     6  C    0.000000
     7  C    1.510277   0.000000
     8  C    2.443132   3.209296   0.000000
     9  C    3.748645   4.272199   1.509309   0.000000
    10  H    1.095441   2.184140   2.463202   3.950440   0.000000
    11  H    1.089461   2.166696   3.290318   4.517883   1.779342
    12  H    2.129165   1.097346   4.122907   5.297209   2.508704
    13  H    2.155478   1.096246   3.706531   4.497289   3.087927
    14  H    2.173373   1.096996   2.997271   3.916632   2.546562
    15  H    2.818035   3.890756   1.095910   2.178336   2.485300
    16  H    2.451495   2.800646   1.093230   2.151396   2.319709
    17  H    4.502699   4.952961   2.111195   1.097364   4.499334
    18  H    3.922706   4.098028   2.158967   1.095794   4.347034
    19  H    4.246710   4.983311   2.174440   1.093903   4.492361
                   11         12         13         14         15
    11  H    0.000000
    12  H    2.502899   0.000000
    13  H    2.493987   1.781662   0.000000
    14  H    3.086491   1.775495   1.787060   0.000000
    15  H    3.510865   4.653870   4.514140   3.786102   0.000000
    16  H    3.490952   3.618127   3.478918   2.288788   1.787352
    17  H    5.365712   5.913702   5.303004   4.411807   2.517554
    18  H    4.694217   5.171591   4.107337   3.681472   3.085892
    19  H    4.818148   6.015228   5.110824   4.803114   2.509990
                   16         17         18         19
    16  H    0.000000
    17  H    2.422540   0.000000
    18  H    2.514414   1.780531   0.000000
    19  H    3.076089   1.776593   1.787625   0.000000
 Stoichiometry    C4H10BF3O
 Framework group  C1[X(C4H10BF3O)]
 Deg. of freedom    51
 Full point group                 C1      NOp   1
 Largest Abelian subgroup         C1      NOp   1
 Largest concise Abelian subgroup C1      NOp   1
                         Standard orientation:                         
 ---------------------------------------------------------------------
 Center     Atomic      Atomic             Coordinates (Angstroms)
 Number     Number       Type             X           Y           Z
 ---------------------------------------------------------------------
      1          5           0       -0.946461   -0.693812   -0.045902
      2          9           0       -1.578859   -0.241956   -1.194041
      3          9           0       -1.674865   -0.423480    1.107277
      4          9           0       -0.582545   -2.028038   -0.150065
      5          8           0        0.406303    0.131048    0.066018
      6          6           0        1.632472   -0.542264    0.520938
      7          6           0        2.736382   -0.330474   -0.487756
      8          6           0        0.324187    1.520980    0.538407
      9          6           0       -0.573857    2.365780   -0.332135
     10          1           0        1.871682   -0.132003    1.508083
     11          1           0        1.375327   -1.595677    0.626410
     12          1           0        3.639221   -0.838575   -0.125978
     13          1           0        2.458800   -0.758454   -1.458084
     14          1           0        2.974399    0.732394   -0.618372
     15          1           0       -0.015263    1.483862    1.579759
     16          1           0        1.351562    1.893019    0.503188
     17          1           0       -0.480163    3.401962    0.016800
     18          1           0       -0.258072    2.320961   -1.380484
     19          1           0       -1.624292    2.070324   -0.255217
 ---------------------------------------------------------------------
 Rotational constants (GHZ):           1.7486583           1.4169058           1.0065195
 Standard basis: Aug-CC-pVDZ (5D, 7F)
 There are   315 symmetry adapted cartesian basis functions of A   symmetry.
 There are   297 symmetry adapted basis functions of A   symmetry.
   297 basis functions,   497 primitive gaussians,   315 cartesian basis functions
    37 alpha electrons       37 beta electrons
       nuclear repulsion energy       523.7837768538 Hartrees.
 NAtoms=   19 NActive=   19 NUniq=   19 SFac= 1.00D+00 NAtFMM=   60 NAOKFM=F Big=F
 Integral buffers will be    131072 words long.
 Raffenetti 2 integral format.
 Two-electron integral symmetry is turned on.
 Nuclear repulsion after empirical dispersion term =      523.7717002807 Hartrees.
 Force PCM accuracy= 1.00D-12.
 ------------------------------------------------------------------------------
 Polarizable Continuum Model (PCM)
 =================================
 Model                : C-PCM.
 Atomic radii         : UFF (Universal Force Field).
 Polarization charges : Total charges.
 Charge compensation  : None.
 Solution method      : On-the-fly selection.
 Cavity type          : Scaled VdW (van der Waals Surface) (Alpha=1.100).
 Cavity algorithm     : GePol (No added spheres)
                        Default sphere list used, NSphG=   19.
                        Lebedev-Laikov grids with approx.  5.0 points / Ang**2.
                        Smoothing algorithm: York/Karplus (Gamma=1.0000).
                        Polarization charges: spherical gaussians, with
                                              point-specific exponents (IZeta= 3).
                        Self-potential: point-specific (ISelfS= 7).
                        Self-field    : sphere-specific E.n sum rule (ISelfD= 2).
 1st derivatives      : Analytical E(r).r(x)/FMM algorithm (CHGder, D1EAlg=3).
                        Cavity 1st derivative terms included.
 Solvent              : Water, Eps=  78.355300 Eps(inf)=   1.777849
 ------------------------------------------------------------------------------
 Spheres list:
 ISph  on   Nord     Re0    Alpha      Xe            Ye            Ze
    1   B      1    2.0415  1.100     -0.946461     -0.693812     -0.045902
    2   F      2    1.6820  1.100     -1.578859     -0.241956     -1.194041
    3   F      3    1.6820  1.100     -1.674865     -0.423480      1.107277
    4   F      4    1.6820  1.100     -0.582545     -2.028038     -0.150065
    5   O      5    1.7500  1.100      0.406303      0.131048      0.066018
    6   C      6    1.9255  1.100      1.632472     -0.542264      0.520938
    7   C      7    1.9255  1.100      2.736382     -0.330474     -0.487756
    8   C      8    1.9255  1.100      0.324187      1.520980      0.538407
    9   C      9    1.9255  1.100     -0.573857      2.365780     -0.332135
   10   H     10    1.4430  1.100      1.871682     -0.132003      1.508083
   11   H     11    1.4430  1.100      1.375327     -1.595677      0.626410
   12   H     12    1.4430  1.100      3.639221     -0.838575     -0.125978
   13   H     13    1.4430  1.100      2.458800     -0.758454     -1.458084
   14   H     14    1.4430  1.100      2.974399      0.732394     -0.618372
   15   H     15    1.4430  1.100     -0.015263      1.483862      1.579759
   16   H     16    1.4430  1.100      1.351562      1.893019      0.503188
   17   H     17    1.4430  1.100     -0.480163      3.401962      0.016800
   18   H     18    1.4430  1.100     -0.258072      2.320961     -1.380484
   19   H     19    1.4430  1.100     -1.624292      2.070324     -0.255217
 ------------------------------------------------------------------------------
 One-electron integrals computed using PRISM.
 NBasis=   297 RedAO= T EigKep=  2.73D-05  NBF=   297
 NBsUse=   297 1.00D-06 EigRej= -1.00D+00 NBFU=   297
 Initial guess from the checkpoint file:  "/inspire/hdd/project/materialscienceresearch/lipenghui-253107030018/g16/00-B-DFT-Shift/04-output/BF3OEt2_D2O/BF3OEt2_D2O.chk"
 B after Tr=     0.000000   -0.000000    0.000000
         Rot=    0.999989    0.001497    0.000290   -0.004343 Ang=   0.53 deg.
 ExpMin= 2.38D-02 ExpMax= 1.47D+04 ExpMxC= 5.03D+02 IAcc=3 IRadAn=         5 AccDes= 0.00D+00
 Harris functional with IExCor= 4639 and IRadAn=       5 diagonalized for initial guess.
 HarFok:  IExCor= 4639 AccDes= 0.00D+00 IRadAn=         5 IDoV= 1 UseB2=F ITyADJ=14
 ICtDFT=  3500011 ScaDFX=  1.000000  1.000000  1.000000  1.000000
 FoFCou: FMM=F IPFlag=           0 FMFlag=      100000 FMFlg1=           0
         NFxFlg=           0 DoJE=T BraDBF=F KetDBF=T FulRan=T
         wScrn=  0.000000 ICntrl=       500 IOpCl=  0 I1Cent=   200000004 NGrid=           0
         NMat0=    1 NMatS0=      1 NMatT0=    0 NMatD0=    1 NMtDS0=    0 NMtDT0=    0
 Petite list used in FoFCou.
 Requested convergence on RMS density matrix=1.00D-08 within 128 cycles.
 Requested convergence on MAX density matrix=1.00D-06.
 Requested convergence on             energy=1.00D-06.
 No special actions if energy rises.
 Inv3:  Mode=1 IEnd=     7050267.
 Iteration    1 A*A^-1 deviation from unit magnitude is 3.77D-15 for   1523.
 Iteration    1 A*A^-1 deviation from orthogonality  is 2.54D-15 for   1490   1287.
 Iteration    1 A^-1*A deviation from unit magnitude is 3.77D-15 for   1523.
 Iteration    1 A^-1*A deviation from orthogonality  is 2.67D-15 for    358    219.
 Error on total polarization charges =  0.01130
 SCF Done:  E(RwB97XD) =  -558.152323210     A.U. after    9 cycles
            NFock=  9  Conv=0.70D-08     -V/T= 2.0060
 D1PCM: C-PCM CHGder 1st derivatives, ID1Alg=3 FixD1E=F DoIter=F DoCFld=F I1PDM=0.
 Calling FoFJK, ICntrl=      2127 FMM=F ISym2X=0 I1Cent= 0 IOpClX= 0 NMat=1 NMatS=1 NMatT=0.
 ***** Axes restored to original set *****
 -------------------------------------------------------------------
 Center     Atomic                   Forces (Hartrees/Bohr)
 Number     Number              X              Y              Z
 -------------------------------------------------------------------
      1        5           0.000017651    0.000005979    0.000042899
      2        9          -0.000004029    0.000000933   -0.000034485
      3        9          -0.000008136    0.000006735   -0.000005814
      4        9          -0.000023265   -0.000010792    0.000013651
      5        8          -0.000071257   -0.000024056   -0.000204540
      6        6          -0.000017731   -0.000077953    0.000057036
      7        6          -0.000020291   -0.000009965    0.000006916
      8        6           0.000108987    0.000132659    0.000142638
      9        6          -0.000005027   -0.000008033    0.000014473
     10        1           0.000001424   -0.000005322   -0.000003197
     11        1          -0.000014892    0.000003050    0.000014124
     12        1           0.000004325   -0.000002546   -0.000011434
     13        1           0.000001739    0.000004132   -0.000013956
     14        1           0.000005492    0.000040512    0.000002365
     15        1           0.000002188   -0.000021477    0.000002736
     16        1           0.000024423   -0.000021658   -0.000027624
     17        1           0.000012852   -0.000001526    0.000005511
     18        1           0.000004854   -0.000000938   -0.000006483
     19        1          -0.000019306   -0.000009734    0.000005183
 -------------------------------------------------------------------
 Cartesian Forces:  Max     0.000204540 RMS     0.000045457

 GradGradGradGradGradGradGradGradGradGradGradGradGradGradGradGradGradGrad
 Berny optimization.
 Using GEDIIS/GDIIS optimizer.
 FormGI is forming the generalized inverse of G from B-inverse, IUseBI=4.
 Internal  Forces:  Max     0.000194515 RMS     0.000029374
 Search for a local minimum.
 Step number  18 out of a maximum of   97
 All quantities printed in internal units (Hartrees-Bohrs-Radians)
 Mixed Optimization -- En-DIIS/RFO-DIIS
 Swapping is turned off.
 Update second derivatives using D2CorX and points   10   11   12   13   14
                                                     15   16   17   18
 DE= -1.55D-06 DEPred=-1.10D-06 R= 1.41D+00
 TightC=F SS=  1.41D+00  RLast= 3.51D-02 DXNew= 2.1910D+00 1.0531D-01
 Trust test= 1.41D+00 RLast= 3.51D-02 DXMaxT set to 1.30D+00
 ITU=  1  1  1  1  1  0  1  1  1  1  1  1  1  1  1  1  1  0
     Eigenvalues ---    0.00097   0.00246   0.00310   0.00413   0.01470
     Eigenvalues ---    0.01798   0.04540   0.05032   0.05205   0.05287
     Eigenvalues ---    0.05362   0.05448   0.05798   0.05900   0.08261
     Eigenvalues ---    0.09676   0.10538   0.12595   0.12843   0.12993
     Eigenvalues ---    0.13321   0.15977   0.15997   0.16019   0.16078
     Eigenvalues ---    0.16598   0.16753   0.21320   0.22552   0.24317
     Eigenvalues ---    0.25338   0.26051   0.28367   0.28394   0.28883
     Eigenvalues ---    0.29603   0.30413   0.31896   0.31976   0.32062
     Eigenvalues ---    0.32102   0.32155   0.32192   0.32228   0.32464
     Eigenvalues ---    0.32689   0.33620   0.37334   0.39074   0.43680
     Eigenvalues ---    0.60325
 En-DIIS/RFO-DIIS/Sim-DIIS IScMMF=       -3 using points:    18   17   16   15   14   13   12   11
 RFO step:  Lambda=-1.65815794D-06.
 DIIS inversion failure, remove point   8.
 DIIS inversion failure, remove point   7.
 DIIS inversion failure, remove point   6.
 RFO-DIIS uses    5 points instead of    8
 DidBck=F Rises=F RFO-DIIS coefs:    2.25510   -1.25281   -0.47838    0.49920   -0.02311
                  RFO-DIIS coefs:    0.00000    0.00000    0.00000
 Iteration  1 RMS(Cart)=  0.00815653 RMS(Int)=  0.00002377
 Iteration  2 RMS(Cart)=  0.00002974 RMS(Int)=  0.00000068
 Iteration  3 RMS(Cart)=  0.00000000 RMS(Int)=  0.00000068
 Variable       Old X    -DE/DX   Delta X   Delta X   Delta X     New X
                                 (Linear)    (Quad)   (Total)
    R1        2.62007   0.00003   0.00015  -0.00006   0.00009   2.62016
    R2        2.62765  -0.00000  -0.00000  -0.00001  -0.00002   2.62764
    R3        2.62083   0.00002   0.00004  -0.00002   0.00002   2.62085
    R4        3.00157   0.00001  -0.00096   0.00058  -0.00038   3.00119
    R5        2.77976   0.00006  -0.00068   0.00035  -0.00033   2.77942
    R6        2.77848   0.00019  -0.00083   0.00057  -0.00026   2.77822
    R7        2.85401  -0.00001   0.00005   0.00001   0.00006   2.85407
    R8        2.07008  -0.00000   0.00000  -0.00003  -0.00003   2.07005
    R9        2.05878   0.00001  -0.00003   0.00001  -0.00002   2.05876
   R10        2.07368   0.00000  -0.00022   0.00011  -0.00011   2.07357
   R11        2.07160   0.00001   0.00006  -0.00003   0.00003   2.07163
   R12        2.07302   0.00002   0.00005  -0.00000   0.00005   2.07307
   R13        2.85218  -0.00003   0.00011  -0.00017  -0.00006   2.85212
   R14        2.07097   0.00000   0.00007  -0.00002   0.00005   2.07102
   R15        2.06591   0.00003   0.00016  -0.00004   0.00013   2.06603
   R16        2.07372   0.00001  -0.00017   0.00011  -0.00006   2.07365
   R17        2.07075   0.00001  -0.00010   0.00004  -0.00006   2.07069
   R18        2.06718   0.00001   0.00001   0.00005   0.00006   2.06724
    A1        1.96543   0.00000  -0.00029   0.00032   0.00003   1.96546
    A2        1.95090  -0.00001   0.00014  -0.00008   0.00006   1.95096
    A3        1.85206  -0.00000  -0.00006  -0.00011  -0.00017   1.85188
    A4        1.96793  -0.00002   0.00002  -0.00007  -0.00005   1.96788
    A5        1.86162   0.00003   0.00022  -0.00013   0.00009   1.86171
    A6        1.85606   0.00001  -0.00000   0.00005   0.00004   1.85611
    A7        2.08750   0.00001   0.00182  -0.00026   0.00156   2.08906
    A8        2.05556   0.00003   0.00099   0.00002   0.00101   2.05657
    A9        1.96048  -0.00005   0.00052  -0.00019   0.00033   1.96081
   A10        1.91616  -0.00010  -0.00026  -0.00003  -0.00029   1.91587
   A11        1.86428   0.00003  -0.00023   0.00004  -0.00019   1.86409
   A12        1.85019   0.00003   0.00036  -0.00001   0.00035   1.85054
   A13        1.97113   0.00002  -0.00046   0.00021  -0.00025   1.97088
   A14        1.95279   0.00004   0.00124  -0.00050   0.00074   1.95353
   A15        1.90332  -0.00002  -0.00067   0.00030  -0.00037   1.90295
   A16        1.89257   0.00002   0.00044  -0.00007   0.00037   1.89294
   A17        1.92980   0.00001   0.00023  -0.00015   0.00007   1.92987
   A18        1.95410  -0.00005  -0.00136   0.00061  -0.00074   1.95336
   A19        1.89587  -0.00001   0.00023  -0.00013   0.00010   1.89597
   A20        1.88532   0.00002   0.00107  -0.00058   0.00049   1.88581
   A21        1.90478   0.00000  -0.00054   0.00029  -0.00025   1.90453
   A22        1.95740   0.00002   0.00042  -0.00009   0.00033   1.95773
   A23        1.86562  -0.00001   0.00007  -0.00006   0.00000   1.86562
   A24        1.83265  -0.00001  -0.00014   0.00005  -0.00008   1.83257
   A25        1.96354  -0.00000  -0.00005  -0.00015  -0.00020   1.96334
   A26        1.92847   0.00000   0.00004  -0.00008  -0.00004   1.92843
   A27        1.91052   0.00000  -0.00036   0.00035  -0.00000   1.91051
   A28        1.86953  -0.00000  -0.00053   0.00020  -0.00033   1.86921
   A29        1.93633   0.00000   0.00003   0.00013   0.00016   1.93649
   A30        1.96019  -0.00003  -0.00009  -0.00018  -0.00027   1.95992
   A31        1.89465  -0.00000   0.00039  -0.00021   0.00017   1.89483
   A32        1.89090   0.00001   0.00049  -0.00018   0.00031   1.89121
   A33        1.91023   0.00001  -0.00025   0.00023  -0.00003   1.91020
    D1       -2.45943   0.00001   0.00922   0.00038   0.00960  -2.44982
    D2        1.33709   0.00004   0.00365   0.00115   0.00480   1.34189
    D3        1.72449  -0.00000   0.00949   0.00013   0.00961   1.73410
    D4       -0.76218   0.00003   0.00392   0.00089   0.00481  -0.75737
    D5       -0.37976   0.00000   0.00935   0.00025   0.00960  -0.37016
    D6       -2.86643   0.00003   0.00378   0.00102   0.00480  -2.86163
    D7        2.19936   0.00001  -0.00913  -0.00006  -0.00919   2.19017
    D8       -1.94091  -0.00001  -0.00998   0.00020  -0.00978  -1.95070
    D9        0.08712   0.00000  -0.01069   0.00056  -0.01013   0.07699
   D10       -1.56416   0.00001  -0.00371  -0.00071  -0.00442  -1.56858
   D11        0.57875  -0.00001  -0.00456  -0.00045  -0.00501   0.57374
   D12        2.60678  -0.00000  -0.00527  -0.00009  -0.00536   2.60143
   D13       -1.01494   0.00001   0.01309  -0.00045   0.01264  -1.00230
   D14        1.14480   0.00002   0.01334  -0.00074   0.01260   1.15740
   D15       -3.10984   0.00001   0.01290  -0.00034   0.01256  -3.09728
   D16        2.73621   0.00002   0.00745   0.00029   0.00774   2.74396
   D17       -1.38723   0.00003   0.00770   0.00000   0.00770  -1.37953
   D18        0.64131   0.00002   0.00726   0.00040   0.00766   0.64897
   D19        3.13909  -0.00001  -0.00110   0.00011  -0.00099   3.13810
   D20       -1.06730   0.00000  -0.00042  -0.00018  -0.00060  -1.06790
   D21        1.06074  -0.00002  -0.00189   0.00051  -0.00138   1.05936
   D22        1.06068   0.00001  -0.00033  -0.00006  -0.00039   1.06029
   D23        3.13747   0.00002   0.00035  -0.00035  -0.00000   3.13747
   D24       -1.01767  -0.00000  -0.00112   0.00034  -0.00078  -1.01846
   D25       -1.09487  -0.00001  -0.00005  -0.00023  -0.00028  -1.09515
   D26        0.98192  -0.00000   0.00063  -0.00052   0.00011   0.98203
   D27        3.10997  -0.00002  -0.00084   0.00017  -0.00068   3.10929
   D28       -3.02392  -0.00000  -0.00317  -0.00042  -0.00359  -3.02752
   D29       -0.95885   0.00000  -0.00301  -0.00049  -0.00350  -0.96235
   D30        1.18524  -0.00000  -0.00338  -0.00023  -0.00361   1.18163
   D31        1.15534   0.00000  -0.00353  -0.00017  -0.00369   1.15165
   D32       -3.06278   0.00000  -0.00336  -0.00023  -0.00359  -3.06637
   D33       -0.91868   0.00000  -0.00373   0.00003  -0.00371  -0.92239
   D34       -0.98576  -0.00001  -0.00306  -0.00046  -0.00352  -0.98928
   D35        1.07931  -0.00000  -0.00289  -0.00053  -0.00342   1.07589
   D36       -3.05978  -0.00001  -0.00327  -0.00027  -0.00353  -3.06332
         Item               Value     Threshold  Converged?
 Maximum Force            0.000195     0.000450     YES
 RMS     Force            0.000029     0.000300     YES
 Maximum Displacement     0.026179     0.001800     NO 
 RMS     Displacement     0.008159     0.001200     NO 
 Predicted change in Energy=-7.948660D-07
 GradGradGradGradGradGradGradGradGradGradGradGradGradGradGradGradGradGrad

                          Input orientation:                          
 ---------------------------------------------------------------------
 Center     Atomic      Atomic             Coordinates (Angstroms)
 Number     Number       Type             X           Y           Z
 ---------------------------------------------------------------------
      1          5           0       -1.762391    0.663174   -0.222900
      2          9           0       -1.547887    1.599035   -1.223206
      3          9           0       -2.121980    1.246648    0.986937
      4          9           0       -2.647022   -0.326362   -0.625045
      5          8           0       -0.366144   -0.055252    0.015024
      6          6           0       -0.324872   -1.505310    0.257720
      7          6           0        0.608620   -2.162446   -0.731117
      8          6           0        0.656553    0.669414    0.783370
      9          6           0        0.994257    2.004068    0.164841
     10          1           0       -0.010551   -1.643488    1.297942
     11          1           0       -1.349543   -1.858227    0.146367
     12          1           0        0.625901   -3.240782   -0.528801
     13          1           0        0.256439   -2.004213   -1.757139
     14          1           0        1.634012   -1.783177   -0.640638
     15          1           0        0.277065    0.765723    1.806985
     16          1           0        1.531173    0.013424    0.779292
     17          1           0        1.839788    2.416684    0.729607
     18          1           0        1.298081    1.885497   -0.881260
     19          1           0        0.162041    2.711571    0.224435
 ---------------------------------------------------------------------
                    Distance matrix (angstroms):
                    1          2          3          4          5
     1  B    0.000000
     2  F    1.386528   0.000000
     3  F    1.390486   2.310517   0.000000
     4  F    1.386894   2.296311   2.312686   0.000000
     5  O    1.588159   2.380419   2.392179   2.384448   0.000000
     6  C    2.645710   3.650461   3.366694   2.749831   1.470807
     7  C    3.723454   4.363647   4.693593   3.739205   2.438680
     8  C    2.619906   3.122515   2.845151   3.726769   1.470172
     9  C    3.089895   2.924590   3.310659   4.394740   2.472638
    10  H    3.271482   4.385606   3.592735   3.519045   2.072394
    11  H    2.581524   3.723940   3.308092   2.150614   2.057922
    12  H    4.586763   5.350830   5.475888   4.383506   3.380459
    13  H    3.680288   4.064982   4.873903   3.539336   2.706773
    14  H    4.206507   4.680089   5.092772   4.522146   2.723278
    15  H    2.879293   3.634132   2.580539   3.956981   2.073365
    16  H    3.503446   4.000597   3.861281   4.420965   2.046616
    17  H    4.117980   3.994793   4.138938   5.430548   3.389283
    18  H    3.360654   2.880715   3.949063   4.530099   2.709147
    19  H    2.845958   2.501450   2.818538   4.223918   2.824561
                    6          7          8          9         10
     6  C    0.000000
     7  C    1.510310   0.000000
     8  C    2.443139   3.211760   0.000000
     9  C    3.750262   4.279170   1.509279   0.000000
    10  H    1.095423   2.183981   2.461570   3.949458   0.000000
    11  H    1.089450   2.167240   3.289250   4.517861   1.779083
    12  H    2.129425   1.097287   4.124605   5.303327   2.508667
    13  H    2.155570   1.096261   3.709792   4.506074   3.087867
    14  H    2.172898   1.097024   2.999738   3.924450   2.546015
    15  H    2.814274   3.889224   1.095936   2.178188   2.479141
    16  H    2.454281   2.804792   1.093298   2.151393   2.321910
    17  H    4.504495   4.961646   2.110898   1.097331   4.497972
    18  H    3.927954   4.108983   2.159029   1.095762   4.349157
    19  H    4.245030   4.986839   2.174248   1.093937   4.488735
                   11         12         13         14         15
    11  H    0.000000
    12  H    2.503935   0.000000
    13  H    2.494759   1.781689   0.000000
    14  H    3.086521   1.775784   1.786936   0.000000
    15  H    3.505512   4.650771   4.513973   3.785374   0.000000
    16  H    3.493165   3.622221   3.482713   2.292282   1.787427
    17  H    5.365340   5.921490   5.313684   4.422528   2.515656
    18  H    4.699085   5.182160   4.120925   3.691872   3.085941
    19  H    4.813942   6.017727   5.116070   4.808099   2.510782
                   16         17         18         19
    16  H    0.000000
    17  H    2.423504   0.000000
    18  H    2.513249   1.780589   0.000000
    19  H    3.076099   1.776793   1.787609   0.000000
 Stoichiometry    C4H10BF3O
 Framework group  C1[X(C4H10BF3O)]
 Deg. of freedom    51
 Full point group                 C1      NOp   1
 Largest Abelian subgroup         C1      NOp   1
 Largest concise Abelian subgroup C1      NOp   1
                         Standard orientation:                         
 ---------------------------------------------------------------------
 Center     Atomic      Atomic             Coordinates (Angstroms)
 Number     Number       Type             X           Y           Z
 ---------------------------------------------------------------------
      1          5           0       -0.938379   -0.701610   -0.045336
      2          9           0       -1.567311   -0.264295   -1.201043
      3          9           0       -1.676369   -0.428456    1.101053
      4          9           0       -0.562371   -2.033444   -0.136500
      5          8           0        0.406318    0.135726    0.068274
      6          6           0        1.639175   -0.524103    0.524300
      7          6           0        2.737762   -0.311295   -0.490025
      8          6           0        0.311429    1.526728    0.534661
      9          6           0       -0.604064    2.356754   -0.331857
     10          1           0        1.878538   -0.103588    1.507063
     11          1           0        1.390903   -1.578559    0.639992
     12          1           0        3.646410   -0.808205   -0.127426
     13          1           0        2.460543   -0.749616   -1.455848
     14          1           0        2.965147    0.752701   -0.630281
     15          1           0       -0.018696    1.490608    1.579069
     16          1           0        1.333993    1.910872    0.488884
     17          1           0       -0.522306    3.394863    0.014233
     18          1           0       -0.294842    2.313790   -1.382205
     19          1           0       -1.649688    2.046630   -0.247055
 ---------------------------------------------------------------------
 Rotational constants (GHZ):           1.7488813           1.4180388           1.0072200
 Standard basis: Aug-CC-pVDZ (5D, 7F)
 There are   315 symmetry adapted cartesian basis functions of A   symmetry.
 There are   297 symmetry adapted basis functions of A   symmetry.
   297 basis functions,   497 primitive gaussians,   315 cartesian basis functions
    37 alpha electrons       37 beta electrons
       nuclear repulsion energy       523.8524833473 Hartrees.
 NAtoms=   19 NActive=   19 NUniq=   19 SFac= 1.00D+00 NAtFMM=   60 NAOKFM=F Big=F
 Integral buffers will be    131072 words long.
 Raffenetti 2 integral format.
 Two-electron integral symmetry is turned on.
 Nuclear repulsion after empirical dispersion term =      523.8403992397 Hartrees.
 Force PCM accuracy= 1.00D-12.
 ------------------------------------------------------------------------------
 Polarizable Continuum Model (PCM)
 =================================
 Model                : C-PCM.
 Atomic radii         : UFF (Universal Force Field).
 Polarization charges : Total charges.
 Charge compensation  : None.
 Solution method      : On-the-fly selection.
 Cavity type          : Scaled VdW (van der Waals Surface) (Alpha=1.100).
 Cavity algorithm     : GePol (No added spheres)
                        Default sphere list used, NSphG=   19.
                        Lebedev-Laikov grids with approx.  5.0 points / Ang**2.
                        Smoothing algorithm: York/Karplus (Gamma=1.0000).
                        Polarization charges: spherical gaussians, with
                                              point-specific exponents (IZeta= 3).
                        Self-potential: point-specific (ISelfS= 7).
                        Self-field    : sphere-specific E.n sum rule (ISelfD= 2).
 1st derivatives      : Analytical E(r).r(x)/FMM algorithm (CHGder, D1EAlg=3).
                        Cavity 1st derivative terms included.
 Solvent              : Water, Eps=  78.355300 Eps(inf)=   1.777849
 ------------------------------------------------------------------------------
 Spheres list:
 ISph  on   Nord     Re0    Alpha      Xe            Ye            Ze
    1   B      1    2.0415  1.100     -0.938379     -0.701610     -0.045336
    2   F      2    1.6820  1.100     -1.567311     -0.264295     -1.201043
    3   F      3    1.6820  1.100     -1.676369     -0.428456      1.101053
    4   F      4    1.6820  1.100     -0.562371     -2.033444     -0.136500
    5   O      5    1.7500  1.100      0.406318      0.135726      0.068274
    6   C      6    1.9255  1.100      1.639175     -0.524103      0.524300
    7   C      7    1.9255  1.100      2.737762     -0.311295     -0.490025
    8   C      8    1.9255  1.100      0.311429      1.526728      0.534661
    9   C      9    1.9255  1.100     -0.604064      2.356754     -0.331857
   10   H     10    1.4430  1.100      1.878538     -0.103588      1.507063
   11   H     11    1.4430  1.100      1.390903     -1.578559      0.639992
   12   H     12    1.4430  1.100      3.646410     -0.808205     -0.127426
   13   H     13    1.4430  1.100      2.460543     -0.749616     -1.455848
   14   H     14    1.4430  1.100      2.965147      0.752701     -0.630281
   15   H     15    1.4430  1.100     -0.018696      1.490608      1.579069
   16   H     16    1.4430  1.100      1.333993      1.910872      0.488884
   17   H     17    1.4430  1.100     -0.522306      3.394863      0.014233
   18   H     18    1.4430  1.100     -0.294842      2.313790     -1.382205
   19   H     19    1.4430  1.100     -1.649688      2.046630     -0.247055
 ------------------------------------------------------------------------------
 One-electron integrals computed using PRISM.
 NBasis=   297 RedAO= T EigKep=  2.73D-05  NBF=   297
 NBsUse=   297 1.00D-06 EigRej= -1.00D+00 NBFU=   297
 Initial guess from the checkpoint file:  "/inspire/hdd/project/materialscienceresearch/lipenghui-253107030018/g16/00-B-DFT-Shift/04-output/BF3OEt2_D2O/BF3OEt2_D2O.chk"
 B after Tr=     0.000000    0.000000    0.000000
         Rot=    0.999987    0.001843    0.000335   -0.004782 Ang=   0.59 deg.
 ExpMin= 2.38D-02 ExpMax= 1.47D+04 ExpMxC= 5.03D+02 IAcc=3 IRadAn=         5 AccDes= 0.00D+00
 Harris functional with IExCor= 4639 and IRadAn=       5 diagonalized for initial guess.
 HarFok:  IExCor= 4639 AccDes= 0.00D+00 IRadAn=         5 IDoV= 1 UseB2=F ITyADJ=14
 ICtDFT=  3500011 ScaDFX=  1.000000  1.000000  1.000000  1.000000
 FoFCou: FMM=F IPFlag=           0 FMFlag=      100000 FMFlg1=           0
         NFxFlg=           0 DoJE=T BraDBF=F KetDBF=T FulRan=T
         wScrn=  0.000000 ICntrl=       500 IOpCl=  0 I1Cent=   200000004 NGrid=           0
         NMat0=    1 NMatS0=      1 NMatT0=    0 NMatD0=    1 NMtDS0=    0 NMtDT0=    0
 Petite list used in FoFCou.
 Requested convergence on RMS density matrix=1.00D-08 within 128 cycles.
 Requested convergence on MAX density matrix=1.00D-06.
 Requested convergence on             energy=1.00D-06.
 No special actions if energy rises.
 Inv3:  Mode=1 IEnd=     7041072.
 Iteration    1 A*A^-1 deviation from unit magnitude is 4.00D-15 for   1519.
 Iteration    1 A*A^-1 deviation from orthogonality  is 2.10D-15 for   1528    809.
 Iteration    1 A^-1*A deviation from unit magnitude is 4.00D-15 for   1519.
 Iteration    1 A^-1*A deviation from orthogonality  is 1.43D-15 for   1344    366.
 Error on total polarization charges =  0.01130
 SCF Done:  E(RwB97XD) =  -558.152325518     A.U. after    9 cycles
            NFock=  9  Conv=0.86D-08     -V/T= 2.0060
 D1PCM: C-PCM CHGder 1st derivatives, ID1Alg=3 FixD1E=F DoIter=F DoCFld=F I1PDM=0.
 Calling FoFJK, ICntrl=      2127 FMM=F ISym2X=0 I1Cent= 0 IOpClX= 0 NMat=1 NMatS=1 NMatT=0.
 ***** Axes restored to original set *****
 -------------------------------------------------------------------
 Center     Atomic                   Forces (Hartrees/Bohr)
 Number     Number              X              Y              Z
 -------------------------------------------------------------------
      1        5           0.000011683    0.000003612    0.000034621
      2        9          -0.000029396   -0.000009504   -0.000037316
      3        9          -0.000007114   -0.000003528   -0.000003418
      4        9          -0.000033831    0.000001417    0.000010522
      5        8          -0.000078681    0.000028822   -0.000194127
      6        6           0.000014362   -0.000097996    0.000075689
      7        6          -0.000034301    0.000062416   -0.000001576
      8        6           0.000127378    0.000087553    0.000165106
      9        6          -0.000019919   -0.000039302   -0.000006804
     10        1           0.000012095    0.000003335    0.000005490
     11        1          -0.000002546   -0.000008393   -0.000024747
     12        1           0.000022918   -0.000030024   -0.000001035
     13        1          -0.000012032   -0.000004692   -0.000007727
     14        1           0.000011624   -0.000010415    0.000003352
     15        1          -0.000012095    0.000003402   -0.000007915
     16        1           0.000008812   -0.000019255   -0.000023084
     17        1           0.000016091    0.000025652   -0.000000298
     18        1           0.000014941    0.000002050   -0.000009975
     19        1          -0.000009988    0.000004851    0.000023242
 -------------------------------------------------------------------
 Cartesian Forces:  Max     0.000194127 RMS     0.000047643

 GradGradGradGradGradGradGradGradGradGradGradGradGradGradGradGradGradGrad
 Berny optimization.
 Using GEDIIS/GDIIS optimizer.
 FormGI is forming the generalized inverse of G from B-inverse, IUseBI=4.
 Internal  Forces:  Max     0.000198023 RMS     0.000030188
 Search for a local minimum.
 Step number  19 out of a maximum of   97
 All quantities printed in internal units (Hartrees-Bohrs-Radians)
 Mixed Optimization -- En-DIIS/RFO-DIIS
 Swapping is turned off.
 Update second derivatives using D2CorX and points   10   11   12   13   14
                                                     15   16   17   18   19
 DE= -2.31D-06 DEPred=-7.95D-07 R= 2.90D+00
 TightC=F SS=  1.41D+00  RLast= 3.85D-02 DXNew= 2.1910D+00 1.1550D-01
 Trust test= 2.90D+00 RLast= 3.85D-02 DXMaxT set to 1.30D+00
 ITU=  1  1  1  1  1  1  0  1  1  1  1  1  1  1  1  1  1  1  0
     Eigenvalues ---    0.00067   0.00242   0.00303   0.00379   0.01439
     Eigenvalues ---    0.01665   0.04526   0.05030   0.05061   0.05303
     Eigenvalues ---    0.05389   0.05604   0.05812   0.05908   0.07938
     Eigenvalues ---    0.09694   0.10525   0.12684   0.12843   0.13012
     Eigenvalues ---    0.13290   0.15931   0.15997   0.16013   0.16077
     Eigenvalues ---    0.16581   0.16976   0.21260   0.22594   0.23690
     Eigenvalues ---    0.25381   0.25798   0.28378   0.28398   0.28878
     Eigenvalues ---    0.29542   0.30403   0.31882   0.32012   0.32054
     Eigenvalues ---    0.32099   0.32152   0.32178   0.32232   0.32375
     Eigenvalues ---    0.32634   0.33601   0.37187   0.39136   0.44653
     Eigenvalues ---    0.61237
 En-DIIS/RFO-DIIS/Sim-DIIS IScMMF=       -3 using points:    19   18   17   16   15   14   13   12   11
 RFO step:  Lambda=-7.52220345D-07.
 DIIS inversion failure, remove point   9.
 DIIS inversion failure, remove point   8.
 DIIS inversion failure, remove point   7.
 DIIS inversion failure, remove point   6.
 DIIS inversion failure, remove point   5.
 RFO-DIIS uses    4 points instead of    9
 DidBck=F Rises=F RFO-DIIS coefs:    1.96330   -1.35603    0.48572   -0.09299    0.00000
                  RFO-DIIS coefs:    0.00000    0.00000    0.00000    0.00000
 Iteration  1 RMS(Cart)=  0.00569186 RMS(Int)=  0.00001287
 Iteration  2 RMS(Cart)=  0.00001524 RMS(Int)=  0.00000022
 Iteration  3 RMS(Cart)=  0.00000000 RMS(Int)=  0.00000022
 Variable       Old X    -DE/DX   Delta X   Delta X   Delta X     New X
                                 (Linear)    (Quad)   (Total)
    R1        2.62016   0.00002   0.00005   0.00004   0.00009   2.62025
    R2        2.62764  -0.00000  -0.00003  -0.00001  -0.00004   2.62759
    R3        2.62085   0.00002   0.00001   0.00007   0.00007   2.62092
    R4        3.00119   0.00005  -0.00004   0.00003  -0.00002   3.00117
    R5        2.77942   0.00009  -0.00014   0.00018   0.00004   2.77946
    R6        2.77822   0.00020  -0.00001   0.00021   0.00021   2.77843
    R7        2.85407  -0.00001   0.00005  -0.00005  -0.00000   2.85407
    R8        2.07005   0.00001  -0.00003   0.00001  -0.00002   2.07003
    R9        2.05876   0.00001  -0.00001  -0.00002  -0.00003   2.05874
   R10        2.07357   0.00003  -0.00005   0.00007   0.00002   2.07359
   R11        2.07163   0.00001   0.00001   0.00002   0.00003   2.07167
   R12        2.07307   0.00001   0.00004  -0.00001   0.00002   2.07310
   R13        2.85212  -0.00001  -0.00009   0.00004  -0.00005   2.85207
   R14        2.07102  -0.00000   0.00003  -0.00002   0.00001   2.07102
   R15        2.06603   0.00002   0.00008   0.00000   0.00008   2.06612
   R16        2.07365   0.00002  -0.00002   0.00002   0.00000   2.07365
   R17        2.07069   0.00001  -0.00003   0.00001  -0.00002   2.07067
   R18        2.06724   0.00001   0.00005   0.00003   0.00008   2.06732
    A1        1.96546  -0.00000   0.00011  -0.00005   0.00006   1.96552
    A2        1.95096  -0.00004   0.00004  -0.00013  -0.00009   1.95086
    A3        1.85188   0.00004  -0.00017   0.00010  -0.00007   1.85181
    A4        1.96788  -0.00003  -0.00004  -0.00012  -0.00016   1.96773
    A5        1.86171   0.00001   0.00002   0.00003   0.00005   1.86176
    A6        1.85611   0.00004   0.00002   0.00021   0.00024   1.85634
    A7        2.08906   0.00001   0.00093   0.00002   0.00094   2.09000
    A8        2.05657   0.00005   0.00062  -0.00011   0.00050   2.05707
    A9        1.96081  -0.00007   0.00015  -0.00028  -0.00014   1.96067
   A10        1.91587  -0.00003  -0.00022   0.00002  -0.00020   1.91567
   A11        1.86409   0.00001  -0.00010  -0.00004  -0.00014   1.86395
   A12        1.85054   0.00002   0.00023   0.00003   0.00026   1.85080
   A13        1.97088   0.00001  -0.00011   0.00005  -0.00006   1.97082
   A14        1.95353  -0.00001   0.00039  -0.00019   0.00020   1.95374
   A15        1.90295   0.00001  -0.00019   0.00013  -0.00005   1.90289
   A16        1.89294   0.00002   0.00024   0.00003   0.00027   1.89321
   A17        1.92987  -0.00001   0.00002  -0.00000   0.00001   1.92989
   A18        1.95336   0.00001  -0.00037   0.00004  -0.00032   1.95303
   A19        1.89597  -0.00001   0.00004  -0.00004   0.00000   1.89597
   A20        1.88581  -0.00002   0.00021  -0.00012   0.00009   1.88590
   A21        1.90453   0.00001  -0.00012   0.00008  -0.00004   1.90449
   A22        1.95773   0.00003   0.00018  -0.00018  -0.00001   1.95773
   A23        1.86562  -0.00001  -0.00001  -0.00012  -0.00012   1.86550
   A24        1.83257  -0.00002  -0.00002  -0.00023  -0.00026   1.83231
   A25        1.96334  -0.00001  -0.00017   0.00006  -0.00011   1.96323
   A26        1.92843   0.00000  -0.00004   0.00028   0.00024   1.92867
   A27        1.91051   0.00001   0.00007   0.00018   0.00025   1.91076
   A28        1.86921   0.00002  -0.00018   0.00010  -0.00009   1.86912
   A29        1.93649   0.00001   0.00014   0.00007   0.00021   1.93669
   A30        1.95992  -0.00002  -0.00025  -0.00007  -0.00032   1.95960
   A31        1.89483  -0.00002   0.00008  -0.00006   0.00002   1.89485
   A32        1.89121  -0.00001   0.00019  -0.00013   0.00006   1.89127
   A33        1.91020   0.00001   0.00004   0.00009   0.00012   1.91032
    D1       -2.44982   0.00001   0.00645   0.00064   0.00709  -2.44273
    D2        1.34189   0.00005   0.00365   0.00137   0.00502   1.34690
    D3        1.73410  -0.00001   0.00640   0.00064   0.00703   1.74114
    D4       -0.75737   0.00003   0.00359   0.00136   0.00496  -0.75241
    D5       -0.37016   0.00000   0.00642   0.00065   0.00707  -0.36309
    D6       -2.86163   0.00004   0.00362   0.00137   0.00499  -2.85664
    D7        2.19017  -0.00001  -0.00580   0.00051  -0.00529   2.18488
    D8       -1.95070  -0.00001  -0.00613   0.00056  -0.00557  -1.95626
    D9        0.07699   0.00001  -0.00628   0.00071  -0.00557   0.07142
   D10       -1.56858  -0.00001  -0.00300  -0.00013  -0.00312  -1.57171
   D11        0.57374  -0.00001  -0.00333  -0.00007  -0.00340   0.57034
   D12        2.60143   0.00001  -0.00348   0.00007  -0.00341   2.59802
   D13       -1.00230  -0.00000   0.00838  -0.00036   0.00802  -0.99428
   D14        1.15740  -0.00000   0.00827  -0.00049   0.00778   1.16518
   D15       -3.09728  -0.00001   0.00834  -0.00045   0.00789  -3.08939
   D16        2.74396   0.00001   0.00551   0.00021   0.00572   2.74968
   D17       -1.37953   0.00001   0.00540   0.00008   0.00549  -1.37404
   D18        0.64897   0.00001   0.00547   0.00012   0.00559   0.65457
   D19        3.13810  -0.00000  -0.00068   0.00027  -0.00041   3.13769
   D20       -1.06790  -0.00000  -0.00047   0.00024  -0.00023  -1.06813
   D21        1.05936   0.00000  -0.00087   0.00037  -0.00050   1.05886
   D22        1.06029   0.00000  -0.00033   0.00027  -0.00006   1.06023
   D23        3.13747   0.00000  -0.00013   0.00025   0.00012   3.13759
   D24       -1.01846   0.00001  -0.00052   0.00037  -0.00015  -1.01860
   D25       -1.09515  -0.00001  -0.00030   0.00020  -0.00009  -1.09525
   D26        0.98203  -0.00001  -0.00009   0.00018   0.00008   0.98211
   D27        3.10929  -0.00000  -0.00049   0.00030  -0.00019   3.10910
   D28       -3.02752   0.00000  -0.00249   0.00011  -0.00237  -3.02989
   D29       -0.96235   0.00000  -0.00243   0.00014  -0.00228  -0.96463
   D30        1.18163   0.00001  -0.00246   0.00025  -0.00220   1.17943
   D31        1.15165   0.00000  -0.00248   0.00036  -0.00213   1.14952
   D32       -3.06637   0.00000  -0.00242   0.00039  -0.00204  -3.06841
   D33       -0.92239   0.00001  -0.00245   0.00050  -0.00196  -0.92435
   D34       -0.98928  -0.00001  -0.00243  -0.00011  -0.00254  -0.99182
   D35        1.07589  -0.00001  -0.00237  -0.00008  -0.00245   1.07344
   D36       -3.06332  -0.00000  -0.00240   0.00003  -0.00237  -3.06569
         Item               Value     Threshold  Converged?
 Maximum Force            0.000198     0.000450     YES
 RMS     Force            0.000030     0.000300     YES
 Maximum Displacement     0.019245     0.001800     NO 
 RMS     Displacement     0.005693     0.001200     NO 
 Predicted change in Energy=-3.584359D-07
 GradGradGradGradGradGradGradGradGradGradGradGradGradGradGradGradGradGrad

                          Input orientation:                          
 ---------------------------------------------------------------------
 Center     Atomic      Atomic             Coordinates (Angstroms)
 Number     Number       Type             X           Y           Z
 ---------------------------------------------------------------------
      1          5           0       -1.759476    0.663725   -0.226583
      2          9           0       -1.543583    1.592338   -1.233390
      3          9           0       -2.117170    1.256083    0.979466
      4          9           0       -2.646659   -0.326484   -0.621518
      5          8           0       -0.364570   -0.055954    0.015329
      6          6           0       -0.323984   -1.505882    0.259043
      7          6           0        0.606181   -2.164396   -0.732009
      8          6           0        0.658357    0.668685    0.783605
      9          6           0        0.991215    2.006221    0.168748
     10          1           0       -0.006605   -1.643402    1.298410
     11          1           0       -1.349243   -1.858128    0.151172
     12          1           0        0.623667   -3.242613   -0.529019
     13          1           0        0.251117   -2.006724   -1.757141
     14          1           0        1.631936   -1.785325   -0.644733
     15          1           0        0.280995    0.760752    1.808399
     16          1           0        1.534423    0.014595    0.775073
     17          1           0        1.835565    2.420052    0.734391
     18          1           0        1.294939    1.891903   -0.877844
     19          1           0        0.156433    2.710534    0.231015
 ---------------------------------------------------------------------
                    Distance matrix (angstroms):
                    1          2          3          4          5
     1  B    0.000000
     2  F    1.386576   0.000000
     3  F    1.390463   2.310584   0.000000
     4  F    1.386932   2.296311   2.312580   0.000000
     5  O    1.588151   2.380386   2.392198   2.384679   0.000000
     6  C    2.646443   3.648800   3.370901   2.749761   1.470827
     7  C    3.721566   4.357283   4.695260   3.737793   2.438524
     8  C    2.620386   3.125690   2.843756   3.726643   1.470282
     9  C    3.086241   2.926173   3.298791   4.393195   2.472702
    10  H    3.274293   4.386608   3.600448   3.519983   2.072300
    11  H    2.582775   3.722969   3.312717   2.150877   2.058122
    12  H    4.585881   5.345078   5.479597   4.382624   3.380491
    13  H    3.676463   4.055676   4.872752   3.536941   2.706699
    14  H    4.204089   4.673226   5.093524   4.520524   2.722580
    15  H    2.883416   3.643227   2.585282   3.956986   2.073370
    16  H    3.503492   3.999664   3.862279   4.421340   2.046549
    17  H    4.114909   3.996987   4.127832   5.428838   3.389432
    18  H    3.355892   2.876344   3.936541   4.530247   2.710328
    19  H    2.840692   2.506970   2.800871   4.219907   2.823371
                    6          7          8          9         10
     6  C    0.000000
     7  C    1.510309   0.000000
     8  C    2.443133   3.213434   0.000000
     9  C    3.751369   4.284118   1.509253   0.000000
    10  H    1.095411   2.183929   2.460274   3.948612   0.000000
    11  H    1.089436   2.167370   3.288650   4.517881   1.779027
    12  H    2.129629   1.097298   4.125826   5.307752   2.508828
    13  H    2.155593   1.096278   3.712014   4.512264   3.087850
    14  H    2.172677   1.097036   3.001694   3.930407   2.545735
    15  H    2.811429   3.887919   1.095939   2.178087   2.474421
    16  H    2.455975   2.807300   1.093343   2.151576   2.323275
    17  H    4.505836   4.967784   2.110811   1.097331   4.497040
    18  H    3.931713   4.116943   2.159146   1.095752   4.350688
    19  H    4.243789   4.989452   2.174035   1.093980   4.485830
                   11         12         13         14         15
    11  H    0.000000
    12  H    2.504363   0.000000
    13  H    2.494974   1.781712   0.000000
    14  H    3.086454   1.775862   1.786934   0.000000
    15  H    3.501801   4.648427   4.513634   3.784892   0.000000
    16  H    3.494549   3.624850   3.484926   2.294574   1.787622
    17  H    5.365255   5.927113   5.321141   4.430422   2.514648
    18  H    4.702479   5.189946   4.130620   3.699988   3.086015
    19  H    4.811040   6.019627   5.119985   4.812150   2.511037
                   16         17         18         19
    16  H    0.000000
    17  H    2.424575   0.000000
    18  H    2.512722   1.780595   0.000000
    19  H    3.076189   1.776865   1.787713   0.000000
 Stoichiometry    C4H10BF3O
 Framework group  C1[X(C4H10BF3O)]
 Deg. of freedom    51
 Full point group                 C1      NOp   1
 Largest Abelian subgroup         C1      NOp   1
 Largest concise Abelian subgroup C1      NOp   1
                         Standard orientation:                         
 ---------------------------------------------------------------------
 Center     Atomic      Atomic             Coordinates (Angstroms)
 Number     Number       Type             X           Y           Z
 ---------------------------------------------------------------------
      1          5           0       -0.933301   -0.706435   -0.044908
      2          9           0       -1.559281   -0.280051   -1.206346
      3          9           0       -1.677858   -0.429697    1.096336
      4          9           0       -0.550187   -2.036959   -0.125585
      5          8           0        0.406441    0.138736    0.069112
      6          6           0        1.643467   -0.512464    0.526319
      7          6           0        2.738896   -0.299363   -0.491353
      8          6           0        0.303590    1.530475    0.531943
      9          6           0       -0.623367    2.350793   -0.331581
     10          1           0        1.882557   -0.085247    1.506241
     11          1           0        1.400915   -1.567513    0.648426
     12          1           0        3.651079   -0.789259   -0.128053
     13          1           0        2.462093   -0.744377   -1.454249
     14          1           0        2.959938    0.765149   -0.637785
     15          1           0       -0.020300    1.494848    1.578322
     16          1           0        1.323029    1.922057    0.478979
     17          1           0       -0.549360    3.390119    0.012596
     18          1           0       -0.318854    2.309035   -1.383343
     19          1           0       -1.665703    2.031197   -0.241098
 ---------------------------------------------------------------------
 Rotational constants (GHZ):           1.7490677           1.4185349           1.0075267
 Standard basis: Aug-CC-pVDZ (5D, 7F)
 There are   315 symmetry adapted cartesian basis functions of A   symmetry.
 There are   297 symmetry adapted basis functions of A   symmetry.
   297 basis functions,   497 primitive gaussians,   315 cartesian basis functions
    37 alpha electrons       37 beta electrons
       nuclear repulsion energy       523.8771349141 Hartrees.
 NAtoms=   19 NActive=   19 NUniq=   19 SFac= 1.00D+00 NAtFMM=   60 NAOKFM=F Big=F
 Integral buffers will be    131072 words long.
 Raffenetti 2 integral format.
 Two-electron integral symmetry is turned on.
 Nuclear repulsion after empirical dispersion term =      523.8650464391 Hartrees.
 Force PCM accuracy= 1.00D-12.
 ------------------------------------------------------------------------------
 Polarizable Continuum Model (PCM)
 =================================
 Model                : C-PCM.
 Atomic radii         : UFF (Universal Force Field).
 Polarization charges : Total charges.
 Charge compensation  : None.
 Solution method      : On-the-fly selection.
 Cavity type          : Scaled VdW (van der Waals Surface) (Alpha=1.100).
 Cavity algorithm     : GePol (No added spheres)
                        Default sphere list used, NSphG=   19.
                        Lebedev-Laikov grids with approx.  5.0 points / Ang**2.
                        Smoothing algorithm: York/Karplus (Gamma=1.0000).
                        Polarization charges: spherical gaussians, with
                                              point-specific exponents (IZeta= 3).
                        Self-potential: point-specific (ISelfS= 7).
                        Self-field    : sphere-specific E.n sum rule (ISelfD= 2).
 1st derivatives      : Analytical E(r).r(x)/FMM algorithm (CHGder, D1EAlg=3).
                        Cavity 1st derivative terms included.
 Solvent              : Water, Eps=  78.355300 Eps(inf)=   1.777849
 ------------------------------------------------------------------------------
 Spheres list:
 ISph  on   Nord     Re0    Alpha      Xe            Ye            Ze
    1   B      1    2.0415  1.100     -0.933301     -0.706435     -0.044908
    2   F      2    1.6820  1.100     -1.559281     -0.280051     -1.206346
    3   F      3    1.6820  1.100     -1.677858     -0.429697      1.096336
    4   F      4    1.6820  1.100     -0.550187     -2.036959     -0.125585
    5   O      5    1.7500  1.100      0.406441      0.138736      0.069112
    6   C      6    1.9255  1.100      1.643467     -0.512464      0.526319
    7   C      7    1.9255  1.100      2.738896     -0.299363     -0.491353
    8   C      8    1.9255  1.100      0.303590      1.530475      0.531943
    9   C      9    1.9255  1.100     -0.623367      2.350793     -0.331581
   10   H     10    1.4430  1.100      1.882557     -0.085247      1.506241
   11   H     11    1.4430  1.100      1.400915     -1.567513      0.648426
   12   H     12    1.4430  1.100      3.651079     -0.789259     -0.128053
   13   H     13    1.4430  1.100      2.462093     -0.744377     -1.454249
   14   H     14    1.4430  1.100      2.959938      0.765149     -0.637785
   15   H     15    1.4430  1.100     -0.020300      1.494848      1.578322
   16   H     16    1.4430  1.100      1.323029      1.922057      0.478979
   17   H     17    1.4430  1.100     -0.549360      3.390119      0.012596
   18   H     18    1.4430  1.100     -0.318854      2.309035     -1.383343
   19   H     19    1.4430  1.100     -1.665703      2.031197     -0.241098
 ------------------------------------------------------------------------------
 One-electron integrals computed using PRISM.
 NBasis=   297 RedAO= T EigKep=  2.73D-05  NBF=   297
 NBsUse=   297 1.00D-06 EigRej= -1.00D+00 NBFU=   297
 Initial guess from the checkpoint file:  "/inspire/hdd/project/materialscienceresearch/lipenghui-253107030018/g16/00-B-DFT-Shift/04-output/BF3OEt2_D2O/BF3OEt2_D2O.chk"
 B after Tr=    -0.000000   -0.000000   -0.000000
         Rot=    0.999994    0.001416    0.000262   -0.002999 Ang=   0.38 deg.
 Requested convergence on RMS density matrix=1.00D-08 within 128 cycles.
 Requested convergence on MAX density matrix=1.00D-06.
 Requested convergence on             energy=1.00D-06.
 No special actions if energy rises.
 Inv3:  Mode=1 IEnd=     7031883.
 Iteration    1 A*A^-1 deviation from unit magnitude is 5.00D-15 for   1523.
 Iteration    1 A*A^-1 deviation from orthogonality  is 3.50D-15 for   1527    810.
 Iteration    1 A^-1*A deviation from unit magnitude is 5.00D-15 for   1523.
 Iteration    1 A^-1*A deviation from orthogonality  is 3.55D-15 for   1521    792.
 Error on total polarization charges =  0.01129
 SCF Done:  E(RwB97XD) =  -558.152327214     A.U. after    9 cycles
            NFock=  9  Conv=0.62D-08     -V/T= 2.0060
 D1PCM: C-PCM CHGder 1st derivatives, ID1Alg=3 FixD1E=F DoIter=F DoCFld=F I1PDM=0.
 Calling FoFJK, ICntrl=      2127 FMM=F ISym2X=0 I1Cent= 0 IOpClX= 0 NMat=1 NMatS=1 NMatT=0.
 ***** Axes restored to original set *****
 -------------------------------------------------------------------
 Center     Atomic                   Forces (Hartrees/Bohr)
 Number     Number              X              Y              Z
 -------------------------------------------------------------------
      1        5          -0.000004194   -0.000010596    0.000017879
      2        9          -0.000011311   -0.000002092   -0.000020432
      3        9          -0.000008789   -0.000008382    0.000006551
      4        9          -0.000010063    0.000000065    0.000016271
      5        8          -0.000062424    0.000028007   -0.000108656
      6        6           0.000022759   -0.000074609    0.000045844
      7        6          -0.000017584    0.000066698   -0.000007286
      8        6           0.000073411    0.000038473    0.000095977
      9        6          -0.000026080   -0.000047669   -0.000013131
     10        1           0.000008934    0.000003689    0.000005772
     11        1          -0.000013263    0.000002133   -0.000032702
     12        1           0.000019689   -0.000020571    0.000004658
     13        1          -0.000011344   -0.000007208    0.000000743
     14        1           0.000013483   -0.000024661   -0.000002307
     15        1          -0.000006804    0.000015641   -0.000008374
     16        1           0.000004953    0.000003503   -0.000007388
     17        1           0.000009164    0.000030557   -0.000003763
     18        1           0.000009823   -0.000000913   -0.000006686
     19        1           0.000009640    0.000007935    0.000017029
 -------------------------------------------------------------------
 Cartesian Forces:  Max     0.000108656 RMS     0.000031205

 GradGradGradGradGradGradGradGradGradGradGradGradGradGradGradGradGradGrad
 Berny optimization.
 Using GEDIIS/GDIIS optimizer.
 FormGI is forming the generalized inverse of G from B-inverse, IUseBI=4.
 Internal  Forces:  Max     0.000121098 RMS     0.000018229
 Search for a local minimum.
 Step number  20 out of a maximum of   97
 All quantities printed in internal units (Hartrees-Bohrs-Radians)
 Mixed Optimization -- En-DIIS/RFO-DIIS
 Swapping is turned off.
 Update second derivatives using D2CorX and points   10   11   12   13   14
                                                     15   16   17   18   19
                                                     20
 DE= -1.70D-06 DEPred=-3.58D-07 R= 4.73D+00
 TightC=F SS=  1.41D+00  RLast= 2.60D-02 DXNew= 2.1910D+00 7.8080D-02
 Trust test= 4.73D+00 RLast= 2.60D-02 DXMaxT set to 1.30D+00
 ITU=  1  1  1  1  1  1  1  0  1  1  1  1  1  1  1  1  1  1  1  0
     Eigenvalues ---    0.00109   0.00241   0.00294   0.00383   0.01156
     Eigenvalues ---    0.01681   0.04505   0.04837   0.05071   0.05292
     Eigenvalues ---    0.05395   0.05709   0.05813   0.05910   0.07842
     Eigenvalues ---    0.09674   0.10530   0.12719   0.12849   0.13029
     Eigenvalues ---    0.13244   0.15973   0.16007   0.16019   0.16078
     Eigenvalues ---    0.16534   0.17357   0.21330   0.22485   0.23392
     Eigenvalues ---    0.25388   0.25672   0.28335   0.28414   0.28874
     Eigenvalues ---    0.29515   0.30255   0.31873   0.32003   0.32047
     Eigenvalues ---    0.32117   0.32144   0.32162   0.32237   0.32315
     Eigenvalues ---    0.32570   0.33585   0.37123   0.38901   0.43841
     Eigenvalues ---    0.54969
 En-DIIS/RFO-DIIS/Sim-DIIS IScMMF=       -3 using points:    20   19   18   17   16   15   14   13   12   11
 RFO step:  Lambda=-3.01401875D-07.
 DIIS inversion failure, remove point  10.
 DIIS inversion failure, remove point   9.
 DIIS inversion failure, remove point   8.
 DIIS inversion failure, remove point   7.
 DIIS inversion failure, remove point   6.
 DIIS inversion failure, remove point   5.
 RFO-DIIS uses    4 points instead of   10
 DidBck=F Rises=F RFO-DIIS coefs:    1.12711    0.04378   -0.92912    0.75823    0.00000
                  RFO-DIIS coefs:    0.00000    0.00000    0.00000    0.00000    0.00000
 Iteration  1 RMS(Cart)=  0.00346134 RMS(Int)=  0.00000470
 Iteration  2 RMS(Cart)=  0.00000532 RMS(Int)=  0.00000275
 Iteration  3 RMS(Cart)=  0.00000000 RMS(Int)=  0.00000275
 Variable       Old X    -DE/DX   Delta X   Delta X   Delta X     New X
                                 (Linear)    (Quad)   (Total)
    R1        2.62025   0.00001  -0.00004   0.00010   0.00006   2.62031
    R2        2.62759   0.00000  -0.00007   0.00007   0.00001   2.62760
    R3        2.62092   0.00000  -0.00000   0.00004   0.00004   2.62096
    R4        3.00117   0.00002   0.00069  -0.00054   0.00015   3.00132
    R5        2.77946   0.00006   0.00039   0.00006   0.00046   2.77992
    R6        2.77843   0.00012   0.00066   0.00008   0.00074   2.77917
    R7        2.85407  -0.00000  -0.00003  -0.00002  -0.00005   2.85402
    R8        2.07003   0.00001  -0.00000   0.00001   0.00001   2.07003
    R9        2.05874   0.00002   0.00002   0.00003   0.00004   2.05878
   R10        2.07359   0.00002   0.00010  -0.00000   0.00009   2.07368
   R11        2.07167   0.00000  -0.00001   0.00001  -0.00000   2.07166
   R12        2.07310   0.00000  -0.00001   0.00001  -0.00000   2.07310
   R13        2.85207  -0.00001  -0.00013   0.00005  -0.00008   2.85199
   R14        2.07102  -0.00000  -0.00005  -0.00001  -0.00006   2.07097
   R15        2.06612   0.00000  -0.00004  -0.00001  -0.00004   2.06607
   R16        2.07365   0.00002   0.00008  -0.00000   0.00008   2.07373
   R17        2.07067   0.00001   0.00006  -0.00001   0.00005   2.07072
   R18        2.06732  -0.00000   0.00001  -0.00003  -0.00002   2.06730
    A1        1.96552   0.00001   0.00020  -0.00016   0.00004   1.96555
    A2        1.95086  -0.00001  -0.00003  -0.00004  -0.00007   1.95080
    A3        1.85181   0.00001  -0.00011   0.00010  -0.00000   1.85181
    A4        1.96773  -0.00002  -0.00003  -0.00012  -0.00016   1.96757
    A5        1.86176   0.00000  -0.00006   0.00016   0.00010   1.86186
    A6        1.85634   0.00001   0.00001   0.00011   0.00012   1.85646
    A7        2.09000  -0.00002  -0.00096   0.00010  -0.00085   2.08915
    A8        2.05707   0.00003  -0.00070  -0.00002  -0.00070   2.05636
    A9        1.96067  -0.00001  -0.00046   0.00007  -0.00038   1.96029
   A10        1.91567  -0.00000  -0.00006  -0.00006  -0.00012   1.91556
   A11        1.86395   0.00000   0.00014  -0.00001   0.00013   1.86408
   A12        1.85080  -0.00000  -0.00015  -0.00012  -0.00026   1.85054
   A13        1.97082   0.00001   0.00026  -0.00001   0.00025   1.97107
   A14        1.95374  -0.00001  -0.00050   0.00015  -0.00035   1.95339
   A15        1.90289   0.00001   0.00031   0.00004   0.00034   1.90324
   A16        1.89321   0.00001  -0.00010   0.00002  -0.00008   1.89313
   A17        1.92989  -0.00001  -0.00009   0.00003  -0.00006   1.92983
   A18        1.95303   0.00003   0.00049  -0.00009   0.00040   1.95343
   A19        1.89597  -0.00000  -0.00008   0.00001  -0.00007   1.89590
   A20        1.88590  -0.00003  -0.00042   0.00008  -0.00034   1.88556
   A21        1.90449   0.00000   0.00017  -0.00004   0.00014   1.90462
   A22        1.95773  -0.00000  -0.00028  -0.00013  -0.00041   1.95731
   A23        1.86550   0.00000  -0.00012   0.00004  -0.00009   1.86541
   A24        1.83231   0.00000   0.00004  -0.00010  -0.00006   1.83225
   A25        1.96323  -0.00000   0.00007   0.00014   0.00021   1.96344
   A26        1.92867  -0.00001   0.00008   0.00003   0.00011   1.92878
   A27        1.91076   0.00001   0.00022   0.00001   0.00022   1.91098
   A28        1.86912   0.00003   0.00022   0.00006   0.00028   1.86940
   A29        1.93669  -0.00000  -0.00001  -0.00005  -0.00006   1.93664
   A30        1.95960   0.00000  -0.00006   0.00007   0.00002   1.95961
   A31        1.89485  -0.00001  -0.00016   0.00001  -0.00015   1.89470
   A32        1.89127  -0.00002  -0.00015  -0.00008  -0.00022   1.89104
   A33        1.91032   0.00001   0.00014  -0.00002   0.00012   1.91045
    D1       -2.44273   0.00001  -0.00401   0.00048  -0.00353  -2.44627
    D2        1.34690   0.00002  -0.00046   0.00022  -0.00024   1.34666
    D3        1.74114  -0.00001  -0.00416   0.00054  -0.00363   1.73751
    D4       -0.75241   0.00000  -0.00061   0.00027  -0.00033  -0.75274
    D5       -0.36309   0.00001  -0.00410   0.00054  -0.00356  -0.36665
    D6       -2.85664   0.00002  -0.00054   0.00028  -0.00026  -2.85691
    D7        2.18488  -0.00001   0.00497   0.00015   0.00513   2.19000
    D8       -1.95626  -0.00000   0.00534   0.00010   0.00544  -1.95082
    D9        0.07142   0.00001   0.00569   0.00008   0.00577   0.07719
   D10       -1.57171  -0.00000   0.00153   0.00037   0.00190  -1.56981
   D11        0.57034   0.00000   0.00190   0.00032   0.00221   0.57255
   D12        2.59802   0.00002   0.00224   0.00030   0.00254   2.60056
   D13       -0.99428  -0.00002  -0.00583  -0.00022  -0.00605  -1.00033
   D14        1.16518  -0.00002  -0.00600  -0.00011  -0.00610   1.15908
   D15       -3.08939  -0.00001  -0.00579  -0.00013  -0.00592  -3.09531
   D16        2.74968  -0.00001  -0.00234  -0.00048  -0.00283   2.74685
   D17       -1.37404  -0.00001  -0.00251  -0.00037  -0.00288  -1.37692
   D18        0.65457   0.00000  -0.00231  -0.00039  -0.00270   0.65187
   D19        3.13769   0.00000   0.00001  -0.00013  -0.00012   3.13757
   D20       -1.06813  -0.00000  -0.00020  -0.00009  -0.00030  -1.06843
   D21        1.05886   0.00001   0.00029  -0.00019   0.00011   1.05897
   D22        1.06023   0.00000  -0.00029  -0.00007  -0.00036   1.05987
   D23        3.13759  -0.00000  -0.00050  -0.00003  -0.00054   3.13705
   D24       -1.01860   0.00001  -0.00001  -0.00012  -0.00013  -1.01874
   D25       -1.09525  -0.00001  -0.00052  -0.00023  -0.00074  -1.09599
   D26        0.98211  -0.00002  -0.00073  -0.00019  -0.00092   0.98119
   D27        3.10910  -0.00000  -0.00023  -0.00028  -0.00051   3.10859
   D28       -3.02989   0.00000   0.00128   0.00005   0.00133  -3.02856
   D29       -0.96463   0.00000   0.00122   0.00007   0.00129  -0.96334
   D30        1.17943   0.00001   0.00135   0.00007   0.00142   1.18084
   D31        1.14952  -0.00000   0.00159   0.00000   0.00159   1.15111
   D32       -3.06841  -0.00000   0.00152   0.00002   0.00155  -3.06686
   D33       -0.92435   0.00001   0.00166   0.00002   0.00168  -0.92267
   D34       -0.99182  -0.00000   0.00120  -0.00013   0.00107  -0.99075
   D35        1.07344  -0.00000   0.00114  -0.00011   0.00103   1.07447
   D36       -3.06569   0.00000   0.00127  -0.00012   0.00116  -3.06453
         Item               Value     Threshold  Converged?
 Maximum Force            0.000121     0.000450     YES
 RMS     Force            0.000018     0.000300     YES
 Maximum Displacement     0.009673     0.001800     NO 
 RMS     Displacement     0.003462     0.001200     NO 
 Predicted change in Energy=-1.622556D-08
 GradGradGradGradGradGradGradGradGradGradGradGradGradGradGradGradGradGrad

                          Input orientation:                          
 ---------------------------------------------------------------------
 Center     Atomic      Atomic             Coordinates (Angstroms)
 Number     Number       Type             X           Y           Z
 ---------------------------------------------------------------------
      1          5           0       -1.761422    0.663633   -0.224035
      2          9           0       -1.547645    1.595559   -1.228271
      3          9           0       -2.118460    1.251885    0.984219
      4          9           0       -2.648201   -0.326157   -0.621000
      5          8           0       -0.365438   -0.055410    0.014036
      6          6           0       -0.324728   -1.505597    0.257643
      7          6           0        0.608159   -2.163320   -0.731336
      8          6           0        0.657403    0.669022    0.783370
      9          6           0        0.993186    2.004893    0.166594
     10          1           0       -0.010107   -1.643269    1.297832
     11          1           0       -1.349553   -1.858168    0.146530
     12          1           0        0.625809   -3.241599   -0.528429
     13          1           0        0.255245   -2.005802   -1.757232
     14          1           0        1.633638   -1.784039   -0.641756
     15          1           0        0.278078    0.763335    1.807203
     16          1           0        1.532429    0.013551    0.777460
     17          1           0        1.838011    2.418279    0.731934
     18          1           0        1.297370    1.888248   -0.879634
     19          1           0        0.159764    2.710934    0.227289
 ---------------------------------------------------------------------
                    Distance matrix (angstroms):
                    1          2          3          4          5
     1  B    0.000000
     2  F    1.386606   0.000000
     3  F    1.390466   2.310639   0.000000
     4  F    1.386954   2.296300   2.312482   0.000000
     5  O    1.588230   2.380471   2.392355   2.384866   0.000000
     6  C    2.646065   3.649744   3.368842   2.749840   1.471068
     7  C    3.723429   4.361605   4.694806   3.740484   2.438596
     8  C    2.620231   3.125285   2.843499   3.726883   1.470673
     9  C    3.088598   2.927290   3.304221   4.394747   2.472647
    10  H    3.271846   4.385798   3.595194   3.517988   2.072603
    11  H    2.581944   3.722573   3.311400   2.150035   2.058147
    12  H    4.587196   5.348998   5.478185   4.384919   3.380627
    13  H    3.680151   4.062020   4.874684   3.541501   2.706781
    14  H    4.206188   4.678273   5.093021   4.523273   2.722962
    15  H    2.880179   3.638676   2.580577   3.955537   2.073621
    16  H    3.503577   4.001569   3.860726   4.421398   2.046819
    17  H    4.116865   3.997741   4.132528   5.430328   3.389646
    18  H    3.359420   2.881202   3.942943   4.531889   2.709499
    19  H    2.843605   2.505586   2.809283   4.222344   2.823823
                    6          7          8          9         10
     6  C    0.000000
     7  C    1.510283   0.000000
     8  C    2.443345   3.212307   0.000000
     9  C    3.750830   4.281182   1.509210   0.000000
    10  H    1.095414   2.184085   2.461083   3.949099   0.000000
    11  H    1.089458   2.167118   3.289396   4.517972   1.779267
    12  H    2.129585   1.097347   4.124896   5.305064   2.508840
    13  H    2.155526   1.096276   3.710939   4.509028   3.087921
    14  H    2.172934   1.097036   3.000254   3.926781   2.546314
    15  H    2.812928   3.888244   1.095909   2.178174   2.476742
    16  H    2.455005   2.805264   1.093319   2.151600   2.322769
    17  H    4.505462   4.964347   2.111014   1.097372   4.497994
    18  H    3.929730   4.112445   2.159086   1.095777   4.349996
    19  H    4.244383   4.987822   2.174000   1.093970   4.487093
                   11         12         13         14         15
    11  H    0.000000
    12  H    2.504297   0.000000
    13  H    2.494289   1.781704   0.000000
    14  H    3.086473   1.775682   1.787018   0.000000
    15  H    3.504182   4.649257   4.513738   3.784713   0.000000
    16  H    3.493883   3.622611   3.483338   2.292542   1.787719
    17  H    5.365748   5.923864   5.317291   4.425863   2.515638
    18  H    4.700515   5.185525   4.125509   3.695315   3.086013
    19  H    4.812614   6.018385   5.118108   4.809607   2.510631
                   16         17         18         19
    16  H    0.000000
    17  H    2.424493   0.000000
    18  H    2.513106   1.780555   0.000000
    19  H    3.076161   1.776746   1.787803   0.000000
 Stoichiometry    C4H10BF3O
 Framework group  C1[X(C4H10BF3O)]
 Deg. of freedom    51
 Full point group                 C1      NOp   1
 Largest Abelian subgroup         C1      NOp   1
 Largest concise Abelian subgroup C1      NOp   1
                         Standard orientation:                         
 ---------------------------------------------------------------------
 Center     Atomic      Atomic             Coordinates (Angstroms)
 Number     Number       Type             X           Y           Z
 ---------------------------------------------------------------------
      1          5           0       -0.936998   -0.702866   -0.045152
      2          9           0       -1.564038   -0.271275   -1.204128
      3          9           0       -1.677670   -0.425781    1.098538
      4          9           0       -0.559757   -2.034846   -0.129776
      5          8           0        0.406581    0.136528    0.067484
      6          6           0        1.640571   -0.520954    0.524678
      7          6           0        2.738582   -0.307915   -0.490183
      8          6           0        0.309549    1.528005    0.533590
      9          6           0       -0.609900    2.354981   -0.331533
     10          1           0        1.879251   -0.098592    1.506805
     11          1           0        1.393881   -1.575649    0.641643
     12          1           0        3.648389   -0.802362   -0.126944
     13          1           0        2.462024   -0.748584   -1.455143
     14          1           0        2.964050    0.756240   -0.632398
     15          1           0       -0.018376    1.491409    1.578646
     16          1           0        1.331254    1.914166    0.485158
     17          1           0       -0.530967    3.393499    0.014122
     18          1           0       -0.302401    2.312869   -1.382436
     19          1           0       -1.654387    2.041525   -0.244568
 ---------------------------------------------------------------------
 Rotational constants (GHZ):           1.7489637           1.4179229           1.0071349
 Standard basis: Aug-CC-pVDZ (5D, 7F)
 There are   315 symmetry adapted cartesian basis functions of A   symmetry.
 There are   297 symmetry adapted basis functions of A   symmetry.
   297 basis functions,   497 primitive gaussians,   315 cartesian basis functions
    37 alpha electrons       37 beta electrons
       nuclear repulsion energy       523.8334641522 Hartrees.
 NAtoms=   19 NActive=   19 NUniq=   19 SFac= 1.00D+00 NAtFMM=   60 NAOKFM=F Big=F
 Integral buffers will be    131072 words long.
 Raffenetti 2 integral format.
 Two-electron integral symmetry is turned on.
 Nuclear repulsion after empirical dispersion term =      523.8213791077 Hartrees.
 Force PCM accuracy= 1.00D-12.
 ------------------------------------------------------------------------------
 Polarizable Continuum Model (PCM)
 =================================
 Model                : C-PCM.
 Atomic radii         : UFF (Universal Force Field).
 Polarization charges : Total charges.
 Charge compensation  : None.
 Solution method      : On-the-fly selection.
 Cavity type          : Scaled VdW (van der Waals Surface) (Alpha=1.100).
 Cavity algorithm     : GePol (No added spheres)
                        Default sphere list used, NSphG=   19.
                        Lebedev-Laikov grids with approx.  5.0 points / Ang**2.
                        Smoothing algorithm: York/Karplus (Gamma=1.0000).
                        Polarization charges: spherical gaussians, with
                                              point-specific exponents (IZeta= 3).
                        Self-potential: point-specific (ISelfS= 7).
                        Self-field    : sphere-specific E.n sum rule (ISelfD= 2).
 1st derivatives      : Analytical E(r).r(x)/FMM algorithm (CHGder, D1EAlg=3).
                        Cavity 1st derivative terms included.
 Solvent              : Water, Eps=  78.355300 Eps(inf)=   1.777849
 ------------------------------------------------------------------------------
 Spheres list:
 ISph  on   Nord     Re0    Alpha      Xe            Ye            Ze
    1   B      1    2.0415  1.100     -0.936998     -0.702866     -0.045152
    2   F      2    1.6820  1.100     -1.564038     -0.271275     -1.204128
    3   F      3    1.6820  1.100     -1.677670     -0.425781      1.098538
    4   F      4    1.6820  1.100     -0.559757     -2.034846     -0.129776
    5   O      5    1.7500  1.100      0.406581      0.136528      0.067484
    6   C      6    1.9255  1.100      1.640571     -0.520954      0.524678
    7   C      7    1.9255  1.100      2.738582     -0.307915     -0.490183
    8   C      8    1.9255  1.100      0.309549      1.528005      0.533590
    9   C      9    1.9255  1.100     -0.609900      2.354981     -0.331533
   10   H     10    1.4430  1.100      1.879251     -0.098592      1.506805
   11   H     11    1.4430  1.100      1.393881     -1.575649      0.641643
   12   H     12    1.4430  1.100      3.648389     -0.802362     -0.126944
   13   H     13    1.4430  1.100      2.462024     -0.748584     -1.455143
   14   H     14    1.4430  1.100      2.964050      0.756240     -0.632398
   15   H     15    1.4430  1.100     -0.018376      1.491409      1.578646
   16   H     16    1.4430  1.100      1.331254      1.914166      0.485158
   17   H     17    1.4430  1.100     -0.530967      3.393499      0.014122
   18   H     18    1.4430  1.100     -0.302401      2.312869     -1.382436
   19   H     19    1.4430  1.100     -1.654387      2.041525     -0.244568
 ------------------------------------------------------------------------------
 One-electron integrals computed using PRISM.
 NBasis=   297 RedAO= T EigKep=  2.73D-05  NBF=   297
 NBsUse=   297 1.00D-06 EigRej= -1.00D+00 NBFU=   297
 Initial guess from the checkpoint file:  "/inspire/hdd/project/materialscienceresearch/lipenghui-253107030018/g16/00-B-DFT-Shift/04-output/BF3OEt2_D2O/BF3OEt2_D2O.chk"
 B after Tr=    -0.000000    0.000000   -0.000000
         Rot=    0.999997   -0.000663   -0.000099    0.002179 Ang=  -0.26 deg.
 Requested convergence on RMS density matrix=1.00D-08 within 128 cycles.
 Requested convergence on MAX density matrix=1.00D-06.
 Requested convergence on             energy=1.00D-06.
 No special actions if energy rises.
 Inv3:  Mode=1 IEnd=     7013523.
 Iteration    1 A*A^-1 deviation from unit magnitude is 5.00D-15 for   1525.
 Iteration    1 A*A^-1 deviation from orthogonality  is 3.16D-15 for   1524    780.
 Iteration    1 A^-1*A deviation from unit magnitude is 4.55D-15 for   1525.
 Iteration    1 A^-1*A deviation from orthogonality  is 2.81D-15 for   1519    790.
 Error on total polarization charges =  0.01130
 SCF Done:  E(RwB97XD) =  -558.152326467     A.U. after    8 cycles
            NFock=  8  Conv=0.63D-08     -V/T= 2.0060
 D1PCM: C-PCM CHGder 1st derivatives, ID1Alg=3 FixD1E=F DoIter=F DoCFld=F I1PDM=0.
 Calling FoFJK, ICntrl=      2127 FMM=F ISym2X=0 I1Cent= 0 IOpClX= 0 NMat=1 NMatS=1 NMatT=0.
 ***** Axes restored to original set *****
 -------------------------------------------------------------------
 Center     Atomic                   Forces (Hartrees/Bohr)
 Number     Number              X              Y              Z
 -------------------------------------------------------------------
      1        5          -0.000007926   -0.000001600   -0.000004139
      2        9           0.000004585   -0.000013244    0.000007049
      3        9           0.000006941    0.000004707    0.000006737
      4        9          -0.000001429    0.000003585    0.000004335
      5        8          -0.000001906    0.000005432    0.000015424
      6        6           0.000005394   -0.000001531   -0.000015469
      7        6           0.000003540   -0.000000257   -0.000000446
      8        6          -0.000017112   -0.000009033   -0.000009298
      9        6           0.000003631   -0.000001416    0.000002418
     10        1           0.000004734    0.000001235    0.000001441
     11        1           0.000007528   -0.000001515    0.000005423
     12        1           0.000001736    0.000004309   -0.000000465
     13        1           0.000000834   -0.000000282    0.000001171
     14        1           0.000000826    0.000001810   -0.000001395
     15        1           0.000001944    0.000000219   -0.000002088
     16        1           0.000001950    0.000003531   -0.000002640
     17        1          -0.000004548    0.000003178   -0.000004750
     18        1          -0.000005280   -0.000000115    0.000000585
     19        1          -0.000005439    0.000000989   -0.000003892
 -------------------------------------------------------------------
 Cartesian Forces:  Max     0.000017112 RMS     0.000005647

 GradGradGradGradGradGradGradGradGradGradGradGradGradGradGradGradGradGrad
 Berny optimization.
 Using GEDIIS/GDIIS optimizer.
 FormGI is forming the generalized inverse of G from B-inverse, IUseBI=4.
 Internal  Forces:  Max     0.000028233 RMS     0.000006687
 Search for a local minimum.
 Step number  21 out of a maximum of   97
 All quantities printed in internal units (Hartrees-Bohrs-Radians)
 Mixed Optimization -- En-DIIS/RFO-DIIS
 Swapping is turned off.
 Update second derivatives using D2CorX and points   10   11   12   13   14
                                                     15   16   17   18   19
                                                     20   21
 DE=  7.47D-07 DEPred=-1.62D-08 R=-4.61D+01
 Trust test=-4.61D+01 RLast= 1.72D-02 DXMaxT set to 6.51D-01
 ITU= -1  1  1  1  1  1  1  1  0  1  1  1  1  1  1  1  1  1  1  1
 ITU=  0
     Eigenvalues ---    0.00119   0.00241   0.00308   0.00399   0.00766
     Eigenvalues ---    0.01765   0.04526   0.04703   0.05101   0.05273
     Eigenvalues ---    0.05382   0.05521   0.05779   0.05893   0.08128
     Eigenvalues ---    0.09679   0.10555   0.12645   0.12867   0.13042
     Eigenvalues ---    0.13263   0.15988   0.15998   0.16068   0.16081
     Eigenvalues ---    0.16276   0.17055   0.21533   0.22247   0.24466
     Eigenvalues ---    0.25274   0.25406   0.28212   0.28399   0.28906
     Eigenvalues ---    0.29689   0.29923   0.31831   0.31914   0.32064
     Eigenvalues ---    0.32101   0.32155   0.32171   0.32236   0.32377
     Eigenvalues ---    0.32512   0.33595   0.36914   0.37712   0.41648
     Eigenvalues ---    0.54073
 En-DIIS/RFO-DIIS/Sim-DIIS IScMMF=       -3 using points:    21   20   19   18   17   16   15   14   13   12
 RFO step:  Lambda=-6.66979370D-08.
 DIIS inversion failure, remove point  10.
 DIIS inversion failure, remove point   9.
 DIIS inversion failure, remove point   8.
 DIIS inversion failure, remove point   7.
 DIIS inversion failure, remove point   6.
 DIIS inversion failure, remove point   5.
 RFO-DIIS uses    4 points instead of   10
 DidBck=F Rises=F RFO-DIIS coefs:    0.90340    0.35695   -0.39273    0.13238    0.00000
                  RFO-DIIS coefs:    0.00000    0.00000    0.00000    0.00000    0.00000
 Iteration  1 RMS(Cart)=  0.00065992 RMS(Int)=  0.00000031
 Iteration  2 RMS(Cart)=  0.00000029 RMS(Int)=  0.00000019
 Variable       Old X    -DE/DX   Delta X   Delta X   Delta X     New X
                                 (Linear)    (Quad)   (Total)
    R1        2.62031  -0.00001   0.00001  -0.00002  -0.00001   2.62029
    R2        2.62760   0.00000  -0.00001   0.00002   0.00001   2.62761
    R3        2.62096  -0.00000   0.00001  -0.00003  -0.00001   2.62095
    R4        3.00132  -0.00001   0.00003  -0.00007  -0.00004   3.00128
    R5        2.77992  -0.00000   0.00001  -0.00003  -0.00002   2.77990
    R6        2.77917  -0.00002   0.00002  -0.00005  -0.00003   2.77914
    R7        2.85402  -0.00000  -0.00000   0.00000  -0.00000   2.85402
    R8        2.07003   0.00000  -0.00000   0.00000   0.00000   2.07004
    R9        2.05878  -0.00001  -0.00001   0.00001  -0.00000   2.05878
   R10        2.07368  -0.00000   0.00001  -0.00001  -0.00000   2.07368
   R11        2.07166  -0.00000   0.00001  -0.00001  -0.00000   2.07166
   R12        2.07310  -0.00000  -0.00000   0.00001   0.00000   2.07310
   R13        2.85199  -0.00000   0.00000  -0.00002  -0.00001   2.85198
   R14        2.07097  -0.00000   0.00000  -0.00000  -0.00000   2.07097
   R15        2.06607  -0.00000   0.00001  -0.00000   0.00001   2.06608
   R16        2.07373  -0.00000   0.00000  -0.00000  -0.00000   2.07373
   R17        2.07072  -0.00000  -0.00000  -0.00001  -0.00001   2.07071
   R18        2.06730   0.00000   0.00002  -0.00001   0.00001   2.06731
    A1        1.96555   0.00001   0.00001   0.00000   0.00001   1.96557
    A2        1.95080   0.00000  -0.00002   0.00004   0.00001   1.95081
    A3        1.85181  -0.00002   0.00001  -0.00008  -0.00008   1.85173
    A4        1.96757   0.00001  -0.00002   0.00004   0.00002   1.96759
    A5        1.86186  -0.00001  -0.00001  -0.00001  -0.00002   1.86184
    A6        1.85646   0.00002   0.00004   0.00001   0.00005   1.85651
    A7        2.08915   0.00003   0.00012   0.00011   0.00024   2.08939
    A8        2.05636  -0.00002   0.00006  -0.00003   0.00004   2.05640
    A9        1.96029  -0.00000  -0.00004   0.00008   0.00004   1.96033
   A10        1.91556  -0.00000  -0.00000  -0.00004  -0.00004   1.91552
   A11        1.86408  -0.00000  -0.00002  -0.00000  -0.00002   1.86405
   A12        1.85054   0.00000   0.00005  -0.00001   0.00003   1.85057
   A13        1.97107  -0.00000  -0.00001  -0.00002  -0.00003   1.97105
   A14        1.95339   0.00000  -0.00001   0.00007   0.00006   1.95344
   A15        1.90324  -0.00000   0.00000  -0.00000  -0.00000   1.90323
   A16        1.89313  -0.00000   0.00003  -0.00001   0.00002   1.89315
   A17        1.92983   0.00000   0.00000   0.00001   0.00001   1.92984
   A18        1.95343  -0.00000  -0.00002  -0.00001  -0.00003   1.95339
   A19        1.89590   0.00000  -0.00001   0.00001   0.00000   1.89590
   A20        1.88556   0.00000  -0.00001   0.00001  -0.00000   1.88556
   A21        1.90462  -0.00000   0.00001  -0.00001   0.00000   1.90463
   A22        1.95731  -0.00001  -0.00001  -0.00001  -0.00002   1.95729
   A23        1.86541   0.00000  -0.00002   0.00004   0.00002   1.86543
   A24        1.83225   0.00000  -0.00005   0.00007   0.00002   1.83227
   A25        1.96344   0.00000  -0.00002   0.00002  -0.00001   1.96343
   A26        1.92878  -0.00000   0.00006  -0.00008  -0.00003   1.92876
   A27        1.91098  -0.00000   0.00004  -0.00002   0.00003   1.91101
   A28        1.86940   0.00000  -0.00001   0.00005   0.00004   1.86944
   A29        1.93664  -0.00000   0.00004  -0.00005  -0.00002   1.93662
   A30        1.95961   0.00000  -0.00005   0.00004  -0.00001   1.95960
   A31        1.89470   0.00000  -0.00000   0.00001   0.00000   1.89470
   A32        1.89104  -0.00000  -0.00000  -0.00001  -0.00001   1.89103
   A33        1.91045  -0.00000   0.00002  -0.00002  -0.00000   1.91044
    D1       -2.44627   0.00000   0.00092   0.00029   0.00121  -2.44506
    D2        1.34666   0.00000   0.00069  -0.00001   0.00069   1.34735
    D3        1.73751   0.00001   0.00091   0.00034   0.00125   1.73876
    D4       -0.75274   0.00001   0.00069   0.00004   0.00073  -0.75202
    D5       -0.36665   0.00000   0.00091   0.00029   0.00121  -0.36545
    D6       -2.85691   0.00000   0.00069  -0.00000   0.00069  -2.85622
    D7        2.19000   0.00001  -0.00066  -0.00016  -0.00082   2.18919
    D8       -1.95082   0.00000  -0.00068  -0.00020  -0.00088  -1.95171
    D9        0.07719   0.00000  -0.00067  -0.00022  -0.00088   0.07630
   D10       -1.56981  -0.00000  -0.00041   0.00008  -0.00033  -1.57014
   D11        0.57255  -0.00000  -0.00044   0.00004  -0.00040   0.57215
   D12        2.60056  -0.00000  -0.00042   0.00003  -0.00040   2.60016
   D13       -1.00033   0.00001   0.00100  -0.00023   0.00077  -0.99956
   D14        1.15908   0.00001   0.00095  -0.00019   0.00076   1.15984
   D15       -3.09531   0.00001   0.00096  -0.00016   0.00080  -3.09451
   D16        2.74685  -0.00001   0.00074  -0.00052   0.00022   2.74707
   D17       -1.37692  -0.00001   0.00069  -0.00048   0.00020  -1.37672
   D18        0.65187  -0.00001   0.00070  -0.00045   0.00025   0.65212
   D19        3.13757  -0.00000   0.00004  -0.00012  -0.00008   3.13749
   D20       -1.06843  -0.00000   0.00005  -0.00011  -0.00006  -1.06849
   D21        1.05897  -0.00000   0.00004  -0.00012  -0.00007   1.05889
   D22        1.05987   0.00000   0.00007  -0.00008  -0.00001   1.05985
   D23        3.13705   0.00000   0.00008  -0.00007   0.00001   3.13706
   D24       -1.01874   0.00000   0.00008  -0.00008  -0.00000  -1.01874
   D25       -1.09599   0.00000   0.00009  -0.00012  -0.00003  -1.09602
   D26        0.98119   0.00000   0.00010  -0.00011  -0.00001   0.98118
   D27        3.10859   0.00000   0.00009  -0.00011  -0.00002   3.10857
   D28       -3.02856  -0.00000  -0.00027  -0.00011  -0.00038  -3.02893
   D29       -0.96334  -0.00000  -0.00026  -0.00010  -0.00035  -0.96370
   D30        1.18084  -0.00000  -0.00023  -0.00014  -0.00038   1.18047
   D31        1.15111   0.00000  -0.00022  -0.00016  -0.00038   1.15073
   D32       -3.06686   0.00000  -0.00020  -0.00015  -0.00036  -3.06722
   D33       -0.92267  -0.00000  -0.00018  -0.00020  -0.00038  -0.92305
   D34       -0.99075  -0.00000  -0.00030  -0.00009  -0.00039  -0.99114
   D35        1.07447   0.00000  -0.00028  -0.00008  -0.00036   1.07410
   D36       -3.06453  -0.00000  -0.00026  -0.00013  -0.00039  -3.06492
         Item               Value     Threshold  Converged?
 Maximum Force            0.000028     0.000450     YES
 RMS     Force            0.000007     0.000300     YES
 Maximum Displacement     0.002601     0.001800     NO 
 RMS     Displacement     0.000660     0.001200     YES
 Predicted change in Energy=-2.822083D-08
 GradGradGradGradGradGradGradGradGradGradGradGradGradGradGradGradGradGrad

                          Input orientation:                          
 ---------------------------------------------------------------------
 Center     Atomic      Atomic             Coordinates (Angstroms)
 Number     Number       Type             X           Y           Z
 ---------------------------------------------------------------------
      1          5           0       -1.761135    0.663696   -0.224376
      2          9           0       -1.547051    1.594549   -1.229532
      3          9           0       -2.117854    1.253262    0.983341
      4          9           0       -2.648292   -0.326156   -0.620316
      5          8           0       -0.365366   -0.055526    0.014281
      6          6           0       -0.324598   -1.505716    0.257801
      7          6           0        0.607914   -2.163361   -0.731581
      8          6           0        0.657459    0.668938    0.783576
      9          6           0        0.992889    2.004968    0.166971
     10          1           0       -0.009522   -1.643423    1.297848
     11          1           0       -1.349473   -1.858280    0.147130
     12          1           0        0.625722   -3.241645   -0.528726
     13          1           0        0.254586   -2.005824   -1.757330
     14          1           0        1.633402   -1.784007   -0.642381
     15          1           0        0.278290    0.763019    1.807487
     16          1           0        1.532621    0.013646    0.777390
     17          1           0        1.837479    2.418629    0.732458
     18          1           0        1.297262    1.888500   -0.879218
     19          1           0        0.159207    2.710713    0.227592
 ---------------------------------------------------------------------
                    Distance matrix (angstroms):
                    1          2          3          4          5
     1  B    0.000000
     2  F    1.386600   0.000000
     3  F    1.390473   2.310649   0.000000
     4  F    1.386947   2.296298   2.312496   0.000000
     5  O    1.588210   2.380378   2.392324   2.384891   0.000000
     6  C    2.646221   3.649411   3.369589   2.749910   1.471059
     7  C    3.723157   4.360472   4.695112   3.740398   2.438555
     8  C    2.620228   3.125576   2.843185   3.726810   1.470658
     9  C    3.088173   2.927450   3.302763   4.394560   2.472612
    10  H    3.272326   4.385899   3.596492   3.518189   2.072579
    11  H    2.582218   3.722401   3.312303   2.150189   2.058163
    12  H    4.587092   5.347977   5.478845   4.384933   3.380602
    13  H    3.679595   4.060438   4.874565   3.541298   2.706771
    14  H    4.205813   4.677037   5.093122   4.523132   2.722853
    15  H    2.880554   3.639615   2.580903   3.955428   2.073619
    16  H    3.503560   4.001422   3.860703   4.421435   2.046821
    17  H    4.116473   3.997944   4.131063   5.430100   3.389653
    18  H    3.358981   2.880841   3.941531   4.532011   2.709596
    19  H    2.842933   2.506063   2.807192   4.221797   2.823608
                    6          7          8          9         10
     6  C    0.000000
     7  C    1.510282   0.000000
     8  C    2.443358   3.212487   0.000000
     9  C    3.750857   4.281421   1.509203   0.000000
    10  H    1.095416   2.184066   2.460966   3.948983   0.000000
    11  H    1.089457   2.167157   3.289327   4.517935   1.779265
    12  H    2.129597   1.097345   4.125022   5.305257   2.508829
    13  H    2.155531   1.096275   3.711181   4.509377   3.087912
    14  H    2.172910   1.097038   3.000460   3.927040   2.546262
    15  H    2.812857   3.888343   1.095908   2.178161   2.476596
    16  H    2.455137   2.805608   1.093323   2.151578   2.322705
    17  H    4.505593   4.964864   2.111038   1.097371   4.497927
    18  H    3.929878   4.112732   2.159065   1.095773   4.349917
    19  H    4.244203   4.987780   2.173987   1.093973   4.486917
                   11         12         13         14         15
    11  H    0.000000
    12  H    2.504371   0.000000
    13  H    2.494342   1.781703   0.000000
    14  H    3.086484   1.775681   1.787022   0.000000
    15  H    3.503941   4.649294   4.513865   3.784907   0.000000
    16  H    3.493966   3.622889   3.483739   2.292915   1.787738
    17  H    5.365746   5.924327   5.317930   4.426509   2.515513
    18  H    4.700740   5.185769   4.126016   3.695455   3.086000
    19  H    4.812306   6.018324   5.118079   4.809638   2.510730
                   16         17         18         19
    16  H    0.000000
    17  H    2.424645   0.000000
    18  H    2.512931   1.780553   0.000000
    19  H    3.076153   1.776739   1.787801   0.000000
 Stoichiometry    C4H10BF3O
 Framework group  C1[X(C4H10BF3O)]
 Deg. of freedom    51
 Full point group                 C1      NOp   1
 Largest Abelian subgroup         C1      NOp   1
 Largest concise Abelian subgroup C1      NOp   1
                         Standard orientation:                         
 ---------------------------------------------------------------------
 Center     Atomic      Atomic             Coordinates (Angstroms)
 Number     Number       Type             X           Y           Z
 ---------------------------------------------------------------------
      1          5           0       -0.936537   -0.703301   -0.045126
      2          9           0       -1.562812   -0.272895   -1.204948
      3          9           0       -1.678181   -0.425500    1.097768
      4          9           0       -0.558738   -2.035204   -0.128340
      5          8           0        0.406583    0.136752    0.067794
      6          6           0        1.641025   -0.519873    0.524972
      7          6           0        2.738578   -0.306851   -0.490385
      8          6           0        0.308764    1.528298    0.533480
      9          6           0       -0.611561    2.354335   -0.331596
     10          1           0        1.879828   -0.096771    1.506753
     11          1           0        1.394894   -1.574614    0.642690
     12          1           0        3.648790   -0.800561   -0.127161
     13          1           0        2.461945   -0.748247   -1.454990
     14          1           0        2.963388    0.757352   -0.633299
     15          1           0       -0.018775    1.491834    1.578661
     16          1           0        1.330179    1.915171    0.484532
     17          1           0       -0.533556    3.392974    0.013901
     18          1           0       -0.304178    2.312361   -1.382534
     19          1           0       -1.655748    2.039923   -0.244436
 ---------------------------------------------------------------------
 Rotational constants (GHZ):           1.7490128           1.4179943           1.0072105
 Standard basis: Aug-CC-pVDZ (5D, 7F)
 There are   315 symmetry adapted cartesian basis functions of A   symmetry.
 There are   297 symmetry adapted basis functions of A   symmetry.
   297 basis functions,   497 primitive gaussians,   315 cartesian basis functions
    37 alpha electrons       37 beta electrons
       nuclear repulsion energy       523.8400553057 Hartrees.
 NAtoms=   19 NActive=   19 NUniq=   19 SFac= 1.00D+00 NAtFMM=   60 NAOKFM=F Big=F
 Integral buffers will be    131072 words long.
 Raffenetti 2 integral format.
 Two-electron integral symmetry is turned on.
 Nuclear repulsion after empirical dispersion term =      523.8279696941 Hartrees.
 Force PCM accuracy= 1.00D-12.
 ------------------------------------------------------------------------------
 Polarizable Continuum Model (PCM)
 =================================
 Model                : C-PCM.
 Atomic radii         : UFF (Universal Force Field).
 Polarization charges : Total charges.
 Charge compensation  : None.
 Solution method      : On-the-fly selection.
 Cavity type          : Scaled VdW (van der Waals Surface) (Alpha=1.100).
 Cavity algorithm     : GePol (No added spheres)
                        Default sphere list used, NSphG=   19.
                        Lebedev-Laikov grids with approx.  5.0 points / Ang**2.
                        Smoothing algorithm: York/Karplus (Gamma=1.0000).
                        Polarization charges: spherical gaussians, with
                                              point-specific exponents (IZeta= 3).
                        Self-potential: point-specific (ISelfS= 7).
                        Self-field    : sphere-specific E.n sum rule (ISelfD= 2).
 1st derivatives      : Analytical E(r).r(x)/FMM algorithm (CHGder, D1EAlg=3).
                        Cavity 1st derivative terms included.
 Solvent              : Water, Eps=  78.355300 Eps(inf)=   1.777849
 ------------------------------------------------------------------------------
 Spheres list:
 ISph  on   Nord     Re0    Alpha      Xe            Ye            Ze
    1   B      1    2.0415  1.100     -0.936537     -0.703301     -0.045126
    2   F      2    1.6820  1.100     -1.562812     -0.272895     -1.204948
    3   F      3    1.6820  1.100     -1.678181     -0.425500      1.097768
    4   F      4    1.6820  1.100     -0.558738     -2.035204     -0.128340
    5   O      5    1.7500  1.100      0.406583      0.136752      0.067794
    6   C      6    1.9255  1.100      1.641025     -0.519873      0.524972
    7   C      7    1.9255  1.100      2.738578     -0.306851     -0.490385
    8   C      8    1.9255  1.100      0.308764      1.528298      0.533480
    9   C      9    1.9255  1.100     -0.611561      2.354335     -0.331596
   10   H     10    1.4430  1.100      1.879828     -0.096771      1.506753
   11   H     11    1.4430  1.100      1.394894     -1.574614      0.642690
   12   H     12    1.4430  1.100      3.648790     -0.800561     -0.127161
   13   H     13    1.4430  1.100      2.461945     -0.748247     -1.454990
   14   H     14    1.4430  1.100      2.963388      0.757352     -0.633299
   15   H     15    1.4430  1.100     -0.018775      1.491834      1.578661
   16   H     16    1.4430  1.100      1.330179      1.915171      0.484532
   17   H     17    1.4430  1.100     -0.533556      3.392974      0.013901
   18   H     18    1.4430  1.100     -0.304178      2.312361     -1.382534
   19   H     19    1.4430  1.100     -1.655748      2.039923     -0.244436
 ------------------------------------------------------------------------------
 One-electron integrals computed using PRISM.
 NBasis=   297 RedAO= T EigKep=  2.73D-05  NBF=   297
 NBsUse=   297 1.00D-06 EigRej= -1.00D+00 NBFU=   297
 Initial guess from the checkpoint file:  "/inspire/hdd/project/materialscienceresearch/lipenghui-253107030018/g16/00-B-DFT-Shift/04-output/BF3OEt2_D2O/BF3OEt2_D2O.chk"
 B after Tr=     0.000000   -0.000000    0.000000
         Rot=    1.000000    0.000171    0.000070   -0.000264 Ang=   0.04 deg.
 Requested convergence on RMS density matrix=1.00D-08 within 128 cycles.
 Requested convergence on MAX density matrix=1.00D-06.
 Requested convergence on             energy=1.00D-06.
 No special actions if energy rises.
 Inv3:  Mode=1 IEnd=     7004352.
 Iteration    1 A*A^-1 deviation from unit magnitude is 3.89D-15 for   1501.
 Iteration    1 A*A^-1 deviation from orthogonality  is 3.42D-15 for   1484   1283.
 Iteration    1 A^-1*A deviation from unit magnitude is 3.89D-15 for   1501.
 Iteration    1 A^-1*A deviation from orthogonality  is 1.78D-15 for   1406    349.
 Error on total polarization charges =  0.01129
 SCF Done:  E(RwB97XD) =  -558.152326624     A.U. after    7 cycles
            NFock=  7  Conv=0.66D-08     -V/T= 2.0060
 D1PCM: C-PCM CHGder 1st derivatives, ID1Alg=3 FixD1E=F DoIter=F DoCFld=F I1PDM=0.
 Calling FoFJK, ICntrl=      2127 FMM=F ISym2X=0 I1Cent= 0 IOpClX= 0 NMat=1 NMatS=1 NMatT=0.
 ***** Axes restored to original set *****
 -------------------------------------------------------------------
 Center     Atomic                   Forces (Hartrees/Bohr)
 Number     Number              X              Y              Z
 -------------------------------------------------------------------
      1        5          -0.000003283   -0.000003050    0.000001446
      2        9          -0.000001203   -0.000003075    0.000000730
      3        9           0.000002742    0.000001197    0.000001358
      4        9          -0.000001567    0.000000355    0.000007660
      5        8           0.000003403   -0.000000999    0.000025192
      6        6           0.000008275    0.000003760   -0.000015390
      7        6           0.000004645   -0.000003042    0.000000194
      8        6          -0.000012182   -0.000007970   -0.000009798
      9        6           0.000002606    0.000004306   -0.000001158
     10        1           0.000001754    0.000001051    0.000000336
     11        1           0.000005936   -0.000000912    0.000002878
     12        1           0.000001535    0.000002433   -0.000000557
     13        1           0.000000725    0.000000174    0.000000547
     14        1          -0.000000417    0.000001885   -0.000001748
     15        1           0.000000939   -0.000000151   -0.000001961
     16        1          -0.000000399    0.000001790   -0.000000572
     17        1          -0.000003957    0.000000266   -0.000003828
     18        1          -0.000004747    0.000001249   -0.000002013
     19        1          -0.000004804    0.000000734   -0.000003315
 -------------------------------------------------------------------
 Cartesian Forces:  Max     0.000025192 RMS     0.000005305

 GradGradGradGradGradGradGradGradGradGradGradGradGradGradGradGradGradGrad
 Berny optimization.
 Using GEDIIS/GDIIS optimizer.
 FormGI is forming the generalized inverse of G from B-inverse, IUseBI=4.
 Internal  Forces:  Max     0.000020593 RMS     0.000003987
 Search for a local minimum.
 Step number  22 out of a maximum of   97
 All quantities printed in internal units (Hartrees-Bohrs-Radians)
 Mixed Optimization -- En-DIIS/RFO-DIIS
 Swapping is turned off.
 Update second derivatives using D2CorX and points   10   11   12   13   14
                                                     15   16   17   18   19
                                                     20   21   22
 DE= -1.57D-07 DEPred=-2.82D-08 R= 5.56D+00
 Trust test= 5.56D+00 RLast= 3.45D-03 DXMaxT set to 6.51D-01
 ITU=  0 -1  1  1  1  1  1  1  1  0  1  1  1  1  1  1  1  1  1  1
 ITU=  1  0
     Eigenvalues ---    0.00107   0.00243   0.00303   0.00399   0.00531
     Eigenvalues ---    0.01571   0.04521   0.04710   0.05072   0.05195
     Eigenvalues ---    0.05341   0.05489   0.05783   0.05895   0.07983
     Eigenvalues ---    0.09658   0.10563   0.12503   0.12938   0.13086
     Eigenvalues ---    0.13260   0.15975   0.15980   0.16030   0.16076
     Eigenvalues ---    0.16507   0.16777   0.21219   0.22662   0.23767
     Eigenvalues ---    0.25372   0.27022   0.28258   0.28657   0.28945
     Eigenvalues ---    0.29568   0.30530   0.31802   0.31964   0.32060
     Eigenvalues ---    0.32100   0.32164   0.32178   0.32250   0.32402
     Eigenvalues ---    0.32581   0.33937   0.36509   0.37685   0.41270
     Eigenvalues ---    0.50361
 En-DIIS/RFO-DIIS/Sim-DIIS IScMMF=       -3 using points:    22   21   20   19   18   17   16   15   14   13
 RFO step:  Lambda=-6.42187302D-08.
 DIIS inversion failure, remove point  10.
 DIIS inversion failure, remove point   9.
 DIIS inversion failure, remove point   8.
 DIIS inversion failure, remove point   7.
 DIIS inversion failure, remove point   6.
 DIIS inversion failure, remove point   5.
 DIIS inversion failure, remove point   4.
 RFO-DIIS uses    3 points instead of   10
 DidBck=F Rises=F RFO-DIIS coefs:    3.00000   -1.87542   -0.12458    0.00000    0.00000
                  RFO-DIIS coefs:    0.00000    0.00000    0.00000    0.00000    0.00000
 Iteration  1 RMS(Cart)=  0.00115728 RMS(Int)=  0.00000104
 Iteration  2 RMS(Cart)=  0.00000117 RMS(Int)=  0.00000010
 Iteration  3 RMS(Cart)=  0.00000000 RMS(Int)=  0.00000010
 Variable       Old X    -DE/DX   Delta X   Delta X   Delta X     New X
                                 (Linear)    (Quad)   (Total)
    R1        2.62029   0.00000  -0.00002   0.00005   0.00003   2.62033
    R2        2.62761  -0.00000   0.00003  -0.00002   0.00001   2.62762
    R3        2.62095  -0.00000  -0.00002  -0.00001  -0.00003   2.62092
    R4        3.00128   0.00000  -0.00006   0.00003  -0.00002   3.00126
    R5        2.77990  -0.00001   0.00002  -0.00006  -0.00004   2.77986
    R6        2.77914  -0.00002   0.00003  -0.00012  -0.00009   2.77905
    R7        2.85402   0.00000  -0.00001   0.00002   0.00000   2.85402
    R8        2.07004  -0.00000   0.00001  -0.00001  -0.00000   2.07004
    R9        2.05878  -0.00000   0.00000  -0.00001  -0.00001   2.05877
   R10        2.07368  -0.00000   0.00000   0.00000   0.00001   2.07369
   R11        2.07166  -0.00000  -0.00000   0.00000  -0.00000   2.07166
   R12        2.07310  -0.00000   0.00001  -0.00001   0.00000   2.07310
   R13        2.85198   0.00000  -0.00004   0.00004   0.00000   2.85198
   R14        2.07097  -0.00000  -0.00001   0.00000  -0.00001   2.07096
   R15        2.06608  -0.00000   0.00001   0.00000   0.00001   2.06609
   R16        2.07373  -0.00000   0.00001  -0.00001  -0.00001   2.07372
   R17        2.07071  -0.00000  -0.00001   0.00001  -0.00000   2.07071
   R18        2.06731   0.00000   0.00001   0.00001   0.00002   2.06733
    A1        1.96557   0.00000   0.00003  -0.00003  -0.00000   1.96556
    A2        1.95081   0.00000   0.00001   0.00002   0.00003   1.95084
    A3        1.85173  -0.00001  -0.00016   0.00006  -0.00010   1.85163
    A4        1.96759  -0.00000   0.00002  -0.00004  -0.00002   1.96757
    A5        1.86184  -0.00000  -0.00003   0.00000  -0.00003   1.86181
    A6        1.85651   0.00001   0.00012   0.00001   0.00013   1.85665
    A7        2.08939   0.00001   0.00036   0.00012   0.00048   2.08987
    A8        2.05640  -0.00001  -0.00002   0.00003   0.00001   2.05641
    A9        1.96033   0.00000   0.00003   0.00012   0.00015   1.96048
   A10        1.91552   0.00000  -0.00009   0.00010   0.00000   1.91552
   A11        1.86405  -0.00000  -0.00003  -0.00001  -0.00004   1.86402
   A12        1.85057  -0.00000   0.00003  -0.00001   0.00002   1.85059
   A13        1.97105  -0.00000  -0.00002  -0.00001  -0.00003   1.97102
   A14        1.95344   0.00000   0.00007  -0.00003   0.00004   1.95349
   A15        1.90323  -0.00000   0.00004  -0.00004  -0.00000   1.90323
   A16        1.89315  -0.00000   0.00003  -0.00000   0.00003   1.89318
   A17        1.92984   0.00000   0.00001   0.00000   0.00001   1.92985
   A18        1.95339  -0.00000  -0.00002  -0.00001  -0.00003   1.95336
   A19        1.89590   0.00000  -0.00001  -0.00000  -0.00001   1.89589
   A20        1.88556   0.00000  -0.00004   0.00002  -0.00003   1.88553
   A21        1.90463  -0.00000   0.00003  -0.00001   0.00002   1.90465
   A22        1.95729  -0.00000  -0.00009   0.00000  -0.00009   1.95720
   A23        1.86543  -0.00000   0.00002  -0.00001   0.00001   1.86544
   A24        1.83227   0.00000   0.00002   0.00001   0.00004   1.83230
   A25        1.96343   0.00000   0.00001   0.00001   0.00002   1.96345
   A26        1.92876   0.00000  -0.00004   0.00001  -0.00003   1.92873
   A27        1.91101  -0.00000   0.00008  -0.00003   0.00005   1.91106
   A28        1.86944  -0.00000   0.00012  -0.00005   0.00007   1.86951
   A29        1.93662  -0.00000  -0.00004   0.00002  -0.00002   1.93660
   A30        1.95960   0.00000  -0.00002   0.00001  -0.00001   1.95959
   A31        1.89470   0.00000  -0.00001   0.00001   0.00000   1.89471
   A32        1.89103   0.00000  -0.00006   0.00003  -0.00003   1.89100
   A33        1.91044  -0.00000   0.00001  -0.00002  -0.00001   1.91043
    D1       -2.44506   0.00000   0.00197   0.00070   0.00267  -2.44239
    D2        1.34735  -0.00000   0.00135   0.00022   0.00157   1.34892
    D3        1.73876   0.00001   0.00204   0.00071   0.00275   1.74151
    D4       -0.75202   0.00000   0.00141   0.00023   0.00164  -0.75037
    D5       -0.36545   0.00001   0.00197   0.00076   0.00273  -0.36272
    D6       -2.85622   0.00000   0.00134   0.00028   0.00162  -2.85460
    D7        2.18919   0.00000  -0.00099  -0.00019  -0.00118   2.18800
    D8       -1.95171   0.00000  -0.00109  -0.00015  -0.00124  -1.95295
    D9        0.07630   0.00000  -0.00105  -0.00020  -0.00125   0.07505
   D10       -1.57014   0.00000  -0.00042   0.00023  -0.00019  -1.57033
   D11        0.57215   0.00000  -0.00052   0.00028  -0.00025   0.57191
   D12        2.60016  -0.00000  -0.00048   0.00022  -0.00026   2.59991
   D13       -0.99956   0.00000   0.00078   0.00023   0.00102  -0.99855
   D14        1.15984   0.00000   0.00075   0.00024   0.00099   1.16083
   D15       -3.09451   0.00000   0.00086   0.00021   0.00107  -3.09344
   D16        2.74707  -0.00001   0.00008  -0.00021  -0.00014   2.74693
   D17       -1.37672  -0.00001   0.00005  -0.00021  -0.00016  -1.37688
   D18        0.65212  -0.00001   0.00016  -0.00024  -0.00008   0.65204
   D19        3.13749  -0.00000  -0.00018   0.00022   0.00004   3.13752
   D20       -1.06849  -0.00000  -0.00016   0.00022   0.00005  -1.06844
   D21        1.05889  -0.00000  -0.00013   0.00020   0.00007   1.05896
   D22        1.05985   0.00000  -0.00007   0.00017   0.00010   1.05995
   D23        3.13706   0.00000  -0.00005   0.00016   0.00012   3.13718
   D24       -1.01874  -0.00000  -0.00002   0.00015   0.00013  -1.01861
   D25       -1.09602   0.00000  -0.00016   0.00024   0.00009  -1.09593
   D26        0.98118   0.00000  -0.00014   0.00024   0.00011   0.98129
   D27        3.10857   0.00000  -0.00011   0.00023   0.00012   3.10869
   D28       -3.02893  -0.00000  -0.00059  -0.00005  -0.00064  -3.02958
   D29       -0.96370  -0.00000  -0.00055  -0.00006  -0.00061  -0.96430
   D30        1.18047  -0.00000  -0.00058  -0.00007  -0.00064   1.17982
   D31        1.15073   0.00000  -0.00056  -0.00005  -0.00061   1.15013
   D32       -3.06722   0.00000  -0.00052  -0.00005  -0.00057  -3.06779
   D33       -0.92305  -0.00000  -0.00055  -0.00006  -0.00061  -0.92366
   D34       -0.99114  -0.00000  -0.00064  -0.00003  -0.00067  -0.99180
   D35        1.07410  -0.00000  -0.00060  -0.00003  -0.00063   1.07347
   D36       -3.06492  -0.00000  -0.00063  -0.00004  -0.00067  -3.06559
         Item               Value     Threshold  Converged?
 Maximum Force            0.000021     0.000450     YES
 RMS     Force            0.000004     0.000300     YES
 Maximum Displacement     0.005355     0.001800     NO 
 RMS     Displacement     0.001157     0.001200     YES
 Predicted change in Energy=-3.173496D-08
 GradGradGradGradGradGradGradGradGradGradGradGradGradGradGradGradGradGrad

                          Input orientation:                          
 ---------------------------------------------------------------------
 Center     Atomic      Atomic             Coordinates (Angstroms)
 Number     Number       Type             X           Y           Z
 ---------------------------------------------------------------------
      1          5           0       -1.760793    0.663865   -0.224708
      2          9           0       -1.546373    1.592576   -1.231796
      3          9           0       -2.116627    1.256096    0.981969
      4          9           0       -2.648835   -0.326102   -0.618316
      5          8           0       -0.365384   -0.055727    0.014857
      6          6           0       -0.324411   -1.505968    0.257915
      7          6           0        0.607756   -2.163249   -0.732036
      8          6           0        0.657423    0.668778    0.784047
      9          6           0        0.992466    2.004908    0.167443
     10          1           0       -0.008851   -1.643930    1.297782
     11          1           0       -1.349305   -1.858580    0.147617
     12          1           0        0.625714   -3.241605   -0.529557
     13          1           0        0.254052   -2.005391   -1.757605
     14          1           0        1.633259   -1.783879   -0.643058
     15          1           0        0.278406    0.762711    1.808023
     16          1           0        1.532727    0.013668    0.777616
     17          1           0        1.836654    2.419068    0.733159
     18          1           0        1.297241    1.888470   -0.878631
     19          1           0        0.158419    2.710271    0.227697
 ---------------------------------------------------------------------
                    Distance matrix (angstroms):
                    1          2          3          4          5
     1  B    0.000000
     2  F    1.386617   0.000000
     3  F    1.390477   2.310663   0.000000
     4  F    1.386932   2.296324   2.312468   0.000000
     5  O    1.588197   2.380289   2.392287   2.384987   0.000000
     6  C    2.646562   3.648753   3.371244   2.750057   1.471039
     7  C    3.722899   4.358468   4.695955   3.740779   2.438545
     8  C    2.620186   3.126298   2.842440   3.726627   1.470610
     9  C    3.087493   2.928069   3.300095   4.394326   2.472500
    10  H    3.273101   4.386081   3.598972   3.518184   2.072535
    11  H    2.582765   3.721840   3.314534   2.150331   2.058156
    12  H    4.587051   5.346064   5.480370   4.385283   3.380603
    13  H    3.678899   4.057507   4.874698   3.541856   2.706753
    14  H    4.205478   4.675159   5.093505   4.523500   2.722854
    15  H    2.880989   3.641289   2.581080   3.954918   2.073584
    16  H    3.503524   4.001442   3.860462   4.421486   2.046813
    17  H    4.115807   3.998625   4.128297   5.429738   3.389622
    18  H    3.358399   2.880698   3.939064   4.532506   2.709713
    19  H    2.841799   2.507125   2.803459   4.220897   2.823192
                    6          7          8          9         10
     6  C    0.000000
     7  C    1.510284   0.000000
     8  C    2.443427   3.212686   0.000000
     9  C    3.750814   4.281425   1.509205   0.000000
    10  H    1.095416   2.184047   2.460988   3.948965   0.000000
    11  H    1.089453   2.167187   3.289307   4.517834   1.779261
    12  H    2.129621   1.097348   4.125246   5.305301   2.508866
    13  H    2.155543   1.096274   3.711318   4.509275   3.087906
    14  H    2.172892   1.097039   3.000734   3.927140   2.546168
    15  H    2.813029   3.888652   1.095903   2.178173   2.476849
    16  H    2.455269   2.805991   1.093329   2.151565   2.322642
    17  H    4.505771   4.965341   2.111087   1.097368   4.498070
    18  H    3.929848   4.112579   2.159054   1.095773   4.349770
    19  H    4.243903   4.987403   2.173988   1.093985   4.486884
                   11         12         13         14         15
    11  H    0.000000
    12  H    2.504400   0.000000
    13  H    2.494429   1.781701   0.000000
    14  H    3.086491   1.775667   1.787035   0.000000
    15  H    3.503935   4.649672   4.514054   3.785306   0.000000
    16  H    3.494041   3.623283   3.484100   2.293381   1.787771
    17  H    5.365768   5.924867   5.318305   4.427200   2.515350
    18  H    4.700827   5.185602   4.125892   3.695205   3.086011
    19  H    4.811865   6.018025   5.117425   4.809444   2.510939
                   16         17         18         19
    16  H    0.000000
    17  H    2.424932   0.000000
    18  H    2.512666   1.780553   0.000000
    19  H    3.076167   1.776728   1.787802   0.000000
 Stoichiometry    C4H10BF3O
 Framework group  C1[X(C4H10BF3O)]
 Deg. of freedom    51
 Full point group                 C1      NOp   1
 Largest Abelian subgroup         C1      NOp   1
 Largest concise Abelian subgroup C1      NOp   1
                         Standard orientation:                         
 ---------------------------------------------------------------------
 Center     Atomic      Atomic             Coordinates (Angstroms)
 Number     Number       Type             X           Y           Z
 ---------------------------------------------------------------------
      1          5           0       -0.936148   -0.703619   -0.045115
      2          9           0       -1.560617   -0.275194   -1.206665
      3          9           0       -1.679616   -0.423924    1.096134
      4          9           0       -0.558157   -2.035629   -0.125440
      5          8           0        0.406628    0.136871    0.068453
      6          6           0        1.641596   -0.518926    0.525337
      7          6           0        2.738533   -0.305932   -0.490695
      8          6           0        0.308083    1.528514    0.533547
      9          6           0       -0.612989    2.353509   -0.331732
     10          1           0        1.880706   -0.095127    1.506742
     11          1           0        1.396019   -1.573707    0.643811
     12          1           0        3.649166   -0.799049   -0.127715
     13          1           0        2.461604   -0.747916   -1.454945
     14          1           0        2.962799    0.758305   -0.634216
     15          1           0       -0.019191    1.492318    1.578815
     16          1           0        1.329233    1.916044    0.484129
     17          1           0       -0.536142    3.392283    0.013607
     18          1           0       -0.305442    2.311694   -1.382629
     19          1           0       -1.656868    2.038017   -0.244655
 ---------------------------------------------------------------------
 Rotational constants (GHZ):           1.7491655           1.4180020           1.0073101
 Standard basis: Aug-CC-pVDZ (5D, 7F)
 There are   315 symmetry adapted cartesian basis functions of A   symmetry.
 There are   297 symmetry adapted basis functions of A   symmetry.
   297 basis functions,   497 primitive gaussians,   315 cartesian basis functions
    37 alpha electrons       37 beta electrons
       nuclear repulsion energy       523.8470824225 Hartrees.
 NAtoms=   19 NActive=   19 NUniq=   19 SFac= 1.00D+00 NAtFMM=   60 NAOKFM=F Big=F
 Integral buffers will be    131072 words long.
 Raffenetti 2 integral format.
 Two-electron integral symmetry is turned on.
 Nuclear repulsion after empirical dispersion term =      523.8349960769 Hartrees.
 Force PCM accuracy= 1.00D-12.
 ------------------------------------------------------------------------------
 Polarizable Continuum Model (PCM)
 =================================
 Model                : C-PCM.
 Atomic radii         : UFF (Universal Force Field).
 Polarization charges : Total charges.
 Charge compensation  : None.
 Solution method      : On-the-fly selection.
 Cavity type          : Scaled VdW (van der Waals Surface) (Alpha=1.100).
 Cavity algorithm     : GePol (No added spheres)
                        Default sphere list used, NSphG=   19.
                        Lebedev-Laikov grids with approx.  5.0 points / Ang**2.
                        Smoothing algorithm: York/Karplus (Gamma=1.0000).
                        Polarization charges: spherical gaussians, with
                                              point-specific exponents (IZeta= 3).
                        Self-potential: point-specific (ISelfS= 7).
                        Self-field    : sphere-specific E.n sum rule (ISelfD= 2).
 1st derivatives      : Analytical E(r).r(x)/FMM algorithm (CHGder, D1EAlg=3).
                        Cavity 1st derivative terms included.
 Solvent              : Water, Eps=  78.355300 Eps(inf)=   1.777849
 ------------------------------------------------------------------------------
 Spheres list:
 ISph  on   Nord     Re0    Alpha      Xe            Ye            Ze
    1   B      1    2.0415  1.100     -0.936148     -0.703619     -0.045115
    2   F      2    1.6820  1.100     -1.560617     -0.275194     -1.206665
    3   F      3    1.6820  1.100     -1.679616     -0.423924      1.096134
    4   F      4    1.6820  1.100     -0.558157     -2.035629     -0.125440
    5   O      5    1.7500  1.100      0.406628      0.136871      0.068453
    6   C      6    1.9255  1.100      1.641596     -0.518926      0.525337
    7   C      7    1.9255  1.100      2.738533     -0.305932     -0.490695
    8   C      8    1.9255  1.100      0.308083      1.528514      0.533547
    9   C      9    1.9255  1.100     -0.612989      2.353509     -0.331732
   10   H     10    1.4430  1.100      1.880706     -0.095127      1.506742
   11   H     11    1.4430  1.100      1.396019     -1.573707      0.643811
   12   H     12    1.4430  1.100      3.649166     -0.799049     -0.127715
   13   H     13    1.4430  1.100      2.461604     -0.747916     -1.454945
   14   H     14    1.4430  1.100      2.962799      0.758305     -0.634216
   15   H     15    1.4430  1.100     -0.019191      1.492318      1.578815
   16   H     16    1.4430  1.100      1.329233      1.916044      0.484129
   17   H     17    1.4430  1.100     -0.536142      3.392283      0.013607
   18   H     18    1.4430  1.100     -0.305442      2.311694     -1.382629
   19   H     19    1.4430  1.100     -1.656868      2.038017     -0.244655
 ------------------------------------------------------------------------------
 One-electron integrals computed using PRISM.
 NBasis=   297 RedAO= T EigKep=  2.73D-05  NBF=   297
 NBsUse=   297 1.00D-06 EigRej= -1.00D+00 NBFU=   297
 Initial guess from the checkpoint file:  "/inspire/hdd/project/materialscienceresearch/lipenghui-253107030018/g16/00-B-DFT-Shift/04-output/BF3OEt2_D2O/BF3OEt2_D2O.chk"
 B after Tr=    -0.000000    0.000000    0.000000
         Rot=    1.000000    0.000296    0.000164   -0.000209 Ang=   0.05 deg.
 Requested convergence on RMS density matrix=1.00D-08 within 128 cycles.
 Requested convergence on MAX density matrix=1.00D-06.
 Requested convergence on             energy=1.00D-06.
 No special actions if energy rises.
 Inv3:  Mode=1 IEnd=     7004352.
 Iteration    1 A*A^-1 deviation from unit magnitude is 3.77D-15 for   1239.
 Iteration    1 A*A^-1 deviation from orthogonality  is 1.44D-15 for   1321    371.
 Iteration    1 A^-1*A deviation from unit magnitude is 3.55D-15 for   1509.
 Iteration    1 A^-1*A deviation from orthogonality  is 2.20D-15 for    359    220.
 Error on total polarization charges =  0.01129
 SCF Done:  E(RwB97XD) =  -558.152326789     A.U. after    7 cycles
            NFock=  7  Conv=0.95D-08     -V/T= 2.0060
 D1PCM: C-PCM CHGder 1st derivatives, ID1Alg=3 FixD1E=F DoIter=F DoCFld=F I1PDM=0.
 Calling FoFJK, ICntrl=      2127 FMM=F ISym2X=0 I1Cent= 0 IOpClX= 0 NMat=1 NMatS=1 NMatT=0.
 ***** Axes restored to original set *****
 -------------------------------------------------------------------
 Center     Atomic                   Forces (Hartrees/Bohr)
 Number     Number              X              Y              Z
 -------------------------------------------------------------------
      1        5          -0.000000886   -0.000000687    0.000002845
      2        9          -0.000006629    0.000001522    0.000001362
      3        9           0.000000292   -0.000001381   -0.000002347
      4        9           0.000001925   -0.000006244    0.000007727
      5        8           0.000001484   -0.000014737    0.000028287
      6        6           0.000007897    0.000009083   -0.000016368
      7        6           0.000007549   -0.000006191    0.000001961
      8        6          -0.000002005   -0.000001539   -0.000014219
      9        6           0.000001171    0.000011004   -0.000004430
     10        1          -0.000001452    0.000000948    0.000000480
     11        1           0.000001375    0.000000616    0.000001226
     12        1          -0.000000721    0.000003734    0.000000057
     13        1           0.000001020    0.000000998   -0.000000188
     14        1          -0.000000604    0.000004544   -0.000003538
     15        1           0.000002476    0.000001759   -0.000000336
     16        1          -0.000002726    0.000001166    0.000003864
     17        1          -0.000002253   -0.000002419   -0.000002293
     18        1          -0.000005347    0.000001426   -0.000002099
     19        1          -0.000002567   -0.000003602   -0.000001991
 -------------------------------------------------------------------
 Cartesian Forces:  Max     0.000028287 RMS     0.000006233

 GradGradGradGradGradGradGradGradGradGradGradGradGradGradGradGradGradGrad
 Berny optimization.
 Using GEDIIS/GDIIS optimizer.
 FormGI is forming the generalized inverse of G from B-inverse, IUseBI=4.
 Internal  Forces:  Max     0.000014862 RMS     0.000003529
 Search for a local minimum.
 Step number  23 out of a maximum of   97
 All quantities printed in internal units (Hartrees-Bohrs-Radians)
 Mixed Optimization -- En-DIIS/RFO-DIIS
 Swapping is turned off.
 Update second derivatives using D2CorX and points   10   11   12   13   14
                                                     15   16   17   18   19
                                                     20   21   22   23
 DE= -1.65D-07 DEPred=-3.17D-08 R= 5.21D+00
 Trust test= 5.21D+00 RLast= 6.46D-03 DXMaxT set to 6.51D-01
 ITU=  0  0 -1  1  1  1  1  1  1  1  0  1  1  1  1  1  1  1  1  1
 ITU=  1  1  0
     Eigenvalues ---    0.00101   0.00230   0.00256   0.00320   0.00419
     Eigenvalues ---    0.01548   0.04516   0.04813   0.05051   0.05166
     Eigenvalues ---    0.05325   0.05482   0.05797   0.05893   0.07932
     Eigenvalues ---    0.09669   0.10540   0.12449   0.12969   0.13090
     Eigenvalues ---    0.13279   0.15960   0.16002   0.16040   0.16080
     Eigenvalues ---    0.16503   0.16804   0.21138   0.22724   0.23701
     Eigenvalues ---    0.25389   0.27766   0.28299   0.28806   0.28939
     Eigenvalues ---    0.29608   0.31107   0.31855   0.32005   0.32060
     Eigenvalues ---    0.32109   0.32163   0.32184   0.32257   0.32391
     Eigenvalues ---    0.32881   0.34959   0.36733   0.37658   0.41683
     Eigenvalues ---    0.50760
 En-DIIS/RFO-DIIS/Sim-DIIS IScMMF=       -3 using points:    23   22   21   20   19   18   17   16   15   14
 RFO step:  Lambda=-4.53600240D-08.
 DIIS inversion failure, remove point  10.
 DIIS inversion failure, remove point   9.
 DIIS inversion failure, remove point   8.
 DIIS inversion failure, remove point   7.
 DIIS inversion failure, remove point   6.
 DIIS inversion failure, remove point   5.
 DIIS inversion failure, remove point   4.
 DIIS inversion failure, remove point   3.
 RFO-DIIS uses    2 points instead of   10
 DidBck=F Rises=F RFO-DIIS coefs:    1.47071   -0.47071    0.00000    0.00000    0.00000
                  RFO-DIIS coefs:    0.00000    0.00000    0.00000    0.00000    0.00000
 Iteration  1 RMS(Cart)=  0.00091787 RMS(Int)=  0.00000040
 Iteration  2 RMS(Cart)=  0.00000045 RMS(Int)=  0.00000004
 Variable       Old X    -DE/DX   Delta X   Delta X   Delta X     New X
                                 (Linear)    (Quad)   (Total)
    R1        2.62033   0.00000   0.00002   0.00001   0.00003   2.62035
    R2        2.62762  -0.00000   0.00000   0.00000   0.00000   2.62762
    R3        2.62092  -0.00000  -0.00001  -0.00001  -0.00002   2.62090
    R4        3.00126   0.00000  -0.00001  -0.00001  -0.00002   3.00124
    R5        2.77986  -0.00001  -0.00002   0.00000  -0.00002   2.77985
    R6        2.77905  -0.00001  -0.00004   0.00002  -0.00002   2.77903
    R7        2.85402   0.00000   0.00000  -0.00000  -0.00000   2.85402
    R8        2.07004  -0.00000  -0.00000   0.00000   0.00000   2.07004
    R9        2.05877   0.00000  -0.00000   0.00000  -0.00000   2.05876
   R10        2.07369  -0.00000   0.00000  -0.00000   0.00000   2.07369
   R11        2.07166  -0.00000  -0.00000  -0.00000  -0.00000   2.07166
   R12        2.07310  -0.00000   0.00000  -0.00000  -0.00000   2.07310
   R13        2.85198   0.00000   0.00000  -0.00000  -0.00000   2.85198
   R14        2.07096  -0.00000  -0.00000  -0.00001  -0.00001   2.07094
   R15        2.06609  -0.00000   0.00001  -0.00001  -0.00001   2.06608
   R16        2.07372  -0.00000  -0.00000   0.00000  -0.00000   2.07372
   R17        2.07071  -0.00000  -0.00000   0.00000   0.00000   2.07071
   R18        2.06733  -0.00000   0.00001  -0.00000   0.00001   2.06734
    A1        1.96556  -0.00000  -0.00000  -0.00003  -0.00003   1.96553
    A2        1.95084   0.00000   0.00001   0.00002   0.00004   1.95088
    A3        1.85163   0.00001  -0.00005  -0.00004  -0.00009   1.85154
    A4        1.96757   0.00000  -0.00001  -0.00001  -0.00002   1.96755
    A5        1.86181   0.00000  -0.00002   0.00000  -0.00001   1.86179
    A6        1.85665  -0.00001   0.00006   0.00004   0.00011   1.85675
    A7        2.08987  -0.00001   0.00023   0.00007   0.00030   2.09017
    A8        2.05641  -0.00000   0.00001  -0.00014  -0.00013   2.05628
    A9        1.96048   0.00001   0.00007   0.00009   0.00016   1.96065
   A10        1.91552   0.00000   0.00000   0.00001   0.00001   1.91553
   A11        1.86402  -0.00000  -0.00002   0.00001  -0.00001   1.86401
   A12        1.85059  -0.00000   0.00001  -0.00005  -0.00004   1.85054
   A13        1.97102   0.00000  -0.00001   0.00003   0.00001   1.97103
   A14        1.95349   0.00000   0.00002  -0.00001   0.00001   1.95350
   A15        1.90323  -0.00000  -0.00000   0.00002   0.00002   1.90325
   A16        1.89318  -0.00000   0.00001  -0.00003  -0.00002   1.89316
   A17        1.92985   0.00000   0.00001  -0.00000   0.00001   1.92986
   A18        1.95336  -0.00000  -0.00001   0.00004   0.00003   1.95339
   A19        1.89589   0.00000  -0.00000  -0.00000  -0.00000   1.89589
   A20        1.88553   0.00000  -0.00001  -0.00001  -0.00002   1.88551
   A21        1.90465  -0.00000   0.00001   0.00000   0.00001   1.90466
   A22        1.95720  -0.00000  -0.00004  -0.00010  -0.00014   1.95707
   A23        1.86544   0.00000   0.00001   0.00001   0.00002   1.86546
   A24        1.83230  -0.00000   0.00002   0.00005   0.00007   1.83237
   A25        1.96345   0.00000   0.00001   0.00004   0.00005   1.96350
   A26        1.92873   0.00000  -0.00001   0.00000  -0.00001   1.92872
   A27        1.91106  -0.00000   0.00002  -0.00001   0.00002   1.91108
   A28        1.86951  -0.00001   0.00003   0.00005   0.00009   1.86959
   A29        1.93660   0.00000  -0.00001  -0.00004  -0.00005   1.93655
   A30        1.95959  -0.00000  -0.00001  -0.00001  -0.00002   1.95957
   A31        1.89471   0.00000   0.00000   0.00001   0.00001   1.89472
   A32        1.89100   0.00000  -0.00001   0.00001  -0.00001   1.89100
   A33        1.91043   0.00000  -0.00001  -0.00001  -0.00002   1.91041
    D1       -2.44239   0.00000   0.00126   0.00047   0.00173  -2.44066
    D2        1.34892  -0.00000   0.00074   0.00040   0.00114   1.35006
    D3        1.74151   0.00000   0.00129   0.00052   0.00181   1.74332
    D4       -0.75037  -0.00000   0.00077   0.00045   0.00122  -0.74915
    D5       -0.36272   0.00001   0.00128   0.00050   0.00178  -0.36094
    D6       -2.85460   0.00000   0.00076   0.00043   0.00119  -2.85341
    D7        2.18800   0.00000  -0.00056   0.00069   0.00014   2.18814
    D8       -1.95295   0.00000  -0.00058   0.00073   0.00015  -1.95280
    D9        0.07505  -0.00000  -0.00059   0.00073   0.00015   0.07520
   D10       -1.57033   0.00000  -0.00009   0.00068   0.00059  -1.56974
   D11        0.57191   0.00001  -0.00012   0.00072   0.00061   0.57251
   D12        2.59991   0.00000  -0.00012   0.00072   0.00060   2.60051
   D13       -0.99855  -0.00000   0.00048  -0.00101  -0.00053  -0.99908
   D14        1.16083  -0.00000   0.00047  -0.00101  -0.00055   1.16028
   D15       -3.09344  -0.00000   0.00050  -0.00099  -0.00049  -3.09393
   D16        2.74693  -0.00000  -0.00006  -0.00108  -0.00114   2.74579
   D17       -1.37688  -0.00000  -0.00008  -0.00108  -0.00115  -1.37804
   D18        0.65204  -0.00000  -0.00004  -0.00106  -0.00110   0.65094
   D19        3.13752   0.00000   0.00002   0.00005   0.00007   3.13759
   D20       -1.06844   0.00000   0.00003   0.00003   0.00005  -1.06838
   D21        1.05896  -0.00000   0.00003   0.00006   0.00009   1.05905
   D22        1.05995   0.00000   0.00005   0.00002   0.00006   1.06002
   D23        3.13718   0.00000   0.00005  -0.00000   0.00005   3.13723
   D24       -1.01861  -0.00000   0.00006   0.00003   0.00009  -1.01852
   D25       -1.09593   0.00000   0.00004  -0.00002   0.00002  -1.09591
   D26        0.98129  -0.00000   0.00005  -0.00004   0.00001   0.98130
   D27        3.10869  -0.00000   0.00006  -0.00001   0.00005   3.10874
   D28       -3.02958   0.00000  -0.00030   0.00006  -0.00024  -3.02982
   D29       -0.96430   0.00000  -0.00029   0.00008  -0.00021  -0.96451
   D30        1.17982  -0.00000  -0.00030   0.00002  -0.00028   1.17954
   D31        1.15013  -0.00000  -0.00029   0.00008  -0.00020   1.14992
   D32       -3.06779  -0.00000  -0.00027   0.00010  -0.00017  -3.06796
   D33       -0.92366  -0.00000  -0.00029   0.00004  -0.00024  -0.92390
   D34       -0.99180   0.00000  -0.00031   0.00006  -0.00025  -0.99206
   D35        1.07347   0.00000  -0.00030   0.00008  -0.00022   1.07325
   D36       -3.06559   0.00000  -0.00032   0.00002  -0.00029  -3.06588
         Item               Value     Threshold  Converged?
 Maximum Force            0.000015     0.000450     YES
 RMS     Force            0.000004     0.000300     YES
 Maximum Displacement     0.003746     0.001800     NO 
 RMS     Displacement     0.000918     0.001200     YES
 Predicted change in Energy=-2.268065D-08
 GradGradGradGradGradGradGradGradGradGradGradGradGradGradGradGradGradGrad

                          Input orientation:                          
 ---------------------------------------------------------------------
 Center     Atomic      Atomic             Coordinates (Angstroms)
 Number     Number       Type             X           Y           Z
 ---------------------------------------------------------------------
      1          5           0       -1.761013    0.663991   -0.224274
      2          9           0       -1.546713    1.591580   -1.232439
      3          9           0       -2.115939    1.257658    0.981968
      4          9           0       -2.649710   -0.325988   -0.616334
      5          8           0       -0.365722   -0.055808    0.015278
      6          6           0       -0.324473   -1.506147    0.257658
      7          6           0        0.608186   -2.162739   -0.732287
      8          6           0        0.657084    0.668699    0.784447
      9          6           0        0.992604    2.004413    0.167201
     10          1           0       -0.009239   -1.644514    1.297572
     11          1           0       -1.349253   -1.858916    0.146830
     12          1           0        0.626272   -3.241192   -0.530338
     13          1           0        0.254824   -2.004442   -1.757905
     14          1           0        1.633594   -1.783246   -0.642747
     15          1           0        0.277809    0.763228    1.808264
     16          1           0        1.532228    0.013376    0.778563
     17          1           0        1.836596    2.418859    0.732997
     18          1           0        1.297795    1.887257   -0.878673
     19          1           0        0.158609    2.709911    0.226634
 ---------------------------------------------------------------------
                    Distance matrix (angstroms):
                    1          2          3          4          5
     1  B    0.000000
     2  F    1.386630   0.000000
     3  F    1.390479   2.310654   0.000000
     4  F    1.386921   2.296356   2.312447   0.000000
     5  O    1.588186   2.380215   2.392268   2.385064   0.000000
     6  C    2.646773   3.648311   3.372328   2.750157   1.471031
     7  C    3.723115   4.357597   4.696663   3.741789   2.438546
     8  C    2.620064   3.126701   2.841750   3.726456   1.470600
     9  C    3.087457   2.928746   3.299170   4.394444   2.472375
    10  H    3.273213   4.386010   3.600055   3.517618   2.072522
    11  H    2.583084   3.721195   3.316368   2.150227   2.058115
    12  H    4.587293   5.345137   5.481463   4.386099   3.380594
    13  H    3.679152   4.056233   4.875317   3.543545   2.706737
    14  H    4.205645   4.674563   5.093701   4.524488   2.722921
    15  H    2.880599   3.641555   2.580166   3.954166   2.073584
    16  H    3.503486   4.001841   3.859887   4.421482   2.046852
    17  H    4.115668   3.999264   4.127095   5.429716   3.389587
    18  H    3.358710   2.881632   3.938523   4.533218   2.709602
    19  H    2.841489   2.507525   2.802345   4.220655   2.822906
                    6          7          8          9         10
     6  C    0.000000
     7  C    1.510284   0.000000
     8  C    2.443546   3.212463   0.000000
     9  C    3.750587   4.280422   1.509203   0.000000
    10  H    1.095418   2.184056   2.461350   3.949189   0.000000
    11  H    1.089451   2.167193   3.289495   4.517744   1.779273
    12  H    2.129609   1.097348   4.125150   5.304444   2.508886
    13  H    2.155545   1.096273   3.710936   4.507912   3.087915
    14  H    2.172910   1.097039   3.000415   3.925970   2.546171
    15  H    2.813750   3.889066   1.095896   2.178200   2.477988
    16  H    2.455123   2.805708   1.093325   2.151554   2.322518
    17  H    4.505756   4.964583   2.111150   1.097367   4.498539
    18  H    3.929147   4.110895   2.159019   1.095774   4.349459
    19  H    4.243758   4.986419   2.173978   1.093987   4.487327
                   11         12         13         14         15
    11  H    0.000000
    12  H    2.504384   0.000000
    13  H    2.494445   1.781697   0.000000
    14  H    3.086508   1.775653   1.787040   0.000000
    15  H    3.504758   4.650362   4.514209   3.785517   0.000000
    16  H    3.493922   3.623009   3.483822   2.293087   1.787772
    17  H    5.365872   5.924279   5.317160   4.426236   2.515379
    18  H    4.700248   5.183944   4.123853   3.693374   3.086008
    19  H    4.811881   6.017254   5.115934   4.808312   2.511043
                   16         17         18         19
    16  H    0.000000
    17  H    2.425090   0.000000
    18  H    2.512533   1.780558   0.000000
    19  H    3.076159   1.776727   1.787795   0.000000
 Stoichiometry    C4H10BF3O
 Framework group  C1[X(C4H10BF3O)]
 Deg. of freedom    51
 Full point group                 C1      NOp   1
 Largest Abelian subgroup         C1      NOp   1
 Largest concise Abelian subgroup C1      NOp   1
                         Standard orientation:                         
 ---------------------------------------------------------------------
 Center     Atomic      Atomic             Coordinates (Angstroms)
 Number     Number       Type             X           Y           Z
 ---------------------------------------------------------------------
      1          5           0       -0.936839   -0.702881   -0.045185
      2          9           0       -1.559769   -0.274694   -1.207665
      3          9           0       -1.681052   -0.421377    1.095137
      4          9           0       -0.560302   -2.035380   -0.124013
      5          8           0        0.406695    0.136312    0.068861
      6          6           0        1.641293   -0.520515    0.525235
      7          6           0        2.738315   -0.307477   -0.490695
      8          6           0        0.309152    1.527957    0.534128
      9          6           0       -0.610427    2.353859   -0.331872
     10          1           0        1.880682   -0.097528    1.506925
     11          1           0        1.395063   -1.575223    0.642979
     12          1           0        3.648645   -0.801440   -0.128104
     13          1           0        2.461070   -0.748591   -1.455250
     14          1           0        2.963285    0.756714   -0.633455
     15          1           0       -0.019025    1.491916    1.579111
     16          1           0        1.330691    1.914559    0.485599
     17          1           0       -0.533179    3.392521    0.013711
     18          1           0       -0.301854    2.311983   -1.382467
     19          1           0       -1.654628    2.039116   -0.245912
 ---------------------------------------------------------------------
 Rotational constants (GHZ):           1.7493354           1.4178680           1.0073304
 Standard basis: Aug-CC-pVDZ (5D, 7F)
 There are   315 symmetry adapted cartesian basis functions of A   symmetry.
 There are   297 symmetry adapted basis functions of A   symmetry.
   297 basis functions,   497 primitive gaussians,   315 cartesian basis functions
    37 alpha electrons       37 beta electrons
       nuclear repulsion energy       523.8475785153 Hartrees.
 NAtoms=   19 NActive=   19 NUniq=   19 SFac= 1.00D+00 NAtFMM=   60 NAOKFM=F Big=F
 Integral buffers will be    131072 words long.
 Raffenetti 2 integral format.
 Two-electron integral symmetry is turned on.
 Nuclear repulsion after empirical dispersion term =      523.8354922623 Hartrees.
 Force PCM accuracy= 1.00D-12.
 ------------------------------------------------------------------------------
 Polarizable Continuum Model (PCM)
 =================================
 Model                : C-PCM.
 Atomic radii         : UFF (Universal Force Field).
 Polarization charges : Total charges.
 Charge compensation  : None.
 Solution method      : On-the-fly selection.
 Cavity type          : Scaled VdW (van der Waals Surface) (Alpha=1.100).
 Cavity algorithm     : GePol (No added spheres)
                        Default sphere list used, NSphG=   19.
                        Lebedev-Laikov grids with approx.  5.0 points / Ang**2.
                        Smoothing algorithm: York/Karplus (Gamma=1.0000).
                        Polarization charges: spherical gaussians, with
                                              point-specific exponents (IZeta= 3).
                        Self-potential: point-specific (ISelfS= 7).
                        Self-field    : sphere-specific E.n sum rule (ISelfD= 2).
 1st derivatives      : Analytical E(r).r(x)/FMM algorithm (CHGder, D1EAlg=3).
                        Cavity 1st derivative terms included.
 Solvent              : Water, Eps=  78.355300 Eps(inf)=   1.777849
 ------------------------------------------------------------------------------
 Spheres list:
 ISph  on   Nord     Re0    Alpha      Xe            Ye            Ze
    1   B      1    2.0415  1.100     -0.936839     -0.702881     -0.045185
    2   F      2    1.6820  1.100     -1.559769     -0.274694     -1.207665
    3   F      3    1.6820  1.100     -1.681052     -0.421377      1.095137
    4   F      4    1.6820  1.100     -0.560302     -2.035380     -0.124013
    5   O      5    1.7500  1.100      0.406695      0.136312      0.068861
    6   C      6    1.9255  1.100      1.641293     -0.520515      0.525235
    7   C      7    1.9255  1.100      2.738315     -0.307477     -0.490695
    8   C      8    1.9255  1.100      0.309152      1.527957      0.534128
    9   C      9    1.9255  1.100     -0.610427      2.353859     -0.331872
   10   H     10    1.4430  1.100      1.880682     -0.097528      1.506925
   11   H     11    1.4430  1.100      1.395063     -1.575223      0.642979
   12   H     12    1.4430  1.100      3.648645     -0.801440     -0.128104
   13   H     13    1.4430  1.100      2.461070     -0.748591     -1.455250
   14   H     14    1.4430  1.100      2.963285      0.756714     -0.633455
   15   H     15    1.4430  1.100     -0.019025      1.491916      1.579111
   16   H     16    1.4430  1.100      1.330691      1.914559      0.485599
   17   H     17    1.4430  1.100     -0.533179      3.392521      0.013711
   18   H     18    1.4430  1.100     -0.301854      2.311983     -1.382467
   19   H     19    1.4430  1.100     -1.654628      2.039116     -0.245912
 ------------------------------------------------------------------------------
 One-electron integrals computed using PRISM.
 NBasis=   297 RedAO= T EigKep=  2.73D-05  NBF=   297
 NBsUse=   297 1.00D-06 EigRej= -1.00D+00 NBFU=   297
 Initial guess from the checkpoint file:  "/inspire/hdd/project/materialscienceresearch/lipenghui-253107030018/g16/00-B-DFT-Shift/04-output/BF3OEt2_D2O/BF3OEt2_D2O.chk"
 B after Tr=    -0.000000   -0.000000   -0.000000
         Rot=    1.000000    0.000072    0.000138    0.000431 Ang=   0.05 deg.
 Requested convergence on RMS density matrix=1.00D-08 within 128 cycles.
 Requested convergence on MAX density matrix=1.00D-06.
 Requested convergence on             energy=1.00D-06.
 No special actions if energy rises.
 Inv3:  Mode=1 IEnd=     7004352.
 Iteration    1 A*A^-1 deviation from unit magnitude is 5.77D-15 for   1517.
 Iteration    1 A*A^-1 deviation from orthogonality  is 3.12D-15 for   1524    808.
 Iteration    1 A^-1*A deviation from unit magnitude is 5.55D-15 for   1517.
 Iteration    1 A^-1*A deviation from orthogonality  is 2.21D-15 for   1518    790.
 Error on total polarization charges =  0.01130
 SCF Done:  E(RwB97XD) =  -558.152326663     A.U. after    7 cycles
            NFock=  7  Conv=0.94D-08     -V/T= 2.0060
 D1PCM: C-PCM CHGder 1st derivatives, ID1Alg=3 FixD1E=F DoIter=F DoCFld=F I1PDM=0.
 Calling FoFJK, ICntrl=      2127 FMM=F ISym2X=0 I1Cent= 0 IOpClX= 0 NMat=1 NMatS=1 NMatT=0.
 ***** Axes restored to original set *****
 -------------------------------------------------------------------
 Center     Atomic                   Forces (Hartrees/Bohr)
 Number     Number              X              Y              Z
 -------------------------------------------------------------------
      1        5           0.000000298    0.000001470    0.000001220
      2        9          -0.000010982    0.000004600    0.000000388
      3        9          -0.000000802   -0.000003244   -0.000004055
      4        9           0.000002547   -0.000007677    0.000006184
      5        8           0.000004354   -0.000021889    0.000035783
      6        6           0.000007508    0.000018193   -0.000015514
      7        6           0.000008284   -0.000009780    0.000002873
      8        6           0.000001430   -0.000001141   -0.000018744
      9        6           0.000001063    0.000015960   -0.000005717
     10        1          -0.000001934   -0.000000028    0.000000475
     11        1           0.000000805   -0.000000008    0.000001889
     12        1          -0.000001194    0.000003087   -0.000000308
     13        1           0.000001062    0.000001681   -0.000000824
     14        1          -0.000001360    0.000006279   -0.000004157
     15        1           0.000002226    0.000000851    0.000001060
     16        1          -0.000003703   -0.000001667    0.000004553
     17        1          -0.000002026   -0.000004518   -0.000001471
     18        1          -0.000005016    0.000002356   -0.000002470
     19        1          -0.000002560   -0.000004526   -0.000001162
 -------------------------------------------------------------------
 Cartesian Forces:  Max     0.000035783 RMS     0.000008076

 GradGradGradGradGradGradGradGradGradGradGradGradGradGradGradGradGradGrad
 Berny optimization.
 Using GEDIIS/GDIIS optimizer.
 FormGI is forming the generalized inverse of G from B-inverse, IUseBI=4.
 Internal  Forces:  Max     0.000020266 RMS     0.000004970
 Search for a local minimum.
 Step number  24 out of a maximum of   97
 All quantities printed in internal units (Hartrees-Bohrs-Radians)
 Mixed Optimization -- En-DIIS/RFO-DIIS
 Swapping is turned off.
 Update second derivatives using D2CorX and points   10   11   12   13   14
                                                     15   16   17   18   19
                                                     20   21   22   23   24
 DE=  1.26D-07 DEPred=-2.27D-08 R=-5.58D+00
 Trust test=-5.58D+00 RLast= 4.49D-03 DXMaxT set to 3.26D-01
 ITU= -1  0  0 -1  1  1  1  1  1  1  1  0  1  1  1  1  1  1  1  1
 ITU=  1  1  1  0
     Eigenvalues ---    0.00096   0.00149   0.00242   0.00312   0.00426
     Eigenvalues ---    0.01445   0.04476   0.04781   0.05054   0.05204
     Eigenvalues ---    0.05342   0.05505   0.05801   0.05892   0.07921
     Eigenvalues ---    0.09675   0.10562   0.12482   0.13001   0.13097
     Eigenvalues ---    0.13290   0.15975   0.16032   0.16047   0.16085
     Eigenvalues ---    0.16567   0.16891   0.21167   0.22669   0.23720
     Eigenvalues ---    0.25387   0.27853   0.28336   0.28878   0.29187
     Eigenvalues ---    0.29632   0.31199   0.31848   0.32048   0.32068
     Eigenvalues ---    0.32127   0.32166   0.32199   0.32284   0.32395
     Eigenvalues ---    0.32866   0.35092   0.36858   0.37719   0.41252
     Eigenvalues ---    0.53861
 En-DIIS/RFO-DIIS/Sim-DIIS IScMMF=       -3 using points:    24   23   22   21   20   19   18   17   16   15
 RFO step:  Lambda=-4.10379647D-08.
 DIIS inversion failure, remove point  10.
 DIIS inversion failure, remove point   9.
 DIIS inversion failure, remove point   8.
 DIIS inversion failure, remove point   7.
 DIIS inversion failure, remove point   6.
 DIIS inversion failure, remove point   5.
 DIIS inversion failure, remove point   4.
 RFO-DIIS uses    3 points instead of   10
 DidBck=F Rises=F RFO-DIIS coefs:    2.36794   -1.73225    0.36432    0.00000    0.00000
                  RFO-DIIS coefs:    0.00000    0.00000    0.00000    0.00000    0.00000
 Iteration  1 RMS(Cart)=  0.00112248 RMS(Int)=  0.00000039
 Iteration  2 RMS(Cart)=  0.00000054 RMS(Int)=  0.00000001
 Variable       Old X    -DE/DX   Delta X   Delta X   Delta X     New X
                                 (Linear)    (Quad)   (Total)
    R1        2.62035   0.00000   0.00002   0.00001   0.00003   2.62038
    R2        2.62762  -0.00001   0.00000  -0.00001  -0.00001   2.62761
    R3        2.62090   0.00000  -0.00002   0.00000  -0.00002   2.62088
    R4        3.00124   0.00001  -0.00002   0.00001  -0.00000   3.00123
    R5        2.77985  -0.00002  -0.00001  -0.00006  -0.00007   2.77978
    R6        2.77903  -0.00001   0.00001  -0.00007  -0.00006   2.77897
    R7        2.85402   0.00000  -0.00000   0.00001   0.00001   2.85403
    R8        2.07004  -0.00000   0.00001   0.00000   0.00001   2.07005
    R9        2.05876   0.00000  -0.00000  -0.00000  -0.00000   2.05876
   R10        2.07369  -0.00000  -0.00000  -0.00000  -0.00001   2.07368
   R11        2.07166   0.00000  -0.00000   0.00000  -0.00000   2.07165
   R12        2.07310  -0.00000  -0.00000  -0.00000  -0.00001   2.07310
   R13        2.85198   0.00001  -0.00000   0.00003   0.00002   2.85200
   R14        2.07094   0.00000  -0.00002   0.00001  -0.00001   2.07093
   R15        2.06608  -0.00000  -0.00001   0.00000  -0.00001   2.06607
   R16        2.07372  -0.00000   0.00000  -0.00001  -0.00001   2.07371
   R17        2.07071  -0.00000   0.00000   0.00000   0.00001   2.07072
   R18        2.06734  -0.00000  -0.00000  -0.00000  -0.00000   2.06733
    A1        1.96553  -0.00001  -0.00004  -0.00002  -0.00006   1.96547
    A2        1.95088  -0.00000   0.00004  -0.00000   0.00004   1.95092
    A3        1.85154   0.00002  -0.00008   0.00006  -0.00001   1.85153
    A4        1.96755  -0.00000  -0.00001   0.00000  -0.00001   1.96754
    A5        1.86179   0.00000  -0.00001  -0.00001  -0.00001   1.86178
    A6        1.85675  -0.00001   0.00010  -0.00003   0.00006   1.85682
    A7        2.09017  -0.00001   0.00023   0.00003   0.00026   2.09043
    A8        2.05628   0.00001  -0.00019   0.00008  -0.00011   2.05617
    A9        1.96065   0.00001   0.00017   0.00005   0.00022   1.96087
   A10        1.91553   0.00000   0.00001   0.00005   0.00006   1.91559
   A11        1.86401  -0.00000  -0.00000   0.00001   0.00000   1.86401
   A12        1.85054  -0.00000  -0.00007   0.00000  -0.00006   1.85048
   A13        1.97103   0.00000   0.00003  -0.00001   0.00002   1.97104
   A14        1.95350   0.00000  -0.00000  -0.00000  -0.00001   1.95349
   A15        1.90325  -0.00000   0.00002  -0.00004  -0.00001   1.90324
   A16        1.89316  -0.00000  -0.00003   0.00000  -0.00003   1.89313
   A17        1.92986   0.00000   0.00000  -0.00001  -0.00000   1.92985
   A18        1.95339  -0.00000   0.00005  -0.00002   0.00003   1.95342
   A19        1.89589   0.00000  -0.00000   0.00001   0.00000   1.89589
   A20        1.88551   0.00000  -0.00002   0.00004   0.00001   1.88552
   A21        1.90466  -0.00000   0.00001  -0.00002  -0.00001   1.90464
   A22        1.95707   0.00001  -0.00016   0.00003  -0.00012   1.95694
   A23        1.86546  -0.00000   0.00002  -0.00001   0.00002   1.86548
   A24        1.83237  -0.00000   0.00008  -0.00001   0.00007   1.83244
   A25        1.96350  -0.00000   0.00006  -0.00001   0.00005   1.96355
   A26        1.92872   0.00000  -0.00000   0.00003   0.00003   1.92875
   A27        1.91108  -0.00000   0.00000  -0.00004  -0.00004   1.91104
   A28        1.86959  -0.00001   0.00009  -0.00005   0.00005   1.86964
   A29        1.93655   0.00000  -0.00006   0.00002  -0.00004   1.93651
   A30        1.95957  -0.00000  -0.00002  -0.00001  -0.00002   1.95955
   A31        1.89472   0.00000   0.00001   0.00001   0.00002   1.89474
   A32        1.89100   0.00001   0.00000   0.00003   0.00003   1.89103
   A33        1.91041   0.00000  -0.00002  -0.00001  -0.00003   1.91039
    D1       -2.44066   0.00000   0.00139   0.00005   0.00144  -2.43922
    D2        1.35006  -0.00000   0.00098  -0.00023   0.00075   1.35081
    D3        1.74332   0.00000   0.00148   0.00005   0.00152   1.74484
    D4       -0.74915  -0.00001   0.00107  -0.00023   0.00084  -0.74832
    D5       -0.36094   0.00001   0.00145   0.00006   0.00151  -0.35943
    D6       -2.85341   0.00000   0.00104  -0.00022   0.00082  -2.85259
    D7        2.18814  -0.00000   0.00062  -0.00018   0.00044   2.18858
    D8       -1.95280   0.00000   0.00066  -0.00016   0.00050  -1.95230
    D9        0.07520  -0.00000   0.00065  -0.00020   0.00045   0.07565
   D10       -1.56974   0.00001   0.00088   0.00010   0.00098  -1.56876
   D11        0.57251   0.00001   0.00092   0.00011   0.00103   0.57354
   D12        2.60051   0.00000   0.00091   0.00007   0.00099   2.60149
   D13       -0.99908  -0.00000  -0.00110   0.00007  -0.00103  -1.00011
   D14        1.16028  -0.00000  -0.00111   0.00007  -0.00104   1.15924
   D15       -3.09393  -0.00001  -0.00106   0.00002  -0.00104  -3.09497
   D16        2.74579  -0.00000  -0.00151  -0.00018  -0.00169   2.74409
   D17       -1.37804   0.00000  -0.00152  -0.00018  -0.00170  -1.37974
   D18        0.65094  -0.00000  -0.00147  -0.00023  -0.00170   0.64924
   D19        3.13759   0.00000   0.00008   0.00004   0.00012   3.13770
   D20       -1.06838   0.00000   0.00005   0.00004   0.00010  -1.06829
   D21        1.05905  -0.00000   0.00010   0.00000   0.00010   1.05915
   D22        1.06002   0.00000   0.00005   0.00001   0.00006   1.06008
   D23        3.13723   0.00000   0.00003   0.00001   0.00004   3.13727
   D24       -1.01852  -0.00000   0.00007  -0.00003   0.00004  -1.01847
   D25       -1.09591   0.00000   0.00000   0.00007   0.00007  -1.09584
   D26        0.98130   0.00000  -0.00002   0.00008   0.00006   0.98136
   D27        3.10874  -0.00000   0.00002   0.00004   0.00006   3.10879
   D28       -3.02982   0.00000  -0.00010   0.00007  -0.00003  -3.02985
   D29       -0.96451   0.00000  -0.00007   0.00007   0.00000  -0.96451
   D30        1.17954   0.00000  -0.00015   0.00007  -0.00008   1.17946
   D31        1.14992  -0.00000  -0.00006   0.00006   0.00000   1.14992
   D32       -3.06796  -0.00000  -0.00003   0.00006   0.00003  -3.06793
   D33       -0.92390  -0.00000  -0.00011   0.00006  -0.00005  -0.92396
   D34       -0.99206   0.00000  -0.00010   0.00010  -0.00000  -0.99206
   D35        1.07325   0.00000  -0.00007   0.00010   0.00003   1.07328
   D36       -3.06588   0.00000  -0.00015   0.00010  -0.00006  -3.06594
         Item               Value     Threshold  Converged?
 Maximum Force            0.000020     0.000450     YES
 RMS     Force            0.000005     0.000300     YES
 Maximum Displacement     0.003483     0.001800     NO 
 RMS     Displacement     0.001123     0.001200     YES
 Predicted change in Energy=-2.026158D-08
 GradGradGradGradGradGradGradGradGradGradGradGradGradGradGradGradGradGrad

                          Input orientation:                          
 ---------------------------------------------------------------------
 Center     Atomic      Atomic             Coordinates (Angstroms)
 Number     Number       Type             X           Y           Z
 ---------------------------------------------------------------------
      1          5           0       -1.761478    0.664078   -0.223561
      2          9           0       -1.547439    1.590986   -1.232431
      3          9           0       -2.115652    1.258669    0.982440
      4          9           0       -2.650636   -0.325920   -0.614491
      5          8           0       -0.366221   -0.055847    0.015799
      6          6           0       -0.324609   -1.506285    0.257302
      7          6           0        0.608837   -2.162021   -0.732474
      8          6           0        0.656617    0.668663    0.784859
      9          6           0        0.992993    2.003724    0.166641
     10          1           0       -0.009987   -1.645189    1.297334
     11          1           0       -1.349219   -1.859280    0.145637
     12          1           0        0.627024   -3.240593   -0.531184
     13          1           0        0.256079   -2.003158   -1.758210
     14          1           0        1.634102   -1.782355   -0.642070
     15          1           0        0.276967    0.764158    1.808443
     16          1           0        1.531443    0.012921    0.779879
     17          1           0        1.836941    2.418295    0.732402
     18          1           0        1.298517    1.885522   -0.879021
     19          1           0        0.159261    2.709612    0.225120
 ---------------------------------------------------------------------
                    Distance matrix (angstroms):
                    1          2          3          4          5
     1  B    0.000000
     2  F    1.386647   0.000000
     3  F    1.390474   2.310618   0.000000
     4  F    1.386912   2.296393   2.312428   0.000000
     5  O    1.588183   2.380213   2.392249   2.385112   0.000000
     6  C    2.646941   3.647973   3.373223   2.750216   1.470995
     7  C    3.723469   4.357126   4.697328   3.742907   2.438570
     8  C    2.619945   3.126980   2.841235   3.726298   1.470566
     9  C    3.087720   2.929428   3.299137   4.394706   2.472255
    10  H    3.273157   4.385921   3.600747   3.516899   2.072497
    11  H    2.583331   3.720578   3.318021   2.150041   2.058037
    12  H    4.587595   5.344548   5.482398   4.386949   3.380582
    13  H    3.679650   4.055489   4.876042   3.545449   2.706730
    14  H    4.205965   4.674415   5.093870   4.525588   2.723034
    15  H    2.879985   3.641294   2.579040   3.953447   2.073565
    16  H    3.503459   4.002399   3.859303   4.421410   2.046869
    17  H    4.115794   3.999880   4.126771   5.429842   3.389516
    18  H    3.359334   2.882901   3.938849   4.533902   2.709422
    19  H    2.841613   2.507709   2.802499   4.220773   2.822713
                    6          7          8          9         10
     6  C    0.000000
     7  C    1.510287   0.000000
     8  C    2.443670   3.212064   0.000000
     9  C    3.750261   4.278951   1.509215   0.000000
    10  H    1.095421   2.184073   2.461890   3.949557   0.000000
    11  H    1.089449   2.167190   3.289753   4.517654   1.779265
    12  H    2.129587   1.097345   4.124940   5.303183   2.508899
    13  H    2.155544   1.096272   3.710291   4.505907   3.087925
    14  H    2.172932   1.097036   2.999849   3.924211   2.546199
    15  H    2.814755   3.889592   1.095891   2.178240   2.479623
    16  H    2.454792   2.805135   1.093318   2.151578   2.322304
    17  H    4.505591   4.963205   2.111192   1.097362   4.499133
    18  H    3.928120   4.108496   2.159000   1.095777   4.349095
    19  H    4.243696   4.985170   2.173969   1.093986   4.488049
                   11         12         13         14         15
    11  H    0.000000
    12  H    2.504326   0.000000
    13  H    2.494457   1.781696   0.000000
    14  H    3.086520   1.775657   1.787028   0.000000
    15  H    3.505971   4.651282   4.514365   3.785705   0.000000
    16  H    3.493653   3.622459   3.483249   2.292486   1.787739
    17  H    5.365963   5.923138   5.315216   4.424452   2.515463
    18  H    4.699359   5.181597   4.120859   3.690811   3.086015
    19  H    4.812131   6.016289   5.114017   4.806760   2.511087
                   16         17         18         19
    16  H    0.000000
    17  H    2.425162   0.000000
    18  H    2.512536   1.780571   0.000000
    19  H    3.076164   1.776742   1.787780   0.000000
 Stoichiometry    C4H10BF3O
 Framework group  C1[X(C4H10BF3O)]
 Deg. of freedom    51
 Full point group                 C1      NOp   1
 Largest Abelian subgroup         C1      NOp   1
 Largest concise Abelian subgroup C1      NOp   1
                         Standard orientation:                         
 ---------------------------------------------------------------------
 Center     Atomic      Atomic             Coordinates (Angstroms)
 Number     Number       Type             X           Y           Z
 ---------------------------------------------------------------------
      1          5           0       -0.937999   -0.701678   -0.045290
      2          9           0       -1.559493   -0.272945   -1.208356
      3          9           0       -1.682556   -0.418501    1.094387
      4          9           0       -0.563562   -2.034809   -0.123285
      5          8           0        0.406754    0.135478    0.069328
      6          6           0        1.640612   -0.523165    0.524973
      7          6           0        2.737951   -0.310158   -0.490626
      8          6           0        0.311006    1.527096    0.534942
      9          6           0       -0.606095    2.354730   -0.332051
     10          1           0        1.880385   -0.101611    1.507189
     11          1           0        1.393203   -1.577736    0.641457
     12          1           0        3.647663   -0.805633   -0.128555
     13          1           0        2.460261   -0.749783   -1.455732
     14          1           0        2.964179    0.753935   -0.632101
     15          1           0       -0.018564    1.491277    1.579489
     16          1           0        1.333238    1.912024    0.487878
     17          1           0       -0.527649    3.393182    0.013877
     18          1           0       -0.296188    2.312580   -1.382246
     19          1           0       -1.650903    2.041607   -0.247576
 ---------------------------------------------------------------------
 Rotational constants (GHZ):           1.7494926           1.4176798           1.0073207
 Standard basis: Aug-CC-pVDZ (5D, 7F)
 There are   315 symmetry adapted cartesian basis functions of A   symmetry.
 There are   297 symmetry adapted basis functions of A   symmetry.
   297 basis functions,   497 primitive gaussians,   315 cartesian basis functions
    37 alpha electrons       37 beta electrons
       nuclear repulsion energy       523.8449467702 Hartrees.
 NAtoms=   19 NActive=   19 NUniq=   19 SFac= 1.00D+00 NAtFMM=   60 NAOKFM=F Big=F
 Integral buffers will be    131072 words long.
 Raffenetti 2 integral format.
 Two-electron integral symmetry is turned on.
 Nuclear repulsion after empirical dispersion term =      523.8328608611 Hartrees.
 Force PCM accuracy= 1.00D-12.
 ------------------------------------------------------------------------------
 Polarizable Continuum Model (PCM)
 =================================
 Model                : C-PCM.
 Atomic radii         : UFF (Universal Force Field).
 Polarization charges : Total charges.
 Charge compensation  : None.
 Solution method      : On-the-fly selection.
 Cavity type          : Scaled VdW (van der Waals Surface) (Alpha=1.100).
 Cavity algorithm     : GePol (No added spheres)
                        Default sphere list used, NSphG=   19.
                        Lebedev-Laikov grids with approx.  5.0 points / Ang**2.
                        Smoothing algorithm: York/Karplus (Gamma=1.0000).
                        Polarization charges: spherical gaussians, with
                                              point-specific exponents (IZeta= 3).
                        Self-potential: point-specific (ISelfS= 7).
                        Self-field    : sphere-specific E.n sum rule (ISelfD= 2).
 1st derivatives      : Analytical E(r).r(x)/FMM algorithm (CHGder, D1EAlg=3).
                        Cavity 1st derivative terms included.
 Solvent              : Water, Eps=  78.355300 Eps(inf)=   1.777849
 ------------------------------------------------------------------------------
 Spheres list:
 ISph  on   Nord     Re0    Alpha      Xe            Ye            Ze
    1   B      1    2.0415  1.100     -0.937999     -0.701678     -0.045290
    2   F      2    1.6820  1.100     -1.559493     -0.272945     -1.208356
    3   F      3    1.6820  1.100     -1.682556     -0.418501      1.094387
    4   F      4    1.6820  1.100     -0.563562     -2.034809     -0.123285
    5   O      5    1.7500  1.100      0.406754      0.135478      0.069328
    6   C      6    1.9255  1.100      1.640612     -0.523165      0.524973
    7   C      7    1.9255  1.100      2.737951     -0.310158     -0.490626
    8   C      8    1.9255  1.100      0.311006      1.527096      0.534942
    9   C      9    1.9255  1.100     -0.606095      2.354730     -0.332051
   10   H     10    1.4430  1.100      1.880385     -0.101611      1.507189
   11   H     11    1.4430  1.100      1.393203     -1.577736      0.641457
   12   H     12    1.4430  1.100      3.647663     -0.805633     -0.128555
   13   H     13    1.4430  1.100      2.460261     -0.749783     -1.455732
   14   H     14    1.4430  1.100      2.964179      0.753935     -0.632101
   15   H     15    1.4430  1.100     -0.018564      1.491277      1.579489
   16   H     16    1.4430  1.100      1.333238      1.912024      0.487878
   17   H     17    1.4430  1.100     -0.527649      3.393182      0.013877
   18   H     18    1.4430  1.100     -0.296188      2.312580     -1.382246
   19   H     19    1.4430  1.100     -1.650903      2.041607     -0.247576
 ------------------------------------------------------------------------------
 One-electron integrals computed using PRISM.
 NBasis=   297 RedAO= T EigKep=  2.73D-05  NBF=   297
 NBsUse=   297 1.00D-06 EigRej= -1.00D+00 NBFU=   297
 Initial guess from the checkpoint file:  "/inspire/hdd/project/materialscienceresearch/lipenghui-253107030018/g16/00-B-DFT-Shift/04-output/BF3OEt2_D2O/BF3OEt2_D2O.chk"
 B after Tr=    -0.000000    0.000000   -0.000000
         Rot=    1.000000   -0.000027    0.000128    0.000711 Ang=  -0.08 deg.
 Requested convergence on RMS density matrix=1.00D-08 within 128 cycles.
 Requested convergence on MAX density matrix=1.00D-06.
 Requested convergence on             energy=1.00D-06.
 No special actions if energy rises.
 Inv3:  Mode=1 IEnd=     7031883.
 Iteration    1 A*A^-1 deviation from unit magnitude is 3.55D-15 for    879.
 Iteration    1 A*A^-1 deviation from orthogonality  is 3.26D-15 for   1526    781.
 Iteration    1 A^-1*A deviation from unit magnitude is 3.33D-15 for    879.
 Iteration    1 A^-1*A deviation from orthogonality  is 1.72D-15 for    359    220.
 Error on total polarization charges =  0.01130
 SCF Done:  E(RwB97XD) =  -558.152326416     A.U. after    8 cycles
            NFock=  8  Conv=0.31D-08     -V/T= 2.0060
 D1PCM: C-PCM CHGder 1st derivatives, ID1Alg=3 FixD1E=F DoIter=F DoCFld=F I1PDM=0.
 Calling FoFJK, ICntrl=      2127 FMM=F ISym2X=0 I1Cent= 0 IOpClX= 0 NMat=1 NMatS=1 NMatT=0.
 ***** Axes restored to original set *****
 -------------------------------------------------------------------
 Center     Atomic                   Forces (Hartrees/Bohr)
 Number     Number              X              Y              Z
 -------------------------------------------------------------------
      1        5          -0.000001830    0.000002963   -0.000002079
      2        9          -0.000010522    0.000001416    0.000001382
      3        9           0.000000065   -0.000003592   -0.000001215
      4        9           0.000002016   -0.000006870    0.000003633
      5        8          -0.000000320   -0.000019060    0.000021604
      6        6           0.000004317    0.000014740   -0.000006422
      7        6           0.000004650   -0.000005084    0.000001667
      8        6           0.000007174    0.000002411   -0.000012025
      9        6          -0.000000782    0.000009236   -0.000003887
     10        1           0.000000426   -0.000000176    0.000000750
     11        1           0.000000112   -0.000000986    0.000001249
     12        1           0.000000641    0.000001480   -0.000000524
     13        1           0.000000310    0.000001080   -0.000001379
     14        1           0.000000174    0.000005278   -0.000003853
     15        1           0.000002130    0.000000856    0.000001470
     16        1          -0.000000968   -0.000001201    0.000002114
     17        1          -0.000000772   -0.000001283   -0.000001023
     18        1          -0.000003618    0.000002141   -0.000001904
     19        1          -0.000003201   -0.000003349    0.000000443
 -------------------------------------------------------------------
 Cartesian Forces:  Max     0.000021604 RMS     0.000005593

 GradGradGradGradGradGradGradGradGradGradGradGradGradGradGradGradGradGrad
 Berny optimization.
 Using GEDIIS/GDIIS optimizer.
 FormGI is forming the generalized inverse of G from B-inverse, IUseBI=4.
 Internal  Forces:  Max     0.000017170 RMS     0.000004006
 Search for a local minimum.
 Step number  25 out of a maximum of   97
 All quantities printed in internal units (Hartrees-Bohrs-Radians)
 Mixed Optimization -- En-DIIS/RFO-DIIS
 Swapping is turned off.
 Update second derivatives using D2CorX and points   10   11   12   13   14
                                                     15   16   17   18   19
                                                     20   21   22   23   24
                                                     25
 DE=  2.46D-07 DEPred=-2.03D-08 R=-1.22D+01
 Trust test=-1.22D+01 RLast= 4.94D-03 DXMaxT set to 1.63D-01
 ITU= -1 -1  0  0 -1  1  1  1  1  1  1  1  0  1  1  1  1  1  1  1
 ITU=  1  1  1  1  0
     Eigenvalues ---    0.00091   0.00140   0.00241   0.00309   0.00427
     Eigenvalues ---    0.01242   0.04412   0.04704   0.05062   0.05209
     Eigenvalues ---    0.05342   0.05511   0.05791   0.05895   0.07907
     Eigenvalues ---    0.09692   0.10513   0.12531   0.12985   0.13102
     Eigenvalues ---    0.13314   0.15980   0.16026   0.16067   0.16172
     Eigenvalues ---    0.16407   0.16842   0.21252   0.22535   0.23760
     Eigenvalues ---    0.25420   0.27466   0.28339   0.28884   0.29307
     Eigenvalues ---    0.29632   0.30839   0.31811   0.32034   0.32061
     Eigenvalues ---    0.32115   0.32169   0.32193   0.32282   0.32388
     Eigenvalues ---    0.32663   0.33960   0.36696   0.37620   0.41123
     Eigenvalues ---    0.55721
 En-DIIS/RFO-DIIS/Sim-DIIS IScMMF=       -3 using points:    25   24   23   22   21   20   19   18   17   16
 RFO step:  Lambda=-3.79726254D-09.
 DIIS inversion failure, remove point  10.
 DIIS inversion failure, remove point   9.
 DIIS inversion failure, remove point   8.
 DIIS inversion failure, remove point   7.
 DIIS inversion failure, remove point   6.
 DIIS inversion failure, remove point   5.
 DIIS inversion failure, remove point   4.
 RFO-DIIS uses    3 points instead of   10
 DidBck=F Rises=F RFO-DIIS coefs:    1.39289   -0.47032    0.07742    0.00000    0.00000
                  RFO-DIIS coefs:    0.00000    0.00000    0.00000    0.00000    0.00000
 Iteration  1 RMS(Cart)=  0.00037504 RMS(Int)=  0.00000005
 Iteration  2 RMS(Cart)=  0.00000007 RMS(Int)=  0.00000001
 Variable       Old X    -DE/DX   Delta X   Delta X   Delta X     New X
                                 (Linear)    (Quad)   (Total)
    R1        2.62038   0.00000   0.00001  -0.00001   0.00000   2.62039
    R2        2.62761  -0.00000  -0.00000  -0.00001  -0.00001   2.62760
    R3        2.62088   0.00000  -0.00001   0.00000  -0.00000   2.62088
    R4        3.00123   0.00001  -0.00000   0.00001   0.00001   3.00124
    R5        2.77978  -0.00002  -0.00003  -0.00004  -0.00006   2.77971
    R6        2.77897   0.00000  -0.00002  -0.00001  -0.00004   2.77893
    R7        2.85403   0.00000   0.00000   0.00001   0.00001   2.85404
    R8        2.07005  -0.00000   0.00000   0.00000   0.00000   2.07005
    R9        2.05876   0.00000  -0.00000   0.00000   0.00000   2.05876
   R10        2.07368  -0.00000  -0.00000  -0.00000  -0.00001   2.07368
   R11        2.07165   0.00000  -0.00000   0.00000   0.00000   2.07165
   R12        2.07310   0.00000  -0.00000   0.00000  -0.00000   2.07310
   R13        2.85200   0.00000   0.00001   0.00000   0.00001   2.85201
   R14        2.07093   0.00000  -0.00000   0.00000   0.00000   2.07094
   R15        2.06607   0.00000  -0.00000  -0.00000  -0.00001   2.06607
   R16        2.07371   0.00000  -0.00000   0.00000  -0.00000   2.07371
   R17        2.07072  -0.00000   0.00000  -0.00000   0.00000   2.07072
   R18        2.06733  -0.00000  -0.00000  -0.00000  -0.00000   2.06733
    A1        1.96547  -0.00000  -0.00002  -0.00001  -0.00003   1.96545
    A2        1.95092  -0.00000   0.00001   0.00000   0.00001   1.95093
    A3        1.85153   0.00002   0.00000   0.00004   0.00004   1.85156
    A4        1.96754   0.00000  -0.00000   0.00001   0.00001   1.96755
    A5        1.86178   0.00000  -0.00000  -0.00001  -0.00002   1.86176
    A6        1.85682  -0.00001   0.00002  -0.00003  -0.00002   1.85680
    A7        2.09043  -0.00001   0.00008   0.00000   0.00008   2.09051
    A8        2.05617   0.00001  -0.00003   0.00006   0.00003   2.05619
    A9        1.96087  -0.00000   0.00007   0.00003   0.00011   1.96097
   A10        1.91559   0.00000   0.00002   0.00001   0.00003   1.91562
   A11        1.86401  -0.00000   0.00000   0.00000   0.00000   1.86402
   A12        1.85048  -0.00000  -0.00002  -0.00000  -0.00002   1.85046
   A13        1.97104   0.00000   0.00001   0.00001   0.00001   1.97106
   A14        1.95349   0.00000  -0.00000  -0.00000  -0.00001   1.95349
   A15        1.90324  -0.00000  -0.00001  -0.00001  -0.00002   1.90322
   A16        1.89313  -0.00000  -0.00001  -0.00000  -0.00002   1.89312
   A17        1.92985   0.00000  -0.00000  -0.00000  -0.00001   1.92985
   A18        1.95342  -0.00000   0.00001   0.00000   0.00001   1.95343
   A19        1.89589   0.00000   0.00000   0.00000   0.00000   1.89590
   A20        1.88552   0.00000   0.00001   0.00002   0.00002   1.88555
   A21        1.90464  -0.00000  -0.00001  -0.00001  -0.00002   1.90463
   A22        1.95694   0.00001  -0.00004   0.00002  -0.00002   1.95693
   A23        1.86548  -0.00000   0.00001   0.00000   0.00001   1.86549
   A24        1.83244  -0.00000   0.00002   0.00001   0.00003   1.83247
   A25        1.96355  -0.00000   0.00001  -0.00002  -0.00001   1.96354
   A26        1.92875   0.00000   0.00001   0.00001   0.00003   1.92877
   A27        1.91104  -0.00000  -0.00002  -0.00002  -0.00004   1.91100
   A28        1.86964  -0.00000   0.00001  -0.00002  -0.00000   1.86964
   A29        1.93651   0.00000  -0.00001   0.00001  -0.00000   1.93651
   A30        1.95955  -0.00000  -0.00001  -0.00002  -0.00003   1.95952
   A31        1.89474   0.00000   0.00001   0.00001   0.00002   1.89475
   A32        1.89103   0.00000   0.00001   0.00002   0.00003   1.89106
   A33        1.91039   0.00000  -0.00001   0.00000  -0.00000   1.91038
    D1       -2.43922   0.00000   0.00043   0.00004   0.00047  -2.43875
    D2        1.35081  -0.00000   0.00021  -0.00013   0.00008   1.35089
    D3        1.74484  -0.00000   0.00046   0.00003   0.00049   1.74533
    D4       -0.74832  -0.00000   0.00023  -0.00013   0.00010  -0.74822
    D5       -0.35943   0.00000   0.00046   0.00004   0.00050  -0.35893
    D6       -2.85259   0.00000   0.00023  -0.00013   0.00011  -2.85248
    D7        2.18858  -0.00000   0.00016  -0.00013   0.00003   2.18861
    D8       -1.95230  -0.00000   0.00018  -0.00012   0.00007  -1.95223
    D9        0.07565  -0.00000   0.00017  -0.00013   0.00003   0.07569
   D10       -1.56876   0.00000   0.00034   0.00004   0.00037  -1.56839
   D11        0.57354   0.00001   0.00036   0.00005   0.00041   0.57395
   D12        2.60149   0.00000   0.00034   0.00004   0.00038   2.60187
   D13       -1.00011  -0.00000  -0.00036   0.00008  -0.00029  -1.00040
   D14        1.15924  -0.00000  -0.00037   0.00006  -0.00030   1.15894
   D15       -3.09497  -0.00000  -0.00037   0.00004  -0.00033  -3.09530
   D16        2.74409   0.00000  -0.00058  -0.00006  -0.00064   2.74345
   D17       -1.37974   0.00000  -0.00058  -0.00008  -0.00066  -1.38040
   D18        0.64924  -0.00000  -0.00058  -0.00010  -0.00069   0.64855
   D19        3.13770   0.00000   0.00004  -0.00003   0.00001   3.13771
   D20       -1.06829   0.00000   0.00003  -0.00004  -0.00000  -1.06829
   D21        1.05915  -0.00000   0.00003  -0.00005  -0.00002   1.05913
   D22        1.06008   0.00000   0.00002  -0.00005  -0.00003   1.06005
   D23        3.13727   0.00000   0.00001  -0.00005  -0.00004   3.13724
   D24       -1.01847  -0.00000   0.00001  -0.00007  -0.00006  -1.01853
   D25       -1.09584   0.00000   0.00003  -0.00003  -0.00001  -1.09584
   D26        0.98136   0.00000   0.00002  -0.00003  -0.00001   0.98134
   D27        3.10879  -0.00000   0.00002  -0.00005  -0.00003   3.10876
   D28       -3.02985   0.00000   0.00001  -0.00001  -0.00001  -3.02986
   D29       -0.96451   0.00000   0.00002  -0.00001   0.00001  -0.96451
   D30        1.17946   0.00000  -0.00001  -0.00001  -0.00002   1.17943
   D31        1.14992  -0.00000   0.00002  -0.00001   0.00000   1.14993
   D32       -3.06793  -0.00000   0.00003  -0.00001   0.00002  -3.06791
   D33       -0.92396  -0.00000  -0.00000  -0.00001  -0.00001  -0.92397
   D34       -0.99206   0.00000   0.00002   0.00002   0.00004  -0.99202
   D35        1.07328   0.00000   0.00003   0.00003   0.00005   1.07333
   D36       -3.06594   0.00000  -0.00000   0.00003   0.00003  -3.06591
         Item               Value     Threshold  Converged?
 Maximum Force            0.000017     0.000450     YES
 RMS     Force            0.000004     0.000300     YES
 Maximum Displacement     0.001159     0.001800     YES
 RMS     Displacement     0.000375     0.001200     YES
 Predicted change in Energy=-4.804176D-09
 Optimization completed.
    -- Stationary point found.
                           ----------------------------
                           !   Optimized Parameters   !
                           ! (Angstroms and Degrees)  !
 --------------------------                            --------------------------
 ! Name  Definition              Value          Derivative Info.                !
 --------------------------------------------------------------------------------
 ! R1    R(1,2)                  1.3866         -DE/DX =    0.0                 !
 ! R2    R(1,3)                  1.3905         -DE/DX =    0.0                 !
 ! R3    R(1,4)                  1.3869         -DE/DX =    0.0                 !
 ! R4    R(1,5)                  1.5882         -DE/DX =    0.0                 !
 ! R5    R(5,6)                  1.471          -DE/DX =    0.0                 !
 ! R6    R(5,8)                  1.4706         -DE/DX =    0.0                 !
 ! R7    R(6,7)                  1.5103         -DE/DX =    0.0                 !
 ! R8    R(6,10)                 1.0954         -DE/DX =    0.0                 !
 ! R9    R(6,11)                 1.0894         -DE/DX =    0.0                 !
 ! R10   R(7,12)                 1.0973         -DE/DX =    0.0                 !
 ! R11   R(7,13)                 1.0963         -DE/DX =    0.0                 !
 ! R12   R(7,14)                 1.097          -DE/DX =    0.0                 !
 ! R13   R(8,9)                  1.5092         -DE/DX =    0.0                 !
 ! R14   R(8,15)                 1.0959         -DE/DX =    0.0                 !
 ! R15   R(8,16)                 1.0933         -DE/DX =    0.0                 !
 ! R16   R(9,17)                 1.0974         -DE/DX =    0.0                 !
 ! R17   R(9,18)                 1.0958         -DE/DX =    0.0                 !
 ! R18   R(9,19)                 1.094          -DE/DX =    0.0                 !
 ! A1    A(2,1,3)              112.6134         -DE/DX =    0.0                 !
 ! A2    A(2,1,4)              111.7793         -DE/DX =    0.0                 !
 ! A3    A(2,1,5)              106.0846         -DE/DX =    0.0                 !
 ! A4    A(3,1,4)              112.7317         -DE/DX =    0.0                 !
 ! A5    A(3,1,5)              106.6721         -DE/DX =    0.0                 !
 ! A6    A(4,1,5)              106.3878         -DE/DX =    0.0                 !
 ! A7    A(1,5,6)              119.7728         -DE/DX =    0.0                 !
 ! A8    A(1,5,8)              117.8098         -DE/DX =    0.0                 !
 ! A9    A(6,5,8)              112.3494         -DE/DX =    0.0                 !
 ! A10   A(5,6,7)              109.7552         -DE/DX =    0.0                 !
 ! A11   A(5,6,10)             106.8            -DE/DX =    0.0                 !
 ! A12   A(5,6,11)             106.0247         -DE/DX =    0.0                 !
 ! A13   A(7,6,10)             112.9325         -DE/DX =    0.0                 !
 ! A14   A(7,6,11)             111.9269         -DE/DX =    0.0                 !
 ! A15   A(10,6,11)            109.0474         -DE/DX =    0.0                 !
 ! A16   A(6,7,12)             108.4684         -DE/DX =    0.0                 !
 ! A17   A(6,7,13)             110.5725         -DE/DX =    0.0                 !
 ! A18   A(6,7,14)             111.9227         -DE/DX =    0.0                 !
 ! A19   A(12,7,13)            108.6265         -DE/DX =    0.0                 !
 ! A20   A(12,7,14)            108.0325         -DE/DX =    0.0                 !
 ! A21   A(13,7,14)            109.1281         -DE/DX =    0.0                 !
 ! A22   A(5,8,9)              112.1246         -DE/DX =    0.0                 !
 ! A23   A(5,8,15)             106.8842         -DE/DX =    0.0                 !
 ! A24   A(5,8,16)             104.9909         -DE/DX =    0.0                 !
 ! A25   A(9,8,15)             112.5029         -DE/DX =    0.0                 !
 ! A26   A(9,8,16)             110.5091         -DE/DX =    0.0                 !
 ! A27   A(15,8,16)            109.4945         -DE/DX =    0.0                 !
 ! A28   A(8,9,17)             107.1225         -DE/DX =    0.0                 !
 ! A29   A(8,9,18)             110.9538         -DE/DX =    0.0                 !
 ! A30   A(8,9,19)             112.2737         -DE/DX =    0.0                 !
 ! A31   A(17,9,18)            108.5605         -DE/DX =    0.0                 !
 ! A32   A(17,9,19)            108.3479         -DE/DX =    0.0                 !
 ! A33   A(18,9,19)            109.4572         -DE/DX =    0.0                 !
 ! D1    D(2,1,5,6)           -139.7569         -DE/DX =    0.0                 !
 ! D2    D(2,1,5,8)             77.3957         -DE/DX =    0.0                 !
 ! D3    D(3,1,5,6)             99.9721         -DE/DX =    0.0                 !
 ! D4    D(3,1,5,8)            -42.8753         -DE/DX =    0.0                 !
 ! D5    D(4,1,5,6)            -20.5937         -DE/DX =    0.0                 !
 ! D6    D(4,1,5,8)           -163.4411         -DE/DX =    0.0                 !
 ! D7    D(1,5,6,7)            125.3965         -DE/DX =    0.0                 !
 ! D8    D(1,5,6,10)          -111.8585         -DE/DX =    0.0                 !
 ! D9    D(1,5,6,11)             4.3346         -DE/DX =    0.0                 !
 ! D10   D(8,5,6,7)            -89.8834         -DE/DX =    0.0                 !
 ! D11   D(8,5,6,10)            32.8616         -DE/DX =    0.0                 !
 ! D12   D(8,5,6,11)           149.0546         -DE/DX =    0.0                 !
 ! D13   D(1,5,8,9)            -57.3023         -DE/DX =    0.0                 !
 ! D14   D(1,5,8,15)            66.4197         -DE/DX =    0.0                 !
 ! D15   D(1,5,8,16)          -177.3287         -DE/DX =    0.0                 !
 ! D16   D(6,5,8,9)            157.2249         -DE/DX =    0.0                 !
 ! D17   D(6,5,8,15)           -79.0531         -DE/DX =    0.0                 !
 ! D18   D(6,5,8,16)            37.1986         -DE/DX =    0.0                 !
 ! D19   D(5,6,7,12)           179.7772         -DE/DX =    0.0                 !
 ! D20   D(5,6,7,13)           -61.2082         -DE/DX =    0.0                 !
 ! D21   D(5,6,7,14)            60.6849         -DE/DX =    0.0                 !
 ! D22   D(10,6,7,12)           60.738          -DE/DX =    0.0                 !
 ! D23   D(10,6,7,13)          179.7525         -DE/DX =    0.0                 !
 ! D24   D(10,6,7,14)          -58.3543         -DE/DX =    0.0                 !
 ! D25   D(11,6,7,12)          -62.7868         -DE/DX =    0.0                 !
 ! D26   D(11,6,7,13)           56.2277         -DE/DX =    0.0                 !
 ! D27   D(11,6,7,14)          178.1208         -DE/DX =    0.0                 !
 ! D28   D(5,8,9,17)          -173.5975         -DE/DX =    0.0                 !
 ! D29   D(5,8,9,18)           -55.2625         -DE/DX =    0.0                 !
 ! D30   D(5,8,9,19)            67.5779         -DE/DX =    0.0                 !
 ! D31   D(15,8,9,17)           65.8858         -DE/DX =    0.0                 !
 ! D32   D(15,8,9,18)         -175.7792         -DE/DX =    0.0                 !
 ! D33   D(15,8,9,19)          -52.9388         -DE/DX =    0.0                 !
 ! D34   D(16,8,9,17)          -56.8408         -DE/DX =    0.0                 !
 ! D35   D(16,8,9,18)           61.4942         -DE/DX =    0.0                 !
 ! D36   D(16,8,9,19)         -175.6654         -DE/DX =    0.0                 !
 --------------------------------------------------------------------------------
 GradGradGradGradGradGradGradGradGradGradGradGradGradGradGradGradGradGrad

                          Input orientation:                          
 ---------------------------------------------------------------------
 Center     Atomic      Atomic             Coordinates (Angstroms)
 Number     Number       Type             X           Y           Z
 ---------------------------------------------------------------------
      1          5           0       -1.761478    0.664078   -0.223561
      2          9           0       -1.547439    1.590986   -1.232431
      3          9           0       -2.115652    1.258669    0.982440
      4          9           0       -2.650636   -0.325920   -0.614491
      5          8           0       -0.366221   -0.055847    0.015799
      6          6           0       -0.324609   -1.506285    0.257302
      7          6           0        0.608837   -2.162021   -0.732474
      8          6           0        0.656617    0.668663    0.784859
      9          6           0        0.992993    2.003724    0.166641
     10          1           0       -0.009987   -1.645189    1.297334
     11          1           0       -1.349219   -1.859280    0.145637
     12          1           0        0.627024   -3.240593   -0.531184
     13          1           0        0.256079   -2.003158   -1.758210
     14          1           0        1.634102   -1.782355   -0.642070
     15          1           0        0.276967    0.764158    1.808443
     16          1           0        1.531443    0.012921    0.779879
     17          1           0        1.836941    2.418295    0.732402
     18          1           0        1.298517    1.885522   -0.879021
     19          1           0        0.159261    2.709612    0.225120
 ---------------------------------------------------------------------
                    Distance matrix (angstroms):
                    1          2          3          4          5
     1  B    0.000000
     2  F    1.386647   0.000000
     3  F    1.390474   2.310618   0.000000
     4  F    1.386912   2.296393   2.312428   0.000000
     5  O    1.588183   2.380213   2.392249   2.385112   0.000000
     6  C    2.646941   3.647973   3.373223   2.750216   1.470995
     7  C    3.723469   4.357126   4.697328   3.742907   2.438570
     8  C    2.619945   3.126980   2.841235   3.726298   1.470566
     9  C    3.087720   2.929428   3.299137   4.394706   2.472255
    10  H    3.273157   4.385921   3.600747   3.516899   2.072497
    11  H    2.583331   3.720578   3.318021   2.150041   2.058037
    12  H    4.587595   5.344548   5.482398   4.386949   3.380582
    13  H    3.679650   4.055489   4.876042   3.545449   2.706730
    14  H    4.205965   4.674415   5.093870   4.525588   2.723034
    15  H    2.879985   3.641294   2.579040   3.953447   2.073565
    16  H    3.503459   4.002399   3.859303   4.421410   2.046869
    17  H    4.115794   3.999880   4.126771   5.429842   3.389516
    18  H    3.359334   2.882901   3.938849   4.533902   2.709422
    19  H    2.841613   2.507709   2.802499   4.220773   2.822713
                    6          7          8          9         10
     6  C    0.000000
     7  C    1.510287   0.000000
     8  C    2.443670   3.212064   0.000000
     9  C    3.750261   4.278951   1.509215   0.000000
    10  H    1.095421   2.184073   2.461890   3.949557   0.000000
    11  H    1.089449   2.167190   3.289753   4.517654   1.779265
    12  H    2.129587   1.097345   4.124940   5.303183   2.508899
    13  H    2.155544   1.096272   3.710291   4.505907   3.087925
    14  H    2.172932   1.097036   2.999849   3.924211   2.546199
    15  H    2.814755   3.889592   1.095891   2.178240   2.479623
    16  H    2.454792   2.805135   1.093318   2.151578   2.322304
    17  H    4.505591   4.963205   2.111192   1.097362   4.499133
    18  H    3.928120   4.108496   2.159000   1.095777   4.349095
    19  H    4.243696   4.985170   2.173969   1.093986   4.488049
                   11         12         13         14         15
    11  H    0.000000
    12  H    2.504326   0.000000
    13  H    2.494457   1.781696   0.000000
    14  H    3.086520   1.775657   1.787028   0.000000
    15  H    3.505971   4.651282   4.514365   3.785705   0.000000
    16  H    3.493653   3.622459   3.483249   2.292486   1.787739
    17  H    5.365963   5.923138   5.315216   4.424452   2.515463
    18  H    4.699359   5.181597   4.120859   3.690811   3.086015
    19  H    4.812131   6.016289   5.114017   4.806760   2.511087
                   16         17         18         19
    16  H    0.000000
    17  H    2.425162   0.000000
    18  H    2.512536   1.780571   0.000000
    19  H    3.076164   1.776742   1.787780   0.000000
 Stoichiometry    C4H10BF3O
 Framework group  C1[X(C4H10BF3O)]
 Deg. of freedom    51
 Full point group                 C1      NOp   1
 Largest Abelian subgroup         C1      NOp   1
 Largest concise Abelian subgroup C1      NOp   1
                         Standard orientation:                         
 ---------------------------------------------------------------------
 Center     Atomic      Atomic             Coordinates (Angstroms)
 Number     Number       Type             X           Y           Z
 ---------------------------------------------------------------------
      1          5           0       -0.937999   -0.701678   -0.045290
      2          9           0       -1.559493   -0.272945   -1.208356
      3          9           0       -1.682556   -0.418501    1.094387
      4          9           0       -0.563562   -2.034809   -0.123285
      5          8           0        0.406754    0.135478    0.069328
      6          6           0        1.640612   -0.523165    0.524973
      7          6           0        2.737951   -0.310158   -0.490626
      8          6           0        0.311006    1.527096    0.534942
      9          6           0       -0.606095    2.354730   -0.332051
     10          1           0        1.880385   -0.101611    1.507189
     11          1           0        1.393203   -1.577736    0.641457
     12          1           0        3.647663   -0.805633   -0.128555
     13          1           0        2.460261   -0.749783   -1.455732
     14          1           0        2.964179    0.753935   -0.632101
     15          1           0       -0.018564    1.491277    1.579489
     16          1           0        1.333238    1.912024    0.487878
     17          1           0       -0.527649    3.393182    0.013877
     18          1           0       -0.296188    2.312580   -1.382246
     19          1           0       -1.650903    2.041607   -0.247576
 ---------------------------------------------------------------------
 Rotational constants (GHZ):           1.7494926           1.4176798           1.0073207

 **********************************************************************

            Population analysis using the SCF Density.

 **********************************************************************

 Orbital symmetries:
       Occupied  (A) (A) (A) (A) (A) (A) (A) (A) (A) (A) (A) (A)
                 (A) (A) (A) (A) (A) (A) (A) (A) (A) (A) (A) (A)
                 (A) (A) (A) (A) (A) (A) (A) (A) (A) (A) (A) (A)
                 (A)
       Virtual   (A) (A) (A) (A) (A) (A) (A) (A) (A) (A) (A) (A)
                 (A) (A) (A) (A) (A) (A) (A) (A) (A) (A) (A) (A)
                 (A) (A) (A) (A) (A) (A) (A) (A) (A) (A) (A) (A)
                 (A) (A) (A) (A) (A) (A) (A) (A) (A) (A) (A) (A)
                 (A) (A) (A) (A) (A) (A) (A) (A) (A) (A) (A) (A)
                 (A) (A) (A) (A) (A) (A) (A) (A) (A) (A) (A) (A)
                 (A) (A) (A) (A) (A) (A) (A) (A) (A) (A) (A) (A)
                 (A) (A) (A) (A) (A) (A) (A) (A) (A) (A) (A) (A)
                 (A) (A) (A) (A) (A) (A) (A) (A) (A) (A) (A) (A)
                 (A) (A) (A) (A) (A) (A) (A) (A) (A) (A) (A) (A)
                 (A) (A) (A) (A) (A) (A) (A) (A) (A) (A) (A) (A)
                 (A) (A) (A) (A) (A) (A) (A) (A) (A) (A) (A) (A)
                 (A) (A) (A) (A) (A) (A) (A) (A) (A) (A) (A) (A)
                 (A) (A) (A) (A) (A) (A) (A) (A) (A) (A) (A) (A)
                 (A) (A) (A) (A) (A) (A) (A) (A) (A) (A) (A) (A)
                 (A) (A) (A) (A) (A) (A) (A) (A) (A) (A) (A) (A)
                 (A) (A) (A) (A) (A) (A) (A) (A) (A) (A) (A) (A)
                 (A) (A) (A) (A) (A) (A) (A) (A) (A) (A) (A) (A)
                 (A) (A) (A) (A) (A) (A) (A) (A) (A) (A) (A) (A)
                 (A) (A) (A) (A) (A) (A) (A) (A) (A) (A) (A) (A)
                 (A) (A) (A) (A) (A) (A) (A) (A) (A) (A) (A) (A)
                 (A) (A) (A) (A) (A) (A) (A) (A)
 The electronic state is 1-A.
 Alpha  occ. eigenvalues --  -24.81452 -24.81159 -24.80888 -19.36068 -10.37476
 Alpha  occ. eigenvalues --  -10.37208 -10.30154 -10.29988  -6.99685  -1.32056
 Alpha  occ. eigenvalues --   -1.27728  -1.27368  -1.20734  -0.90212  -0.86321
 Alpha  occ. eigenvalues --   -0.75619  -0.74590  -0.67288  -0.63981  -0.62313
 Alpha  occ. eigenvalues --   -0.61045  -0.59144  -0.57814  -0.55311  -0.52607
 Alpha  occ. eigenvalues --   -0.51770  -0.51390  -0.50899  -0.48742  -0.48648
 Alpha  occ. eigenvalues --   -0.48642  -0.47255  -0.46824  -0.46353  -0.45307
 Alpha  occ. eigenvalues --   -0.44190  -0.41166
 Alpha virt. eigenvalues --    0.03798   0.04867   0.04950   0.05049   0.06869
 Alpha virt. eigenvalues --    0.06962   0.07145   0.07264   0.07557   0.09288
 Alpha virt. eigenvalues --    0.09584   0.09852   0.10978   0.11822   0.12873
 Alpha virt. eigenvalues --    0.13930   0.14541   0.15049   0.15152   0.15762
 Alpha virt. eigenvalues --    0.16543   0.17342   0.17639   0.18153   0.18463
 Alpha virt. eigenvalues --    0.18989   0.19599   0.19766   0.20479   0.20860
 Alpha virt. eigenvalues --    0.22801   0.22871   0.23577   0.24320   0.24757
 Alpha virt. eigenvalues --    0.25044   0.25879   0.26881   0.27573   0.28146
 Alpha virt. eigenvalues --    0.28940   0.29501   0.29967   0.31207   0.31689
 Alpha virt. eigenvalues --    0.31905   0.32821   0.33456   0.34143   0.35278
 Alpha virt. eigenvalues --    0.36334   0.36828   0.37593   0.38654   0.39067
 Alpha virt. eigenvalues --    0.39620   0.40463   0.40930   0.41345   0.41639
 Alpha virt. eigenvalues --    0.42396   0.42800   0.43085   0.43484   0.44048
 Alpha virt. eigenvalues --    0.44936   0.45737   0.46139   0.47571   0.47790
 Alpha virt. eigenvalues --    0.49836   0.50289   0.51098   0.51188   0.52330
 Alpha virt. eigenvalues --    0.53199   0.53556   0.54089   0.55097   0.55579
 Alpha virt. eigenvalues --    0.55757   0.56768   0.57225   0.58471   0.59289
 Alpha virt. eigenvalues --    0.59754   0.60477   0.61127   0.62251   0.63346
 Alpha virt. eigenvalues --    0.64272   0.64707   0.64903   0.65955   0.67075
 Alpha virt. eigenvalues --    0.68047   0.70033   0.70472   0.71442   0.71599
 Alpha virt. eigenvalues --    0.72511   0.73149   0.74082   0.74526   0.75851
 Alpha virt. eigenvalues --    0.76380   0.76899   0.78684   0.79129   0.79573
 Alpha virt. eigenvalues --    0.80718   0.82055   0.82844   0.83358   0.83840
 Alpha virt. eigenvalues --    0.86654   0.87540   0.88198   0.89239   0.91128
 Alpha virt. eigenvalues --    0.92606   0.94021   0.96297   0.97437   0.98752
 Alpha virt. eigenvalues --    1.00237   1.00843   1.04210   1.05091   1.06608
 Alpha virt. eigenvalues --    1.08534   1.09595   1.10795   1.12390   1.14398
 Alpha virt. eigenvalues --    1.15651   1.18246   1.21274   1.22412   1.25219
 Alpha virt. eigenvalues --    1.27074   1.30140   1.32222   1.33673   1.35095
 Alpha virt. eigenvalues --    1.35885   1.38697   1.38855   1.42228   1.42382
 Alpha virt. eigenvalues --    1.43462   1.44783   1.46679   1.47764   1.49351
 Alpha virt. eigenvalues --    1.49971   1.51753   1.53626   1.55227   1.58004
 Alpha virt. eigenvalues --    1.59913   1.61476   1.61964   1.63555   1.66118
 Alpha virt. eigenvalues --    1.66754   1.67816   1.69267   1.69476   1.71081
 Alpha virt. eigenvalues --    1.73617   1.74790   1.75086   1.76657   1.77701
 Alpha virt. eigenvalues --    1.78265   1.80154   1.81767   1.82477   1.83705
 Alpha virt. eigenvalues --    1.85832   1.87593   1.88357   1.90826   1.92259
 Alpha virt. eigenvalues --    1.93627   1.96051   1.97227   1.98460   1.99974
 Alpha virt. eigenvalues --    2.01686   2.02752   2.03787   2.05631   2.07380
 Alpha virt. eigenvalues --    2.07767   2.09534   2.10616   2.11766   2.12784
 Alpha virt. eigenvalues --    2.15567   2.17127   2.20051   2.23453   2.26402
 Alpha virt. eigenvalues --    2.28837   2.30640   2.32223   2.33476   2.35077
 Alpha virt. eigenvalues --    2.37849   2.39565   2.40283   2.41485   2.47214
 Alpha virt. eigenvalues --    2.47319   2.49079   2.52320   2.54951   2.55993
 Alpha virt. eigenvalues --    2.58502   2.61320   2.63963   2.65380   2.68032
 Alpha virt. eigenvalues --    2.72081   2.73176   2.75975   2.83094   2.84639
 Alpha virt. eigenvalues --    2.86585   2.88595   2.94183   2.99300   3.06805
 Alpha virt. eigenvalues --    3.07251   3.15601   3.20175   3.36423   3.61979
 Alpha virt. eigenvalues --    3.67383   3.70049   3.74080   3.90249   3.98103
 Alpha virt. eigenvalues --    4.61304   4.63602   4.65821   4.66319   4.68119
 Alpha virt. eigenvalues --    4.70206   4.72436   4.74429   4.75165   4.79278
 Alpha virt. eigenvalues --    4.81201   4.83754   4.86393   4.92152   4.94338
          Condensed to atoms (all electrons):
               1          2          3          4          5          6
     1  B    3.556779  -0.023326   0.065948   0.137837  -0.353293  -0.095628
     2  F   -0.023326   9.605203  -0.103010  -0.174099   0.292516   0.019267
     3  F    0.065948  -0.103010   9.727037  -0.144115   0.025302  -0.056044
     4  F    0.137837  -0.174099  -0.144115  10.000408  -0.153779  -0.098315
     5  O   -0.353293   0.292516   0.025302  -0.153779  10.078258   0.114550
     6  C   -0.095628   0.019267  -0.056044  -0.098315   0.114550   4.989952
     7  C   -0.028025   0.016914   0.001713   0.001102  -0.022440   0.233195
     8  C    0.048380  -0.109011   0.028530   0.021833  -0.105930  -0.056784
     9  C   -0.002611   0.015297  -0.034486   0.016805  -0.063963  -0.078249
    10  H    0.037325  -0.006050  -0.002346  -0.001810  -0.145655   0.005903
    11  H    0.022340   0.020445   0.003088  -0.090425  -0.321456   0.177660
    12  H    0.004469   0.001774   0.000573  -0.001725   0.132685   0.099018
    13  H    0.010070  -0.000932  -0.000369  -0.000258  -0.092779  -0.073894
    14  H   -0.016967   0.001667  -0.000945  -0.007120  -0.183281  -0.083150
    15  H    0.045860   0.007722   0.031363   0.016417  -0.055740   0.011978
    16  H    0.009127  -0.007205  -0.002018  -0.000659  -0.169780  -0.097537
    17  H    0.005660   0.001712   0.002533  -0.000097   0.061300   0.002158
    18  H    0.016657   0.006441  -0.001907   0.007117  -0.110216  -0.044040
    19  H    0.046584  -0.025984   0.033456   0.010758  -0.125187  -0.016676
               7          8          9         10         11         12
     1  B   -0.028025   0.048380  -0.002611   0.037325   0.022340   0.004469
     2  F    0.016914  -0.109011   0.015297  -0.006050   0.020445   0.001774
     3  F    0.001713   0.028530  -0.034486  -0.002346   0.003088   0.000573
     4  F    0.001102   0.021833   0.016805  -0.001810  -0.090425  -0.001725
     5  O   -0.022440  -0.105930  -0.063963  -0.145655  -0.321456   0.132685
     6  C    0.233195  -0.056784  -0.078249   0.005903   0.177660   0.099018
     7  C    4.465834  -0.025364   0.013193  -0.101582  -0.063211   0.267354
     8  C   -0.025364   5.024282   0.191100   0.029992  -0.026190  -0.028526
     9  C    0.013193   0.191100   4.656918   0.076059  -0.034176  -0.000578
    10  H   -0.101582   0.029992   0.076059   1.668532  -0.367519  -0.111986
    11  H   -0.063211  -0.026190  -0.034176  -0.367519   2.211957  -0.085790
    12  H    0.267354  -0.028526  -0.000578  -0.111986  -0.085790   1.405122
    13  H    0.304847   0.027687   0.013180   0.118812  -0.125596  -0.259603
    14  H    0.360719   0.006639  -0.023984  -0.077814   0.139194  -0.273804
    15  H    0.004377  -0.158772  -0.097496  -0.027543  -0.012172  -0.001536
    16  H    0.030232   0.003192  -0.070514   0.030954   0.006603  -0.000198
    17  H   -0.001775   0.105955   0.235158  -0.003742   0.000179  -0.000286
    18  H    0.009191  -0.120384   0.387614   0.007842  -0.011184  -0.000800
    19  H   -0.000557   0.016090   0.266716   0.007714  -0.001176  -0.000493
              13         14         15         16         17         18
     1  B    0.010070  -0.016967   0.045860   0.009127   0.005660   0.016657
     2  F   -0.000932   0.001667   0.007722  -0.007205   0.001712   0.006441
     3  F   -0.000369  -0.000945   0.031363  -0.002018   0.002533  -0.001907
     4  F   -0.000258  -0.007120   0.016417  -0.000659  -0.000097   0.007117
     5  O   -0.092779  -0.183281  -0.055740  -0.169780   0.061300  -0.110216
     6  C   -0.073894  -0.083150   0.011978  -0.097537   0.002158  -0.044040
     7  C    0.304847   0.360719   0.004377   0.030232  -0.001775   0.009191
     8  C    0.027687   0.006639  -0.158772   0.003192   0.105955  -0.120384
     9  C    0.013180  -0.023984  -0.097496  -0.070514   0.235158   0.387614
    10  H    0.118812  -0.077814  -0.027543   0.030954  -0.003742   0.007842
    11  H   -0.125596   0.139194  -0.012172   0.006603   0.000179  -0.011184
    12  H   -0.259603  -0.273804  -0.001536  -0.000198  -0.000286  -0.000800
    13  H    1.419911  -0.200699   0.001138  -0.009899  -0.000539   0.007898
    14  H   -0.200699   1.526324  -0.001465   0.040213   0.001447  -0.008715
    15  H    0.001138  -0.001465   2.086810  -0.387441  -0.098704   0.140312
    16  H   -0.009899   0.040213  -0.387441   2.193195  -0.071088  -0.151416
    17  H   -0.000539   0.001447  -0.098704  -0.071088   1.406455  -0.245864
    18  H    0.007898  -0.008715   0.140312  -0.151416  -0.245864   1.531682
    19  H    0.000258   0.000301  -0.127132   0.110360  -0.263528  -0.291856
              19
     1  B    0.046584
     2  F   -0.025984
     3  F    0.033456
     4  F    0.010758
     5  O   -0.125187
     6  C   -0.016676
     7  C   -0.000557
     8  C    0.016090
     9  C    0.266716
    10  H    0.007714
    11  H   -0.001176
    12  H   -0.000493
    13  H    0.000258
    14  H    0.000301
    15  H   -0.127132
    16  H    0.110360
    17  H   -0.263528
    18  H   -0.291856
    19  H    1.498240
 Mulliken charges:
               1
     1  B    1.512816
     2  F   -0.539340
     3  F   -0.574303
     4  F   -0.539874
     5  O   -0.801114
     6  C    1.046638
     7  C    0.534282
     8  C    1.127282
     9  C    0.534018
    10  H   -0.137085
    11  H   -0.442572
    12  H   -0.145668
    13  H   -0.139235
    14  H   -0.198561
    15  H   -0.377975
    16  H   -0.456119
    17  H   -0.136934
    18  H   -0.128371
    19  H   -0.137887
 Sum of Mulliken charges =  -0.00000
 Mulliken charges with hydrogens summed into heavy atoms:
               1
     1  B    1.512816
     2  F   -0.539340
     3  F   -0.574303
     4  F   -0.539874
     5  O   -0.801114
     6  C    0.466982
     7  C    0.050819
     8  C    0.293189
     9  C    0.130826
 Electronic spatial extent (au):  <R**2>=           1262.6366
 Charge=             -0.0000 electrons
 Dipole moment (field-independent basis, Debye):
    X=              6.6351    Y=              4.2598    Z=              1.6660  Tot=              8.0589
 Quadrupole moment (field-independent basis, Debye-Ang):
   XX=            -52.0413   YY=            -51.1596   ZZ=            -54.9633
   XY=             -3.2934   XZ=              1.2217   YZ=              0.5483
 Traceless Quadrupole moment (field-independent basis, Debye-Ang):
   XX=              0.6801   YY=              1.5618   ZZ=             -2.2419
   XY=             -3.2934   XZ=              1.2217   YZ=              0.5483
 Octapole moment (field-independent basis, Debye-Ang**2):
  XXX=              9.2255  YYY=              9.9920  ZZZ=              2.3401  XYY=              0.1829
  XXY=             -4.5631  XXZ=              1.6042  XZZ=              3.3150  YZZ=             -1.8898
  YYZ=              2.8463  XYZ=             -0.6089
 Hexadecapole moment (field-independent basis, Debye-Ang**3):
 XXXX=           -714.5970 YYYY=           -569.6782 ZZZZ=           -200.9191 XXXY=             -0.1412
 XXXZ=              8.2505 YYYX=              4.5787 YYYZ=              3.2423 ZZZX=              1.7800
 ZZZY=              3.2954 XXYY=           -213.9471 XXZZ=           -167.3363 YYZZ=           -129.2765
 XXYZ=              0.0334 YYXZ=              1.5396 ZZXY=              0.4856
 N-N= 5.238328608611D+02 E-N=-2.364224885054D+03  KE= 5.547990741811D+02
 Unable to Open any file for archive entry.
 1\1\GINC-B-DFT-3--25439D1DEB0F-2PCZBCBPIJ\FOpt\RwB97XD\Aug-CC-pVDZ\C4H
 10B1F3O1\ROOT\24-May-2026\0\\# nmr=giao wb97xd/aug-cc-pvdz opt freq in
 tegral=(acc2e=12,grid=ultrafine) scrf=(cpcm,solvent=water)\\BF3OEt2_D2
 O | solvent model: D2O as water\\0,1\B,-1.7614778651,0.6640779149,-0.2
 235611002\F,-1.547439233,1.5909859884,-1.2324313436\F,-2.1156516547,1.
 2586693324,0.982440431\F,-2.6506361655,-0.3259197212,-0.6144911264\O,-
 0.366220879,-0.0558466475,0.0157992074\C,-0.3246092499,-1.5062851384,0
 .2573022169\C,0.6088366627,-2.1620214207,-0.7324735325\C,0.65661654,0.
 6686632895,0.7848590801\C,0.9929925346,2.0037240636,0.1666414839\H,-0.
 0099867687,-1.645189336,1.2973338929\H,-1.3492191176,-1.8592798443,0.1
 456373016\H,0.6270241554,-3.2405931085,-0.5311835332\H,0.2560786249,-2
 .0031576422,-1.7582101891\H,1.6341017214,-1.7823549557,-0.6420699483\H
 ,0.2769670224,0.7641584031,1.8084430414\H,1.5314426805,0.0129207847,0.
 7798787984\H,1.8369413517,2.4182950477,0.7324019827\H,1.2985173967,1.8
 855218715,-0.8790214441\H,0.1592612433,2.7096121188,0.2251197812\\Vers
 ion=ES64L-G16RevC.01\State=1-A\HF=-558.1523264\RMSD=3.070e-09\RMSF=5.5
 93e-06\Dipole=2.678779,-1.4392206,0.897574\Quadrupole=-1.5529685,2.925
 9702,-1.3730017,1.2160633,1.062214,0.3761864\PG=C01 [X(C4H10B1F3O1)]\\
 @
 The archive entry for this job was punched.


 Not by the face shall a man be known, but by the mask.
                               -- Karen Blixen
 Job cpu time:       0 days  5 hours  1 minutes 33.2 seconds.
 Elapsed time:       0 days  0 hours 15 minutes 31.8 seconds.
 File lengths (MBytes):  RWF=    304 Int=      0 D2E=      0 Chk=     32 Scr=     32
 Normal termination of Gaussian 16 at Sun May 24 17:27:34 2026.
 Link1:  Proceeding to internal job step number  2.
 ----------------------------------------------------------------------
 #N Geom=AllCheck Guess=TCheck SCRF=Check GenChk RwB97XD/Aug-CC-pVDZ Fr
 eq
 ----------------------------------------------------------------------
 1/10=4,29=7,30=1,38=1,40=1/1,3;
 2/12=2,40=1/2;
 3/5=16,7=10,11=2,14=-4,25=1,27=12,30=1,36=2,70=2,71=2,74=-58,75=-5,116=1,140=1/1,2,3;
 4/5=101/1;
 5/5=2,38=6,87=12,98=1/2;
 8/6=4,10=90,11=11,87=12/1;
 10/15=4,46=1,87=12/2;
 11/6=1,8=1,9=11,15=111,16=1,87=12/1,2,10;
 10/6=1,46=1,87=12/2;
 6/7=2,8=2,9=2,10=2,28=1,87=12/1;
 7/8=1,10=1,25=1,87=12/1,2,3,16;
 1/10=4,30=1/3;
 99//99;
 Structure from the checkpoint file:  "/inspire/hdd/project/materialscienceresearch/lipenghui-253107030018/g16/00-B-DFT-Shift/04-output/BF3OEt2_D2O/BF3OEt2_D2O.chk"
 -----------------------------------------
 BF3OEt2_D2O | solvent model: D2O as water
 -----------------------------------------
 Charge =  0 Multiplicity = 1
 Redundant internal coordinates found in file.  (old form).
 B,0,-1.7614778651,0.6640779149,-0.2235611002
 F,0,-1.547439233,1.5909859884,-1.2324313436
 F,0,-2.1156516547,1.2586693324,0.982440431
 F,0,-2.6506361655,-0.3259197212,-0.6144911264
 O,0,-0.366220879,-0.0558466475,0.0157992074
 C,0,-0.3246092499,-1.5062851384,0.2573022169
 C,0,0.6088366627,-2.1620214207,-0.7324735325
 C,0,0.65661654,0.6686632895,0.7848590801
 C,0,0.9929925346,2.0037240636,0.1666414839
 H,0,-0.0099867687,-1.645189336,1.2973338929
 H,0,-1.3492191176,-1.8592798443,0.1456373016
 H,0,0.6270241554,-3.2405931085,-0.5311835332
 H,0,0.2560786249,-2.0031576422,-1.7582101891
 H,0,1.6341017214,-1.7823549557,-0.6420699483
 H,0,0.2769670224,0.7641584031,1.8084430414
 H,0,1.5314426805,0.0129207847,0.7798787984
 H,0,1.8369413517,2.4182950477,0.7324019827
 H,0,1.2985173967,1.8855218715,-0.8790214441
 H,0,0.1592612433,2.7096121188,0.2251197812
 Recover connectivity data from disk.

 GradGradGradGradGradGradGradGradGradGradGradGradGradGradGradGradGradGrad
 Berny optimization.
 Initialization pass.
                           ----------------------------
                           !    Initial Parameters    !
                           ! (Angstroms and Degrees)  !
 --------------------------                            --------------------------
 ! Name  Definition              Value          Derivative Info.                !
 --------------------------------------------------------------------------------
 ! R1    R(1,2)                  1.3866         calculate D2E/DX2 analytically  !
 ! R2    R(1,3)                  1.3905         calculate D2E/DX2 analytically  !
 ! R3    R(1,4)                  1.3869         calculate D2E/DX2 analytically  !
 ! R4    R(1,5)                  1.5882         calculate D2E/DX2 analytically  !
 ! R5    R(5,6)                  1.471          calculate D2E/DX2 analytically  !
 ! R6    R(5,8)                  1.4706         calculate D2E/DX2 analytically  !
 ! R7    R(6,7)                  1.5103         calculate D2E/DX2 analytically  !
 ! R8    R(6,10)                 1.0954         calculate D2E/DX2 analytically  !
 ! R9    R(6,11)                 1.0894         calculate D2E/DX2 analytically  !
 ! R10   R(7,12)                 1.0973         calculate D2E/DX2 analytically  !
 ! R11   R(7,13)                 1.0963         calculate D2E/DX2 analytically  !
 ! R12   R(7,14)                 1.097          calculate D2E/DX2 analytically  !
 ! R13   R(8,9)                  1.5092         calculate D2E/DX2 analytically  !
 ! R14   R(8,15)                 1.0959         calculate D2E/DX2 analytically  !
 ! R15   R(8,16)                 1.0933         calculate D2E/DX2 analytically  !
 ! R16   R(9,17)                 1.0974         calculate D2E/DX2 analytically  !
 ! R17   R(9,18)                 1.0958         calculate D2E/DX2 analytically  !
 ! R18   R(9,19)                 1.094          calculate D2E/DX2 analytically  !
 ! A1    A(2,1,3)              112.6134         calculate D2E/DX2 analytically  !
 ! A2    A(2,1,4)              111.7793         calculate D2E/DX2 analytically  !
 ! A3    A(2,1,5)              106.0846         calculate D2E/DX2 analytically  !
 ! A4    A(3,1,4)              112.7317         calculate D2E/DX2 analytically  !
 ! A5    A(3,1,5)              106.6721         calculate D2E/DX2 analytically  !
 ! A6    A(4,1,5)              106.3878         calculate D2E/DX2 analytically  !
 ! A7    A(1,5,6)              119.7728         calculate D2E/DX2 analytically  !
 ! A8    A(1,5,8)              117.8098         calculate D2E/DX2 analytically  !
 ! A9    A(6,5,8)              112.3494         calculate D2E/DX2 analytically  !
 ! A10   A(5,6,7)              109.7552         calculate D2E/DX2 analytically  !
 ! A11   A(5,6,10)             106.8            calculate D2E/DX2 analytically  !
 ! A12   A(5,6,11)             106.0247         calculate D2E/DX2 analytically  !
 ! A13   A(7,6,10)             112.9325         calculate D2E/DX2 analytically  !
 ! A14   A(7,6,11)             111.9269         calculate D2E/DX2 analytically  !
 ! A15   A(10,6,11)            109.0474         calculate D2E/DX2 analytically  !
 ! A16   A(6,7,12)             108.4684         calculate D2E/DX2 analytically  !
 ! A17   A(6,7,13)             110.5725         calculate D2E/DX2 analytically  !
 ! A18   A(6,7,14)             111.9227         calculate D2E/DX2 analytically  !
 ! A19   A(12,7,13)            108.6265         calculate D2E/DX2 analytically  !
 ! A20   A(12,7,14)            108.0325         calculate D2E/DX2 analytically  !
 ! A21   A(13,7,14)            109.1281         calculate D2E/DX2 analytically  !
 ! A22   A(5,8,9)              112.1246         calculate D2E/DX2 analytically  !
 ! A23   A(5,8,15)             106.8842         calculate D2E/DX2 analytically  !
 ! A24   A(5,8,16)             104.9909         calculate D2E/DX2 analytically  !
 ! A25   A(9,8,15)             112.5029         calculate D2E/DX2 analytically  !
 ! A26   A(9,8,16)             110.5091         calculate D2E/DX2 analytically  !
 ! A27   A(15,8,16)            109.4945         calculate D2E/DX2 analytically  !
 ! A28   A(8,9,17)             107.1225         calculate D2E/DX2 analytically  !
 ! A29   A(8,9,18)             110.9538         calculate D2E/DX2 analytically  !
 ! A30   A(8,9,19)             112.2737         calculate D2E/DX2 analytically  !
 ! A31   A(17,9,18)            108.5605         calculate D2E/DX2 analytically  !
 ! A32   A(17,9,19)            108.3479         calculate D2E/DX2 analytically  !
 ! A33   A(18,9,19)            109.4572         calculate D2E/DX2 analytically  !
 ! D1    D(2,1,5,6)           -139.7569         calculate D2E/DX2 analytically  !
 ! D2    D(2,1,5,8)             77.3957         calculate D2E/DX2 analytically  !
 ! D3    D(3,1,5,6)             99.9721         calculate D2E/DX2 analytically  !
 ! D4    D(3,1,5,8)            -42.8753         calculate D2E/DX2 analytically  !
 ! D5    D(4,1,5,6)            -20.5937         calculate D2E/DX2 analytically  !
 ! D6    D(4,1,5,8)           -163.4411         calculate D2E/DX2 analytically  !
 ! D7    D(1,5,6,7)            125.3965         calculate D2E/DX2 analytically  !
 ! D8    D(1,5,6,10)          -111.8585         calculate D2E/DX2 analytically  !
 ! D9    D(1,5,6,11)             4.3346         calculate D2E/DX2 analytically  !
 ! D10   D(8,5,6,7)            -89.8834         calculate D2E/DX2 analytically  !
 ! D11   D(8,5,6,10)            32.8616         calculate D2E/DX2 analytically  !
 ! D12   D(8,5,6,11)           149.0546         calculate D2E/DX2 analytically  !
 ! D13   D(1,5,8,9)            -57.3023         calculate D2E/DX2 analytically  !
 ! D14   D(1,5,8,15)            66.4197         calculate D2E/DX2 analytically  !
 ! D15   D(1,5,8,16)          -177.3287         calculate D2E/DX2 analytically  !
 ! D16   D(6,5,8,9)            157.2249         calculate D2E/DX2 analytically  !
 ! D17   D(6,5,8,15)           -79.0531         calculate D2E/DX2 analytically  !
 ! D18   D(6,5,8,16)            37.1986         calculate D2E/DX2 analytically  !
 ! D19   D(5,6,7,12)           179.7772         calculate D2E/DX2 analytically  !
 ! D20   D(5,6,7,13)           -61.2082         calculate D2E/DX2 analytically  !
 ! D21   D(5,6,7,14)            60.6849         calculate D2E/DX2 analytically  !
 ! D22   D(10,6,7,12)           60.738          calculate D2E/DX2 analytically  !
 ! D23   D(10,6,7,13)          179.7525         calculate D2E/DX2 analytically  !
 ! D24   D(10,6,7,14)          -58.3543         calculate D2E/DX2 analytically  !
 ! D25   D(11,6,7,12)          -62.7868         calculate D2E/DX2 analytically  !
 ! D26   D(11,6,7,13)           56.2277         calculate D2E/DX2 analytically  !
 ! D27   D(11,6,7,14)          178.1208         calculate D2E/DX2 analytically  !
 ! D28   D(5,8,9,17)          -173.5975         calculate D2E/DX2 analytically  !
 ! D29   D(5,8,9,18)           -55.2625         calculate D2E/DX2 analytically  !
 ! D30   D(5,8,9,19)            67.5779         calculate D2E/DX2 analytically  !
 ! D31   D(15,8,9,17)           65.8858         calculate D2E/DX2 analytically  !
 ! D32   D(15,8,9,18)         -175.7792         calculate D2E/DX2 analytically  !
 ! D33   D(15,8,9,19)          -52.9388         calculate D2E/DX2 analytically  !
 ! D34   D(16,8,9,17)          -56.8408         calculate D2E/DX2 analytically  !
 ! D35   D(16,8,9,18)           61.4942         calculate D2E/DX2 analytically  !
 ! D36   D(16,8,9,19)         -175.6654         calculate D2E/DX2 analytically  !
 --------------------------------------------------------------------------------
 Trust Radius=3.00D-01 FncErr=1.00D-07 GrdErr=1.00D-07 EigMax=2.50D+02 EigMin=1.00D-04
 Number of steps in this run=      2 maximum allowed number of steps=      2.
 GradGradGradGradGradGradGradGradGradGradGradGradGradGradGradGradGradGrad

                          Input orientation:                          
 ---------------------------------------------------------------------
 Center     Atomic      Atomic             Coordinates (Angstroms)
 Number     Number       Type             X           Y           Z
 ---------------------------------------------------------------------
      1          5           0       -1.761478    0.664078   -0.223561
      2          9           0       -1.547439    1.590986   -1.232431
      3          9           0       -2.115652    1.258669    0.982440
      4          9           0       -2.650636   -0.325920   -0.614491
      5          8           0       -0.366221   -0.055847    0.015799
      6          6           0       -0.324609   -1.506285    0.257302
      7          6           0        0.608837   -2.162021   -0.732474
      8          6           0        0.656617    0.668663    0.784859
      9          6           0        0.992993    2.003724    0.166641
     10          1           0       -0.009987   -1.645189    1.297334
     11          1           0       -1.349219   -1.859280    0.145637
     12          1           0        0.627024   -3.240593   -0.531184
     13          1           0        0.256079   -2.003158   -1.758210
     14          1           0        1.634102   -1.782355   -0.642070
     15          1           0        0.276967    0.764158    1.808443
     16          1           0        1.531443    0.012921    0.779879
     17          1           0        1.836941    2.418295    0.732402
     18          1           0        1.298517    1.885522   -0.879021
     19          1           0        0.159261    2.709612    0.225120
 ---------------------------------------------------------------------
                    Distance matrix (angstroms):
                    1          2          3          4          5
     1  B    0.000000
     2  F    1.386647   0.000000
     3  F    1.390474   2.310618   0.000000
     4  F    1.386912   2.296393   2.312428   0.000000
     5  O    1.588183   2.380213   2.392249   2.385112   0.000000
     6  C    2.646941   3.647973   3.373223   2.750216   1.470995
     7  C    3.723469   4.357126   4.697328   3.742907   2.438570
     8  C    2.619945   3.126980   2.841235   3.726298   1.470566
     9  C    3.087720   2.929428   3.299137   4.394706   2.472255
    10  H    3.273157   4.385921   3.600747   3.516899   2.072497
    11  H    2.583331   3.720578   3.318021   2.150041   2.058037
    12  H    4.587595   5.344548   5.482398   4.386949   3.380582
    13  H    3.679650   4.055489   4.876042   3.545449   2.706730
    14  H    4.205965   4.674415   5.093870   4.525588   2.723034
    15  H    2.879985   3.641294   2.579040   3.953447   2.073565
    16  H    3.503459   4.002399   3.859303   4.421410   2.046869
    17  H    4.115794   3.999880   4.126771   5.429842   3.389516
    18  H    3.359334   2.882901   3.938849   4.533902   2.709422
    19  H    2.841613   2.507709   2.802499   4.220773   2.822713
                    6          7          8          9         10
     6  C    0.000000
     7  C    1.510287   0.000000
     8  C    2.443670   3.212064   0.000000
     9  C    3.750261   4.278951   1.509215   0.000000
    10  H    1.095421   2.184073   2.461890   3.949557   0.000000
    11  H    1.089449   2.167190   3.289753   4.517654   1.779265
    12  H    2.129587   1.097345   4.124940   5.303183   2.508899
    13  H    2.155544   1.096272   3.710291   4.505907   3.087925
    14  H    2.172932   1.097036   2.999849   3.924211   2.546199
    15  H    2.814755   3.889592   1.095891   2.178240   2.479623
    16  H    2.454792   2.805135   1.093318   2.151578   2.322304
    17  H    4.505591   4.963205   2.111192   1.097362   4.499133
    18  H    3.928120   4.108496   2.159000   1.095777   4.349095
    19  H    4.243696   4.985170   2.173969   1.093986   4.488049
                   11         12         13         14         15
    11  H    0.000000
    12  H    2.504326   0.000000
    13  H    2.494457   1.781696   0.000000
    14  H    3.086520   1.775657   1.787028   0.000000
    15  H    3.505971   4.651282   4.514365   3.785705   0.000000
    16  H    3.493653   3.622459   3.483249   2.292486   1.787739
    17  H    5.365963   5.923138   5.315216   4.424452   2.515463
    18  H    4.699359   5.181597   4.120859   3.690811   3.086015
    19  H    4.812131   6.016289   5.114017   4.806760   2.511087
                   16         17         18         19
    16  H    0.000000
    17  H    2.425162   0.000000
    18  H    2.512536   1.780571   0.000000
    19  H    3.076164   1.776742   1.787780   0.000000
 Stoichiometry    C4H10BF3O
 Framework group  C1[X(C4H10BF3O)]
 Deg. of freedom    51
 Full point group                 C1      NOp   1
 Largest Abelian subgroup         C1      NOp   1
 Largest concise Abelian subgroup C1      NOp   1
                         Standard orientation:                         
 ---------------------------------------------------------------------
 Center     Atomic      Atomic             Coordinates (Angstroms)
 Number     Number       Type             X           Y           Z
 ---------------------------------------------------------------------
      1          5           0       -0.937999   -0.701678   -0.045290
      2          9           0       -1.559493   -0.272945   -1.208356
      3          9           0       -1.682556   -0.418501    1.094387
      4          9           0       -0.563562   -2.034809   -0.123285
      5          8           0        0.406754    0.135478    0.069328
      6          6           0        1.640612   -0.523165    0.524973
      7          6           0        2.737951   -0.310158   -0.490626
      8          6           0        0.311006    1.527096    0.534942
      9          6           0       -0.606095    2.354730   -0.332051
     10          1           0        1.880385   -0.101611    1.507189
     11          1           0        1.393203   -1.577736    0.641457
     12          1           0        3.647663   -0.805633   -0.128555
     13          1           0        2.460261   -0.749783   -1.455732
     14          1           0        2.964179    0.753935   -0.632101
     15          1           0       -0.018564    1.491277    1.579489
     16          1           0        1.333238    1.912024    0.487878
     17          1           0       -0.527649    3.393182    0.013877
     18          1           0       -0.296188    2.312580   -1.382246
     19          1           0       -1.650903    2.041607   -0.247576
 ---------------------------------------------------------------------
 Rotational constants (GHZ):           1.7494926           1.4176798           1.0073207
 Standard basis: Aug-CC-pVDZ (5D, 7F)
 There are   315 symmetry adapted cartesian basis functions of A   symmetry.
 There are   297 symmetry adapted basis functions of A   symmetry.
   297 basis functions,   497 primitive gaussians,   315 cartesian basis functions
    37 alpha electrons       37 beta electrons
       nuclear repulsion energy       523.8449467702 Hartrees.
 NAtoms=   19 NActive=   19 NUniq=   19 SFac= 1.00D+00 NAtFMM=   60 NAOKFM=F Big=F
 Integral buffers will be    131072 words long.
 Raffenetti 2 integral format.
 Two-electron integral symmetry is turned on.
 Nuclear repulsion after empirical dispersion term =      523.8328608611 Hartrees.
 Force inversion solution in PCM.
 Force PCM accuracy= 1.00D-12.
 ------------------------------------------------------------------------------
 Polarizable Continuum Model (PCM)
 =================================
 Model                : C-PCM.
 Atomic radii         : UFF (Universal Force Field).
 Polarization charges : Total charges.
 Charge compensation  : None.
 Solution method      : Matrix inversion.
 Cavity type          : Scaled VdW (van der Waals Surface) (Alpha=1.100).
 Cavity algorithm     : GePol (No added spheres)
                        Default sphere list used, NSphG=   19.
                        Lebedev-Laikov grids with approx.  5.0 points / Ang**2.
                        Smoothing algorithm: York/Karplus (Gamma=1.0000).
                        Polarization charges: spherical gaussians, with
                                              point-specific exponents (IZeta= 3).
                        Self-potential: point-specific (ISelfS= 7).
                        Self-field    : sphere-specific E.n sum rule (ISelfD= 2).
 1st derivatives      : Analytical E(r).r(x)/FMM algorithm (CHGder, D1EAlg=3).
                        Cavity 1st derivative terms included.
 2nd derivatives      : Analytical E(r).r(xy)/FMM algorithm (CHGder, D2EAlg=3).
                        Cavity 2nd derivative terms included.
 Solvent              : Water, Eps=  78.355300 Eps(inf)=   1.777849
 ------------------------------------------------------------------------------
 Spheres list:
 ISph  on   Nord     Re0    Alpha      Xe            Ye            Ze
    1   B      1    2.0415  1.100     -0.937999     -0.701678     -0.045290
    2   F      2    1.6820  1.100     -1.559493     -0.272945     -1.208356
    3   F      3    1.6820  1.100     -1.682556     -0.418501      1.094387
    4   F      4    1.6820  1.100     -0.563562     -2.034809     -0.123285
    5   O      5    1.7500  1.100      0.406754      0.135478      0.069328
    6   C      6    1.9255  1.100      1.640612     -0.523165      0.524973
    7   C      7    1.9255  1.100      2.737951     -0.310158     -0.490626
    8   C      8    1.9255  1.100      0.311006      1.527096      0.534942
    9   C      9    1.9255  1.100     -0.606095      2.354730     -0.332051
   10   H     10    1.4430  1.100      1.880385     -0.101611      1.507189
   11   H     11    1.4430  1.100      1.393203     -1.577736      0.641457
   12   H     12    1.4430  1.100      3.647663     -0.805633     -0.128555
   13   H     13    1.4430  1.100      2.460261     -0.749783     -1.455732
   14   H     14    1.4430  1.100      2.964179      0.753935     -0.632101
   15   H     15    1.4430  1.100     -0.018564      1.491277      1.579489
   16   H     16    1.4430  1.100      1.333238      1.912024      0.487878
   17   H     17    1.4430  1.100     -0.527649      3.393182      0.013877
   18   H     18    1.4430  1.100     -0.296188      2.312580     -1.382246
   19   H     19    1.4430  1.100     -1.650903      2.041607     -0.247576
 ------------------------------------------------------------------------------
 One-electron integrals computed using PRISM.
 NBasis=   297 RedAO= T EigKep=  2.73D-05  NBF=   297
 NBsUse=   297 1.00D-06 EigRej= -1.00D+00 NBFU=   297
 Initial guess from the checkpoint file:  "/inspire/hdd/project/materialscienceresearch/lipenghui-253107030018/g16/00-B-DFT-Shift/04-output/BF3OEt2_D2O/BF3OEt2_D2O.chk"
 B after Tr=    -0.000000    0.000000    0.000000
         Rot=    1.000000   -0.000000    0.000000    0.000000 Ang=   0.00 deg.
 Requested convergence on RMS density matrix=1.00D-08 within 128 cycles.
 Requested convergence on MAX density matrix=1.00D-06.
 Requested convergence on             energy=1.00D-06.
 No special actions if energy rises.
 Inv3:  Mode=1 IEnd=     7031883.
 Iteration    1 A*A^-1 deviation from unit magnitude is 4.00D-15 for    879.
 Iteration    1 A*A^-1 deviation from orthogonality  is 3.74D-15 for   1526    781.
 Iteration    1 A^-1*A deviation from unit magnitude is 3.77D-15 for    879.
 Iteration    1 A^-1*A deviation from orthogonality  is 1.89D-15 for    359    220.
 Error on total polarization charges =  0.01130
 SCF Done:  E(RwB97XD) =  -558.152326416     A.U. after    1 cycles
            NFock=  1  Conv=0.86D-09     -V/T= 2.0060
 DoSCS=F DFT=T ScalE2(SS,OS)=  1.000000  1.000000
 Range of M.O.s used for correlation:     1   297
 NBasis=   297 NAE=    37 NBE=    37 NFC=     0 NFV=     0
 NROrb=    297 NOA=    37 NOB=    37 NVA=   260 NVB=   260

 **** Warning!!: The largest alpha MO coefficient is  0.29159995D+02

 NEqPCM:  Using equilibrium solvation (IEInf=0, Eps=  78.3553, EpsInf=   1.7778)
          Differentiating once with respect to magnetic field using GIAOs.
          Electric field/nuclear overlap derivatives assumed to be zero.
 FoFJK:  IHMeth= 1 ICntrl=    6127 DoSepK=T KAlg= 0 I1Cent=           0 FoldK=F
 IRaf=         1 NMat=       1 IRICut=       1 DoRegI=T DoRafI=F ISym2E= 0 IDoP0=0 IntGTp=1.
          There are     3 degrees of freedom in the 1st order CPHF.  IDoFFX=0 NUNeed=     3.
      3 vectors produced by pass  0 Test12= 3.21D-13 3.33D-08 XBig12= 1.50D+01 5.33D-01.
 AX will form     3 AO Fock derivatives at one time.
      3 vectors produced by pass  1 Test12= 3.21D-13 3.33D-08 XBig12= 1.13D-01 4.83D-02.
      3 vectors produced by pass  2 Test12= 3.21D-13 3.33D-08 XBig12= 7.63D-04 3.46D-03.
      3 vectors produced by pass  3 Test12= 3.21D-13 3.33D-08 XBig12= 5.68D-06 3.63D-04.
      3 vectors produced by pass  4 Test12= 3.21D-13 3.33D-08 XBig12= 5.13D-08 5.19D-05.
      3 vectors produced by pass  5 Test12= 3.21D-13 3.33D-08 XBig12= 5.12D-10 5.23D-06.
      3 vectors produced by pass  6 Test12= 3.21D-13 3.33D-08 XBig12= 3.94D-12 4.01D-07.
 InvSVY:  IOpt=1 It=  1 EMax= 4.44D-16
 Solved reduced A of dimension    21 with     3 vectors.
 Calculating GIAO nuclear magnetic shielding tensors.
 SCF GIAO Magnetic shielding tensor (ppm):
      1  B    Isotropic =   111.5066   Anisotropy =     7.6187
   XX=   105.8395   YX=    -5.0700   ZX=    -1.1583
   XY=    -4.9785   YY=   112.8668   ZY=    -1.2553
   XZ=    -0.1511   YZ=    -1.3600   ZZ=   115.8136
   Eigenvalues:   103.1111   114.8230   116.5857
      2  F    Isotropic =   340.3652   Anisotropy =    52.5174
   XX=   341.2240   YX=     7.8230   ZX=    25.8308
   XY=     4.0646   YY=   324.2011   ZY=   -11.4742
   XZ=    24.5726   YZ=   -12.2156   ZZ=   355.6707
   Eigenvalues:   311.0469   334.6720   375.3768
      3  F    Isotropic =   356.0475   Anisotropy =    51.3267
   XX=   353.9596   YX=     0.7744   ZX=   -14.5183
   XY=     0.7223   YY=   335.5709   ZY=     3.3846
   XZ=   -26.3030   YZ=     3.7081   ZZ=   378.6120
   Eigenvalues:   334.6970   343.1802   390.2653
      4  F    Isotropic =   348.1821   Anisotropy =    41.5627
   XX=   346.1609   YX=    -7.9231   ZX=     1.8489
   XY=    -4.1885   YY=   373.4227   ZY=     5.4231
   XZ=    -2.0243   YZ=    10.3978   ZZ=   324.9627
   Eigenvalues:   323.6698   344.9860   375.8905
      5  O    Isotropic =   265.5843   Anisotropy =    43.1361
   XX=   290.4187   YX=     9.6345   ZX=    12.8472
   XY=    -9.5228   YY=   269.2116   ZY=    -1.3710
   XZ=    17.1112   YZ=     2.5034   ZZ=   237.1227
   Eigenvalues:   233.1933   269.2180   294.3417
      6  C    Isotropic =   122.8004   Anisotropy =    92.6190
   XX=   155.1049   YX=   -40.3383   ZX=    24.2226
   XY=   -32.8883   YY=   108.4423   ZY=   -19.6159
   XZ=    19.2853   YZ=   -14.4806   ZZ=   104.8539
   Eigenvalues:    86.3691    97.4857   184.5464
      7  C    Isotropic =   182.1082   Anisotropy =    20.0572
   XX=   191.6029   YX=    -6.5553   ZX=    -3.6737
   XY=    -2.3942   YY=   168.3836   ZY=    -7.1957
   XZ=    -8.1997   YZ=    -4.4051   ZZ=   186.3380
   Eigenvalues:   165.2727   185.5722   195.4796
      8  C    Isotropic =   122.6006   Anisotropy =    83.8030
   XX=    92.6801   YX=   -12.4756   ZX=    21.0687
   XY=    -9.7188   YY=   169.8283   ZY=    26.0076
   XZ=    16.5532   YZ=    23.4706   ZZ=   105.2934
   Eigenvalues:    73.2034   116.1292   178.4693
      9  C    Isotropic =   180.0321   Anisotropy =    17.9316
   XX=   173.5344   YX=    -8.1590   ZX=     7.7570
   XY=    -5.7797   YY=   187.2748   ZY=    -0.0902
   XZ=     6.9574   YZ=    -3.3651   ZZ=   179.2872
   Eigenvalues:   167.2638   180.8460   191.9865
     10  H    Isotropic =    27.7861   Anisotropy =     7.4042
   XX=    29.2157   YX=    -1.1434   ZX=     3.1783
   XY=    -2.8127   YY=    23.8036   ZY=    -1.9230
   XZ=     1.7420   YZ=     0.1694   ZZ=    30.3390
   Eigenvalues:    23.1569    27.4791    32.7222
     11  H    Isotropic =    26.5994   Anisotropy =     5.5604
   XX=    29.5411   YX=    -1.7960   ZX=     1.1126
   XY=     0.4295   YY=    27.9826   ZY=    -2.1769
   XZ=     0.6620   YZ=    -3.1668   ZZ=    22.2744
   Eigenvalues:    21.1790    28.3129    30.3064
     12  H    Isotropic =    30.3827   Anisotropy =    11.3701
   XX=    36.4248   YX=    -3.8129   ZX=     1.0014
   XY=    -3.6797   YY=    27.8510   ZY=    -0.7099
   XZ=     1.0185   YZ=    -0.7846   ZZ=    26.8724
   Eigenvalues:    26.2194    26.9659    37.9628
     13  H    Isotropic =    30.1790   Anisotropy =     7.7851
   XX=    29.0503   YX=     0.2481   ZX=    -1.7073
   XY=    -0.0143   YY=    27.6630   ZY=     2.8513
   XZ=    -0.6659   YZ=     3.5764   ZZ=    33.8237
   Eigenvalues:    26.1725    28.9955    35.3690
     14  H    Isotropic =    29.9550   Anisotropy =     7.0209
   XX=    30.5147   YX=     2.5684   ZX=    -2.3200
   XY=     1.7759   YY=    32.6916   ZY=    -0.5617
   XZ=    -2.2118   YZ=    -1.6879   ZZ=    26.6588
   Eigenvalues:    25.6096    29.6198    34.6356
     15  H    Isotropic =    27.1969   Anisotropy =     6.7967
   XX=    23.6663   YX=    -0.5180   ZX=     0.9087
   XY=    -0.7420   YY=    28.2274   ZY=     3.8232
   XZ=    -0.3063   YZ=     1.5045   ZZ=    29.6969
   Eigenvalues:    23.4912    26.3714    31.7280
     16  H    Isotropic =    27.4179   Anisotropy =     6.0897
   XX=    28.6459   YX=    -0.5181   ZX=     1.1103
   XY=     1.7562   YY=    30.9484   ZY=     1.0647
   XZ=     2.3323   YZ=     1.6823   ZZ=    22.6593
   Eigenvalues:    22.0444    28.7315    31.4777
     17  H    Isotropic =    30.3090   Anisotropy =    11.1609
   XX=    26.9582   YX=    -1.3467   ZX=     0.3521
   XY=    -0.9554   YY=    37.4859   ZY=     1.3102
   XZ=     0.3042   YZ=     1.2788   ZZ=    26.4828
   Eigenvalues:    26.0653    27.1120    37.7496
     18  H    Isotropic =    30.1317   Anisotropy =     7.3366
   XX=    27.2965   YX=    -0.4107   ZX=    -0.0916
   XY=    -0.3214   YY=    29.0401   ZY=    -2.5892
   XZ=    -1.2914   YZ=    -2.1162   ZZ=    34.0587
   Eigenvalues:    26.9573    28.4151    35.0228
     19  H    Isotropic =    29.7901   Anisotropy =     5.9261
   XX=    33.6851   YX=     0.1327   ZX=     0.1208
   XY=    -0.6036   YY=    30.2430   ZY=    -0.8234
   XZ=     0.9274   YZ=    -0.5692   ZZ=    25.4424
   Eigenvalues:    25.3152    30.3144    33.7409
 End of Minotr F.D. properties file   721 does not exist.
 End of Minotr F.D. properties file   722 does not exist.
 End of Minotr F.D. properties file   788 does not exist.
 Symmetrizing basis deriv contribution to polar:
 IMax=3 JMax=2 DiffMx= 0.00D+00
 G2DrvN: will do    20 centers at a time, making    1 passes.
 Calling FoFCou, ICntrl=  3107 FMM=F I1Cent=   0 AccDes= 1.00D-12.
 NEqPCM:  Using equilibrium solvation (IEInf=0, Eps=  78.3553, EpsInf=   1.7778)
 G2PCM: DoFxE=T DoFxN=T DoGrad=T DoDP/DQ/DG/TGxP=FFFF NFrqRd=   0 IEInf=0 SqF1=F DoCFld=F IF1Alg=4.
 End of G2Drv F.D. properties file   721 does not exist.
 End of G2Drv F.D. properties file   722 does not exist.
 End of G2Drv F.D. properties file   788 does not exist.
          IDoAtm=1111111111111111111
 NEqPCM:  Using equilibrium solvation (IEInf=0, Eps=  78.3553, EpsInf=   1.7778)
          Differentiating once with respect to electric field.
                with respect to dipole field.
          Differentiating once with respect to nuclear coordinates.
 Keep R1 ints in memory in canonical form, NReq=1994496423.
          There are    60 degrees of freedom in the 1st order CPHF.  IDoFFX=5 NUNeed=    60.
     57 vectors produced by pass  0 Test12= 1.60D-14 1.67D-09 XBig12= 2.31D+01 8.59D-01.
 AX will form    57 AO Fock derivatives at one time.
     57 vectors produced by pass  1 Test12= 1.60D-14 1.67D-09 XBig12= 1.60D+00 1.65D-01.
     57 vectors produced by pass  2 Test12= 1.60D-14 1.67D-09 XBig12= 6.59D-02 2.43D-02.
     57 vectors produced by pass  3 Test12= 1.60D-14 1.67D-09 XBig12= 6.38D-04 2.55D-03.
     57 vectors produced by pass  4 Test12= 1.60D-14 1.67D-09 XBig12= 5.35D-06 2.29D-04.
     57 vectors produced by pass  5 Test12= 1.60D-14 1.67D-09 XBig12= 2.99D-08 1.56D-05.
     46 vectors produced by pass  6 Test12= 1.60D-14 1.67D-09 XBig12= 1.65D-10 9.97D-07.
      8 vectors produced by pass  7 Test12= 1.60D-14 1.67D-09 XBig12= 8.53D-13 8.23D-08.
      3 vectors produced by pass  8 Test12= 1.60D-14 1.67D-09 XBig12= 3.93D-15 5.07D-09.
 InvSVY:  IOpt=1 It=  1 EMax= 7.99D-15
 Solved reduced A of dimension   399 with    60 vectors.
 Isotropic polarizability for W=    0.000000       88.56 Bohr**3.
 Dipole-magnetic dipole polarizability for W=    0.000000:
                 1             2             3 
      1  -0.310427D+01  0.283170D+01 -0.309989D+02
      2  -0.495030D+01  0.185693D+01  0.398702D+02
      3   0.319744D+02 -0.424812D+02  0.173073D+01
 DQ contribution to OR G for W=    0.000000:
                 1             2             3 
      1  -0.340823D+01 -0.220169D+01 -0.100145D+03
      2   0.281232D+01  0.296188D+00  0.130913D+03
      3   0.110556D+03 -0.140643D+03  0.311204D+01
 Optical Rotation G' tensor for W=    0.000000:
                 1             2             3 
      1   0.941774D+00  0.605979D+00  0.105754D+01
      2   0.605979D+00 -0.612723D+00 -0.563562D+00
      3   0.105754D+01 -0.563562D+00  0.154340D+00
 OR G Eigenvalues:    -1.4104     0.2019     1.6919  Iso=    -0.1611
 Eigenvectors:
   (1)  -0.431335   0.715710   0.549280
   (2)   0.340678   0.692964  -0.635405
   (3)   0.835397   0.086945   0.542727
 w=    0.000000 a.u., Optical Rotation Beta=     -0.1611 au.
 Molar Mass =    141.9276 grams/mole, [Alpha]D (static) =      -43.88 deg.
 AAT (total):
 -0.0372 -0.0347  0.9506
  0.0756  0.0200 -1.1653
 -0.8227  1.0385  0.0147
  0.0726  0.2819 -0.1657
 -0.4962  0.0819  0.5996
  0.2475 -0.6660 -0.1722
 -0.0739 -0.2364 -0.2024
  0.4137 -0.0662  0.5837
  0.2673 -0.7066  0.1547
  0.0440  0.0318 -0.8457
 -0.0384 -0.0200  0.4549
  0.6043 -0.1529 -0.0178
 -0.1119 -0.1091 -0.0243
  0.0914  0.1395 -0.2687
  0.0693 -0.0225 -0.0285
  0.1213  0.1159 -0.1149
  0.0533 -0.0871  0.1004
  0.0353 -0.1635 -0.0164
  0.0085  0.0561  0.0674
 -0.0714 -0.0846 -0.0265
  0.0182  0.1852  0.0615
  0.0234 -0.0315 -0.1856
 -0.1035 -0.1064  0.2598
  0.0988 -0.0434  0.0661
 -0.0655  0.0513  0.1005
 -0.0864 -0.0021  0.0756
 -0.1391 -0.0874  0.0833
 -0.0538  0.0403  0.0076
 -0.0483  0.1285  0.0466
  0.1155  0.0192 -0.0391
  0.0311 -0.0328  0.0858
  0.0061 -0.0322  0.0188
 -0.1401 -0.0406 -0.0161
  0.0240  0.1393  0.1758
 -0.0631 -0.0808  0.2046
 -0.0695 -0.1708  0.0537
 -0.0152 -0.0703  0.0113
  0.1153  0.1282 -0.0060
 -0.0809  0.2115 -0.0987
 -0.0278 -0.0556 -0.2003
 -0.0606 -0.0199 -0.1927
  0.1284 -0.0920  0.0378
  0.0517  0.1256 -0.0368
  0.0332 -0.0377 -0.0343
 -0.0948  0.1199 -0.0152
  0.0016 -0.0998  0.0228
  0.0007  0.0338  0.0517
  0.1086 -0.0820 -0.0560
 -0.0371  0.0369 -0.2378
 -0.1568 -0.0146  0.0739
  0.2031  0.0016  0.0545
  0.0614 -0.1090 -0.0261
  0.1488  0.0010  0.0016
 -0.1602 -0.1229 -0.0456
 -0.0169  0.0665  0.2056
  0.0231  0.0213 -0.1249
  0.0242  0.1268 -0.0187
 End of Minotr F.D. properties file   721 does not exist.
 End of Minotr F.D. properties file   722 does not exist.
 End of Minotr F.D. properties file   788 does not exist.

 **********************************************************************

            Population analysis using the SCF Density.

 **********************************************************************

 Orbital symmetries:
       Occupied  (A) (A) (A) (A) (A) (A) (A) (A) (A) (A) (A) (A)
                 (A) (A) (A) (A) (A) (A) (A) (A) (A) (A) (A) (A)
                 (A) (A) (A) (A) (A) (A) (A) (A) (A) (A) (A) (A)
                 (A)
       Virtual   (A) (A) (A) (A) (A) (A) (A) (A) (A) (A) (A) (A)
                 (A) (A) (A) (A) (A) (A) (A) (A) (A) (A) (A) (A)
                 (A) (A) (A) (A) (A) (A) (A) (A) (A) (A) (A) (A)
                 (A) (A) (A) (A) (A) (A) (A) (A) (A) (A) (A) (A)
                 (A) (A) (A) (A) (A) (A) (A) (A) (A) (A) (A) (A)
                 (A) (A) (A) (A) (A) (A) (A) (A) (A) (A) (A) (A)
                 (A) (A) (A) (A) (A) (A) (A) (A) (A) (A) (A) (A)
                 (A) (A) (A) (A) (A) (A) (A) (A) (A) (A) (A) (A)
                 (A) (A) (A) (A) (A) (A) (A) (A) (A) (A) (A) (A)
                 (A) (A) (A) (A) (A) (A) (A) (A) (A) (A) (A) (A)
                 (A) (A) (A) (A) (A) (A) (A) (A) (A) (A) (A) (A)
                 (A) (A) (A) (A) (A) (A) (A) (A) (A) (A) (A) (A)
                 (A) (A) (A) (A) (A) (A) (A) (A) (A) (A) (A) (A)
                 (A) (A) (A) (A) (A) (A) (A) (A) (A) (A) (A) (A)
                 (A) (A) (A) (A) (A) (A) (A) (A) (A) (A) (A) (A)
                 (A) (A) (A) (A) (A) (A) (A) (A) (A) (A) (A) (A)
                 (A) (A) (A) (A) (A) (A) (A) (A) (A) (A) (A) (A)
                 (A) (A) (A) (A) (A) (A) (A) (A) (A) (A) (A) (A)
                 (A) (A) (A) (A) (A) (A) (A) (A) (A) (A) (A) (A)
                 (A) (A) (A) (A) (A) (A) (A) (A) (A) (A) (A) (A)
                 (A) (A) (A) (A) (A) (A) (A) (A) (A) (A) (A) (A)
                 (A) (A) (A) (A) (A) (A) (A) (A)
 The electronic state is 1-A.
 Alpha  occ. eigenvalues --  -24.81452 -24.81159 -24.80888 -19.36068 -10.37476
 Alpha  occ. eigenvalues --  -10.37208 -10.30154 -10.29988  -6.99685  -1.32056
 Alpha  occ. eigenvalues --   -1.27728  -1.27368  -1.20734  -0.90212  -0.86321
 Alpha  occ. eigenvalues --   -0.75619  -0.74590  -0.67288  -0.63981  -0.62313
 Alpha  occ. eigenvalues --   -0.61045  -0.59144  -0.57814  -0.55311  -0.52607
 Alpha  occ. eigenvalues --   -0.51770  -0.51390  -0.50899  -0.48742  -0.48648
 Alpha  occ. eigenvalues --   -0.48642  -0.47255  -0.46824  -0.46353  -0.45307
 Alpha  occ. eigenvalues --   -0.44190  -0.41166
 Alpha virt. eigenvalues --    0.03798   0.04867   0.04950   0.05049   0.06869
 Alpha virt. eigenvalues --    0.06962   0.07145   0.07264   0.07557   0.09288
 Alpha virt. eigenvalues --    0.09584   0.09852   0.10978   0.11822   0.12873
 Alpha virt. eigenvalues --    0.13930   0.14541   0.15049   0.15152   0.15762
 Alpha virt. eigenvalues --    0.16543   0.17342   0.17639   0.18153   0.18463
 Alpha virt. eigenvalues --    0.18989   0.19599   0.19766   0.20479   0.20860
 Alpha virt. eigenvalues --    0.22801   0.22871   0.23577   0.24320   0.24757
 Alpha virt. eigenvalues --    0.25044   0.25879   0.26881   0.27573   0.28146
 Alpha virt. eigenvalues --    0.28940   0.29501   0.29967   0.31207   0.31689
 Alpha virt. eigenvalues --    0.31905   0.32821   0.33456   0.34143   0.35278
 Alpha virt. eigenvalues --    0.36334   0.36828   0.37593   0.38654   0.39067
 Alpha virt. eigenvalues --    0.39620   0.40463   0.40930   0.41345   0.41639
 Alpha virt. eigenvalues --    0.42396   0.42800   0.43085   0.43484   0.44048
 Alpha virt. eigenvalues --    0.44936   0.45737   0.46139   0.47571   0.47790
 Alpha virt. eigenvalues --    0.49836   0.50289   0.51098   0.51188   0.52330
 Alpha virt. eigenvalues --    0.53199   0.53556   0.54089   0.55097   0.55579
 Alpha virt. eigenvalues --    0.55757   0.56768   0.57225   0.58471   0.59289
 Alpha virt. eigenvalues --    0.59754   0.60477   0.61127   0.62251   0.63346
 Alpha virt. eigenvalues --    0.64272   0.64707   0.64903   0.65955   0.67075
 Alpha virt. eigenvalues --    0.68047   0.70033   0.70472   0.71442   0.71599
 Alpha virt. eigenvalues --    0.72511   0.73149   0.74082   0.74526   0.75851
 Alpha virt. eigenvalues --    0.76380   0.76899   0.78684   0.79129   0.79573
 Alpha virt. eigenvalues --    0.80718   0.82055   0.82844   0.83358   0.83840
 Alpha virt. eigenvalues --    0.86654   0.87540   0.88198   0.89239   0.91128
 Alpha virt. eigenvalues --    0.92606   0.94021   0.96297   0.97437   0.98752
 Alpha virt. eigenvalues --    1.00237   1.00843   1.04210   1.05091   1.06608
 Alpha virt. eigenvalues --    1.08534   1.09595   1.10795   1.12390   1.14398
 Alpha virt. eigenvalues --    1.15651   1.18246   1.21274   1.22412   1.25219
 Alpha virt. eigenvalues --    1.27074   1.30140   1.32222   1.33673   1.35095
 Alpha virt. eigenvalues --    1.35885   1.38697   1.38855   1.42228   1.42382
 Alpha virt. eigenvalues --    1.43462   1.44783   1.46679   1.47764   1.49351
 Alpha virt. eigenvalues --    1.49971   1.51753   1.53626   1.55227   1.58004
 Alpha virt. eigenvalues --    1.59913   1.61476   1.61964   1.63555   1.66118
 Alpha virt. eigenvalues --    1.66754   1.67816   1.69267   1.69476   1.71081
 Alpha virt. eigenvalues --    1.73617   1.74790   1.75086   1.76657   1.77701
 Alpha virt. eigenvalues --    1.78265   1.80154   1.81767   1.82477   1.83705
 Alpha virt. eigenvalues --    1.85832   1.87593   1.88357   1.90826   1.92259
 Alpha virt. eigenvalues --    1.93627   1.96051   1.97227   1.98460   1.99974
 Alpha virt. eigenvalues --    2.01686   2.02752   2.03787   2.05631   2.07380
 Alpha virt. eigenvalues --    2.07767   2.09534   2.10616   2.11766   2.12784
 Alpha virt. eigenvalues --    2.15567   2.17127   2.20051   2.23453   2.26402
 Alpha virt. eigenvalues --    2.28837   2.30640   2.32223   2.33476   2.35077
 Alpha virt. eigenvalues --    2.37849   2.39565   2.40283   2.41485   2.47214
 Alpha virt. eigenvalues --    2.47319   2.49079   2.52320   2.54951   2.55993
 Alpha virt. eigenvalues --    2.58502   2.61320   2.63963   2.65380   2.68032
 Alpha virt. eigenvalues --    2.72081   2.73176   2.75975   2.83094   2.84639
 Alpha virt. eigenvalues --    2.86585   2.88595   2.94183   2.99300   3.06805
 Alpha virt. eigenvalues --    3.07251   3.15601   3.20175   3.36423   3.61979
 Alpha virt. eigenvalues --    3.67383   3.70049   3.74080   3.90249   3.98103
 Alpha virt. eigenvalues --    4.61304   4.63602   4.65821   4.66319   4.68119
 Alpha virt. eigenvalues --    4.70206   4.72436   4.74429   4.75165   4.79278
 Alpha virt. eigenvalues --    4.81201   4.83754   4.86393   4.92152   4.94338
          Condensed to atoms (all electrons):
               1          2          3          4          5          6
     1  B    3.556779  -0.023326   0.065948   0.137837  -0.353293  -0.095628
     2  F   -0.023326   9.605203  -0.103010  -0.174099   0.292516   0.019267
     3  F    0.065948  -0.103010   9.727037  -0.144115   0.025302  -0.056044
     4  F    0.137837  -0.174099  -0.144115  10.000408  -0.153779  -0.098315
     5  O   -0.353293   0.292516   0.025302  -0.153779  10.078258   0.114550
     6  C   -0.095628   0.019267  -0.056044  -0.098315   0.114550   4.989952
     7  C   -0.028025   0.016914   0.001713   0.001102  -0.022440   0.233195
     8  C    0.048380  -0.109011   0.028530   0.021833  -0.105930  -0.056784
     9  C   -0.002611   0.015297  -0.034486   0.016805  -0.063963  -0.078249
    10  H    0.037325  -0.006050  -0.002346  -0.001810  -0.145655   0.005903
    11  H    0.022340   0.020445   0.003088  -0.090425  -0.321456   0.177660
    12  H    0.004469   0.001774   0.000573  -0.001725   0.132685   0.099018
    13  H    0.010070  -0.000932  -0.000369  -0.000258  -0.092779  -0.073894
    14  H   -0.016967   0.001667  -0.000945  -0.007120  -0.183281  -0.083150
    15  H    0.045860   0.007722   0.031363   0.016417  -0.055740   0.011978
    16  H    0.009127  -0.007205  -0.002018  -0.000659  -0.169780  -0.097537
    17  H    0.005660   0.001712   0.002533  -0.000097   0.061300   0.002158
    18  H    0.016657   0.006441  -0.001907   0.007117  -0.110216  -0.044040
    19  H    0.046584  -0.025984   0.033456   0.010758  -0.125187  -0.016676
               7          8          9         10         11         12
     1  B   -0.028025   0.048380  -0.002611   0.037325   0.022340   0.004469
     2  F    0.016914  -0.109011   0.015297  -0.006050   0.020445   0.001774
     3  F    0.001713   0.028530  -0.034486  -0.002346   0.003088   0.000573
     4  F    0.001102   0.021833   0.016805  -0.001810  -0.090425  -0.001725
     5  O   -0.022440  -0.105930  -0.063963  -0.145655  -0.321456   0.132685
     6  C    0.233195  -0.056784  -0.078249   0.005903   0.177660   0.099018
     7  C    4.465834  -0.025364   0.013193  -0.101582  -0.063211   0.267354
     8  C   -0.025364   5.024282   0.191100   0.029992  -0.026190  -0.028526
     9  C    0.013193   0.191100   4.656918   0.076059  -0.034176  -0.000578
    10  H   -0.101582   0.029992   0.076059   1.668531  -0.367519  -0.111986
    11  H   -0.063211  -0.026190  -0.034176  -0.367519   2.211957  -0.085790
    12  H    0.267354  -0.028526  -0.000578  -0.111986  -0.085790   1.405122
    13  H    0.304847   0.027687   0.013180   0.118812  -0.125596  -0.259603
    14  H    0.360719   0.006639  -0.023984  -0.077814   0.139194  -0.273804
    15  H    0.004377  -0.158772  -0.097496  -0.027543  -0.012172  -0.001536
    16  H    0.030232   0.003192  -0.070514   0.030954   0.006603  -0.000198
    17  H   -0.001775   0.105955   0.235158  -0.003742   0.000179  -0.000286
    18  H    0.009191  -0.120384   0.387614   0.007842  -0.011184  -0.000800
    19  H   -0.000557   0.016090   0.266716   0.007714  -0.001176  -0.000493
              13         14         15         16         17         18
     1  B    0.010070  -0.016967   0.045860   0.009127   0.005660   0.016657
     2  F   -0.000932   0.001667   0.007722  -0.007205   0.001712   0.006441
     3  F   -0.000369  -0.000945   0.031363  -0.002018   0.002533  -0.001907
     4  F   -0.000258  -0.007120   0.016417  -0.000659  -0.000097   0.007117
     5  O   -0.092779  -0.183281  -0.055740  -0.169780   0.061300  -0.110216
     6  C   -0.073894  -0.083150   0.011978  -0.097537   0.002158  -0.044040
     7  C    0.304847   0.360719   0.004377   0.030232  -0.001775   0.009191
     8  C    0.027687   0.006639  -0.158772   0.003192   0.105955  -0.120384
     9  C    0.013180  -0.023984  -0.097496  -0.070514   0.235158   0.387614
    10  H    0.118812  -0.077814  -0.027543   0.030954  -0.003742   0.007842
    11  H   -0.125596   0.139194  -0.012172   0.006603   0.000179  -0.011184
    12  H   -0.259603  -0.273804  -0.001536  -0.000198  -0.000286  -0.000800
    13  H    1.419911  -0.200699   0.001138  -0.009899  -0.000539   0.007898
    14  H   -0.200699   1.526324  -0.001465   0.040213   0.001447  -0.008715
    15  H    0.001138  -0.001465   2.086810  -0.387441  -0.098704   0.140312
    16  H   -0.009899   0.040213  -0.387441   2.193195  -0.071088  -0.151416
    17  H   -0.000539   0.001447  -0.098704  -0.071088   1.406455  -0.245864
    18  H    0.007898  -0.008715   0.140312  -0.151416  -0.245864   1.531682
    19  H    0.000258   0.000301  -0.127132   0.110360  -0.263528  -0.291856
              19
     1  B    0.046584
     2  F   -0.025984
     3  F    0.033456
     4  F    0.010758
     5  O   -0.125187
     6  C   -0.016676
     7  C   -0.000557
     8  C    0.016090
     9  C    0.266716
    10  H    0.007714
    11  H   -0.001176
    12  H   -0.000493
    13  H    0.000258
    14  H    0.000301
    15  H   -0.127132
    16  H    0.110360
    17  H   -0.263528
    18  H   -0.291856
    19  H    1.498240
 Mulliken charges:
               1
     1  B    1.512816
     2  F   -0.539340
     3  F   -0.574303
     4  F   -0.539874
     5  O   -0.801114
     6  C    1.046638
     7  C    0.534282
     8  C    1.127282
     9  C    0.534018
    10  H   -0.137085
    11  H   -0.442572
    12  H   -0.145668
    13  H   -0.139235
    14  H   -0.198561
    15  H   -0.377975
    16  H   -0.456119
    17  H   -0.136934
    18  H   -0.128371
    19  H   -0.137887
 Sum of Mulliken charges =  -0.00000
 Mulliken charges with hydrogens summed into heavy atoms:
               1
     1  B    1.512816
     2  F   -0.539340
     3  F   -0.574303
     4  F   -0.539874
     5  O   -0.801114
     6  C    0.466982
     7  C    0.050819
     8  C    0.293189
     9  C    0.130826
 APT charges:
               1
     1  B    2.253678
     2  F   -0.797620
     3  F   -0.797741
     4  F   -0.799420
     5  O   -1.177693
     6  C    0.621562
     7  C   -0.003160
     8  C    0.635469
     9  C    0.000281
    10  H   -0.016019
    11  H    0.038819
    12  H    0.014381
    13  H    0.001806
    14  H    0.002331
    15  H   -0.016786
    16  H   -0.001369
    17  H    0.013377
    18  H    0.006791
    19  H    0.021313
 Sum of APT charges =   0.00000
 APT charges with hydrogens summed into heavy atoms:
               1
     1  B    2.253678
     2  F   -0.797620
     3  F   -0.797741
     4  F   -0.799420
     5  O   -1.177693
     6  C    0.644362
     7  C    0.015359
     8  C    0.617313
     9  C    0.041762
 Electronic spatial extent (au):  <R**2>=           1262.6366
 Charge=             -0.0000 electrons
 Dipole moment (field-independent basis, Debye):
    X=              6.6351    Y=              4.2598    Z=              1.6660  Tot=              8.0589
 Quadrupole moment (field-independent basis, Debye-Ang):
   XX=            -52.0413   YY=            -51.1596   ZZ=            -54.9633
   XY=             -3.2934   XZ=              1.2217   YZ=              0.5483
 Traceless Quadrupole moment (field-independent basis, Debye-Ang):
   XX=              0.6801   YY=              1.5618   ZZ=             -2.2419
   XY=             -3.2934   XZ=              1.2217   YZ=              0.5483
 Octapole moment (field-independent basis, Debye-Ang**2):
  XXX=              9.2255  YYY=              9.9920  ZZZ=              2.3401  XYY=              0.1829
  XXY=             -4.5631  XXZ=              1.6042  XZZ=              3.3150  YZZ=             -1.8898
  YYZ=              2.8463  XYZ=             -0.6089
 Hexadecapole moment (field-independent basis, Debye-Ang**3):
 XXXX=           -714.5970 YYYY=           -569.6782 ZZZZ=           -200.9191 XXXY=             -0.1412
 XXXZ=              8.2505 YYYX=              4.5787 YYYZ=              3.2423 ZZZX=              1.7800
 ZZZY=              3.2954 XXYY=           -213.9471 XXZZ=           -167.3363 YYZZ=           -129.2765
 XXYZ=              0.0334 YYXZ=              1.5396 ZZXY=              0.4856
 N-N= 5.238328608611D+02 E-N=-2.364224886061D+03  KE= 5.547990745258D+02
  Exact polarizability:      91.331      -3.865      90.533       0.435      -0.259      83.810
 Approx polarizability:      72.837      -1.579      73.600       0.655       0.344      70.424
 D2PCM: C-PCM CHGder 2nd derivatives, FixD1E=F FixD2E=F DoIter=F DoCFld=F I1PDM=0
 Calling FoFJK, ICntrl=    100127 FMM=F ISym2X=0 I1Cent= 0 IOpClX= 0 NMat=1 NMatS=1 NMatT=0.
 Full mass-weighted force constant matrix:
 Low frequencies ---  -13.0481   -0.0006    0.0010    0.0012    2.9560   12.6903
 Low frequencies ---   26.2985   51.0428   74.2748
 Diagonal vibrational polarizability:
       53.2361822      44.3986398      24.1016721
 Harmonic frequencies (cm**-1), IR intensities (KM/Mole), Raman scattering
 activities (A**4/AMU), depolarization ratios for plane and unpolarized
 incident light, reduced masses (AMU), force constants (mDyne/A),
 Dipole strengths (10**-40 esu**2-cm**2),
 Rotational strengths (10**-44 esu**2-cm**2),
 E-M angle = Angle between electric and magnetic dipole transition moments (deg),
 and normal coordinates:
                      1                      2                      3
                      A                      A                      A
 Frequencies --     25.8180                50.9852                74.2546
 Red. masses --      6.6877                 2.3876                 2.8351
 Frc consts  --      0.0026                 0.0037                 0.0092
 IR Inten    --      0.3998                 1.2590                 1.0926
 Dip. str.   --     61.7728                98.5132                58.7019
 Rot. str.   --      1.3867                 9.3280                -1.7093
 E-M angle   --     80.2470                41.6151               102.1778
  Atom  AN      X      Y      Z        X      Y      Z        X      Y      Z
     1   5    -0.00  -0.00   0.00    -0.03  -0.03   0.02     0.01  -0.02   0.02
     2   9     0.19  -0.13  -0.15    -0.06  -0.02   0.03     0.03   0.02   0.02
     3   9    -0.17   0.18  -0.15     0.00  -0.00   0.04    -0.05  -0.11   0.01
     4   9    -0.04  -0.03   0.24    -0.07  -0.03   0.02     0.08   0.01  -0.04
     5   8     0.00  -0.02   0.10    -0.02  -0.04  -0.02    -0.04   0.03   0.12
     6   6     0.07  -0.03  -0.12    -0.00  -0.05  -0.07     0.00   0.05   0.04
     7   6    -0.06   0.10  -0.23     0.06   0.22   0.04    -0.13  -0.05  -0.13
     8   6     0.00  -0.05   0.16    -0.02  -0.06   0.03    -0.07   0.04   0.09
     9   6     0.01  -0.03   0.17     0.16   0.02  -0.10     0.16   0.06  -0.13
    10   1     0.18  -0.11  -0.11    -0.09  -0.24   0.03     0.13   0.16  -0.03
    11   1     0.11  -0.04  -0.18     0.05  -0.09  -0.31     0.01   0.07   0.19
    12   1     0.00   0.10  -0.39     0.05   0.18   0.00    -0.07   0.01  -0.20
    13   1    -0.16   0.18  -0.24     0.14   0.40  -0.07    -0.26  -0.17  -0.04
    14   1    -0.11   0.12  -0.16     0.03   0.25   0.28    -0.19  -0.06  -0.29
    15   1    -0.01  -0.09   0.15    -0.19  -0.09  -0.03    -0.28   0.07   0.02
    16   1     0.00  -0.04   0.19     0.00  -0.10   0.22    -0.04  -0.01   0.29
    17   1    -0.06  -0.05   0.24     0.16   0.01  -0.06     0.14   0.07  -0.15
    18   1     0.06   0.05   0.18     0.33   0.02  -0.05     0.38   0.00  -0.06
    19   1     0.02  -0.08   0.11     0.13   0.07  -0.28     0.12   0.11  -0.34
                      4                      5                      6
                      A                      A                      A
 Frequencies --    168.6994               212.5954               221.0738
 Red. masses --      2.5941                 1.7711                 1.6634
 Frc consts  --      0.0435                 0.0472                 0.0479
 IR Inten    --      3.5135                 1.4161                 2.6309
 Dip. str.   --     83.0875                26.5738                47.4755
 Rot. str.   --    -10.5744                14.6849                -8.8270
 E-M angle   --    113.6148                59.0358               119.2738
  Atom  AN      X      Y      Z        X      Y      Z        X      Y      Z
     1   5    -0.01   0.01   0.04     0.02   0.01  -0.00    -0.04  -0.02  -0.00
     2   9     0.08   0.12   0.03     0.04   0.08   0.01    -0.05  -0.04  -0.00
     3   9    -0.09  -0.06   0.00     0.06   0.06   0.02    -0.08  -0.05  -0.02
     4   9    -0.04   0.00  -0.03    -0.08  -0.01  -0.02     0.02  -0.01   0.01
     5   8     0.00  -0.05   0.14     0.03  -0.04   0.00    -0.02  -0.01  -0.01
     6   6     0.04  -0.03   0.02     0.05   0.01   0.01    -0.01   0.01  -0.00
     7   6    -0.02   0.10  -0.02     0.02   0.02  -0.02     0.00   0.05   0.01
     8   6     0.09   0.02  -0.08    -0.08  -0.06   0.04     0.12   0.02  -0.05
     9   6    -0.04  -0.12  -0.08    -0.04  -0.09  -0.03     0.07   0.07   0.06
    10   1     0.08  -0.10   0.05     0.05   0.06  -0.01    -0.03   0.04  -0.01
    11   1     0.08  -0.05  -0.06     0.08   0.00   0.07     0.02   0.01   0.02
    12   1    -0.00   0.02  -0.17     0.18   0.48   0.19     0.14   0.48   0.25
    13   1    -0.10   0.25  -0.07     0.22  -0.41   0.12     0.23  -0.35   0.13
    14   1     0.01   0.11   0.12    -0.36   0.05  -0.37    -0.34   0.08  -0.31
    15   1     0.27   0.21  -0.02    -0.18  -0.11   0.01     0.25   0.07  -0.01
    16   1     0.09   0.00  -0.31    -0.10  -0.01   0.15     0.14  -0.05  -0.18
    17   1     0.13  -0.04  -0.36    -0.08  -0.09  -0.05     0.18   0.07   0.05
    18   1    -0.30  -0.42  -0.14     0.03  -0.11  -0.01    -0.05   0.06   0.02
    19   1    -0.05  -0.01   0.26    -0.04  -0.11  -0.10     0.06   0.14   0.18
                      7                      8                      9
                      A                      A                      A
 Frequencies --    275.3856               293.2226               307.6905
 Red. masses --      4.1011                 2.6043                 1.7368
 Frc consts  --      0.1832                 0.1319                 0.0969
 IR Inten    --      4.3359                 4.5250                 0.2891
 Dip. str.   --     62.8123                61.5640                 3.7477
 Rot. str.   --     -7.0285                 8.1920                 0.7831
 E-M angle   --    111.7668                60.6779                84.6135
  Atom  AN      X      Y      Z        X      Y      Z        X      Y      Z
     1   5     0.01  -0.06   0.04     0.04  -0.03  -0.03    -0.00  -0.01   0.01
     2   9     0.21   0.09  -0.01     0.07  -0.08  -0.07     0.02   0.05   0.01
     3   9     0.02  -0.15   0.06     0.17   0.04   0.03    -0.05  -0.06  -0.01
     4   9    -0.18  -0.13   0.07    -0.06  -0.06  -0.04    -0.00  -0.01   0.07
     5   8    -0.01   0.01  -0.06    -0.04   0.01  -0.00     0.00   0.03  -0.07
     6   6    -0.02   0.05  -0.02    -0.10  -0.00   0.06     0.02   0.03  -0.07
     7   6     0.00   0.00  -0.00    -0.16   0.05   0.02     0.11  -0.05  -0.01
     8   6    -0.01   0.06  -0.13    -0.00   0.01   0.02    -0.09  -0.01   0.05
     9   6    -0.03   0.18   0.00     0.03   0.06   0.03    -0.01   0.05   0.01
    10   1    -0.03   0.08  -0.02    -0.11  -0.00   0.06     0.01   0.04  -0.08
    11   1    -0.02   0.05   0.02    -0.09  -0.00   0.05     0.01   0.04  -0.05
    12   1    -0.03  -0.06   0.00    -0.10   0.09  -0.09     0.03  -0.11   0.11
    13   1    -0.02   0.02  -0.01    -0.24   0.09   0.03     0.19  -0.08  -0.02
    14   1     0.07  -0.01   0.00    -0.23   0.07   0.03     0.20  -0.07  -0.02
    15   1     0.06   0.07  -0.11     0.02   0.01   0.02    -0.20  -0.11   0.01
    16   1    -0.00   0.03  -0.18     0.01  -0.04   0.00    -0.09   0.01   0.18
    17   1    -0.24   0.05   0.42     0.44   0.13  -0.27     0.41   0.13  -0.32
    18   1     0.12   0.64   0.03    -0.23  -0.31  -0.03    -0.23  -0.35  -0.04
    19   1     0.00  -0.01  -0.25    -0.04   0.39   0.37    -0.10   0.41   0.30
                     10                     11                     12
                      A                      A                      A
 Frequencies --    330.9078               376.4477               416.2185
 Red. masses --      4.1818                 3.2587                 4.9342
 Frc consts  --      0.2698                 0.2721                 0.5036
 IR Inten    --      1.9131                 3.4642                 6.9050
 Dip. str.   --     23.0638                36.7117                66.1836
 Rot. str.   --      0.0550                -6.1880                 5.9424
 E-M angle   --     89.3218               139.5391                48.3692
  Atom  AN      X      Y      Z        X      Y      Z        X      Y      Z
     1   5     0.06   0.07   0.03    -0.02   0.05   0.03     0.07  -0.07   0.09
     2   9     0.11   0.11   0.01     0.05  -0.12  -0.07     0.03  -0.05   0.13
     3   9     0.01  -0.02   0.03     0.03  -0.04   0.09    -0.05   0.19  -0.03
     4   9     0.20   0.10   0.11    -0.08   0.04  -0.06     0.08  -0.09  -0.16
     5   8    -0.07  -0.02  -0.08    -0.03   0.13   0.13    -0.05  -0.12   0.16
     6   6    -0.18  -0.22  -0.09    -0.04  -0.08  -0.14     0.07  -0.11  -0.03
     7   6    -0.13  -0.01   0.03     0.09  -0.06  -0.01     0.08  -0.03  -0.02
     8   6    -0.04  -0.04  -0.05     0.02   0.17   0.09    -0.14   0.01  -0.11
     9   6    -0.04  -0.01  -0.03    -0.04  -0.01  -0.04    -0.09   0.23  -0.03
    10   1    -0.26  -0.46   0.03     0.03  -0.37  -0.04     0.10  -0.20   0.00
    11   1    -0.24  -0.22  -0.37    -0.17  -0.08  -0.40     0.08  -0.13  -0.13
    12   1    -0.05   0.22   0.14     0.05   0.06   0.27     0.08   0.01   0.05
    13   1     0.07  -0.08   0.01     0.38  -0.20  -0.03     0.17  -0.05  -0.04
    14   1    -0.37   0.04   0.04     0.05  -0.06  -0.06     0.05  -0.02   0.01
    15   1    -0.04  -0.07  -0.05     0.02   0.25   0.09    -0.13   0.13  -0.10
    16   1    -0.03  -0.06  -0.03     0.02   0.16   0.05    -0.12  -0.04  -0.14
    17   1    -0.05  -0.03   0.04    -0.22   0.06  -0.19     0.18   0.15   0.18
    18   1    -0.02   0.07  -0.03     0.03  -0.12  -0.02    -0.18   0.40  -0.06
    19   1    -0.04  -0.02  -0.06     0.01  -0.16  -0.06    -0.16   0.45   0.01
                     13                     14                     15
                      A                      A                      A
 Frequencies --    471.8948               493.6700               531.1210
 Red. masses --      8.4214                 6.5553                 4.1044
 Frc consts  --      1.1049                 0.9413                 0.6822
 IR Inten    --      9.7673                 8.0258                24.1709
 Dip. str.   --     82.5724                64.8574               181.5546
 Rot. str.   --    -10.8627                20.5311                20.8619
 E-M angle   --    112.6357                37.5740                42.8313
  Atom  AN      X      Y      Z        X      Y      Z        X      Y      Z
     1   5    -0.14   0.03   0.22     0.09  -0.15   0.07     0.11   0.10   0.06
     2   9     0.25  -0.15  -0.01     0.07   0.04   0.26     0.01  -0.12   0.07
     3   9    -0.19   0.09   0.28    -0.08   0.11  -0.15    -0.10  -0.06  -0.02
     4   9     0.03   0.15  -0.23     0.02  -0.24  -0.08    -0.10   0.09  -0.04
     5   8    -0.07  -0.04  -0.19     0.03   0.18  -0.15     0.22   0.06  -0.14
     6   6    -0.06   0.17  -0.04    -0.17   0.08  -0.08     0.12  -0.17   0.13
     7   6     0.01   0.02  -0.00    -0.08  -0.00   0.03    -0.06  -0.00   0.01
     8   6     0.02  -0.18  -0.04     0.11   0.14   0.11    -0.02   0.06  -0.01
     9   6     0.08  -0.10   0.05     0.04  -0.11   0.01    -0.06   0.07  -0.02
    10   1    -0.12   0.40  -0.12    -0.18  -0.05  -0.02     0.04  -0.23   0.18
    11   1     0.06   0.17   0.20    -0.24   0.09  -0.17    -0.04  -0.15  -0.01
    12   1    -0.10  -0.13   0.09    -0.13  -0.01   0.13     0.18   0.17  -0.37
    13   1     0.02   0.02   0.00    -0.01  -0.04   0.02    -0.31   0.09   0.04
    14   1     0.21  -0.03  -0.03    -0.05  -0.01  -0.01    -0.38   0.07   0.05
    15   1     0.04  -0.27  -0.03     0.11   0.01   0.11    -0.21  -0.13  -0.08
    16   1     0.02  -0.18  -0.01     0.11   0.13   0.12    -0.05   0.20   0.23
    17   1     0.15  -0.11   0.06    -0.25  -0.01  -0.24    -0.01   0.07  -0.06
    18   1     0.07  -0.10   0.04     0.13  -0.31   0.05    -0.14   0.04  -0.05
    19   1     0.06  -0.03   0.04     0.12  -0.37  -0.00    -0.06   0.10   0.06
                     16                     17                     18
                      A                      A                      A
 Frequencies --    634.9001               781.0577               813.3919
 Red. masses --      6.9438                 2.0292                 1.2347
 Frc consts  --      1.6491                 0.7294                 0.4813
 IR Inten    --    240.3564               296.7512                65.1682
 Dip. str.   --   1510.2808              1515.7123               319.6267
 Rot. str.   --    -33.7581               -93.8248                -3.2474
 E-M angle   --    156.1848               109.8416                92.0551
  Atom  AN      X      Y      Z        X      Y      Z        X      Y      Z
     1   5     0.41   0.25   0.04     0.12   0.07   0.01    -0.06  -0.03  -0.01
     2   9     0.02  -0.12   0.18    -0.03   0.02  -0.06     0.02  -0.01   0.03
     3   9     0.05  -0.10  -0.19    -0.04   0.01   0.06     0.02  -0.00  -0.03
     4   9    -0.15   0.17   0.00     0.01  -0.07  -0.01    -0.01   0.03   0.00
     5   8    -0.16  -0.08   0.06    -0.09  -0.06  -0.07     0.02  -0.00   0.03
     6   6    -0.08   0.10  -0.08     0.04  -0.10   0.01    -0.04  -0.03  -0.05
     7   6    -0.01   0.02  -0.01     0.02  -0.02  -0.02    -0.03  -0.02  -0.01
     8   6    -0.03  -0.09  -0.03    -0.00   0.10   0.08     0.04   0.01  -0.03
     9   6     0.04  -0.06   0.03    -0.01   0.03   0.01     0.02   0.00  -0.02
    10   1    -0.09   0.26  -0.15     0.11   0.35  -0.21     0.20   0.25  -0.22
    11   1     0.02   0.10   0.08     0.03  -0.04   0.47    -0.08   0.03   0.36
    12   1    -0.20  -0.11   0.29     0.10   0.13  -0.03    -0.00   0.11   0.12
    13   1     0.19  -0.05  -0.03     0.19   0.19  -0.16     0.27   0.18  -0.18
    14   1     0.24  -0.04  -0.01    -0.17   0.06   0.29    -0.15   0.05   0.32
    15   1     0.14  -0.02   0.02     0.22   0.02   0.14    -0.30  -0.00  -0.14
    16   1     0.01  -0.24  -0.24     0.02  -0.01  -0.17     0.06  -0.01   0.31
    17   1     0.15  -0.10   0.12    -0.13   0.11  -0.22    -0.08  -0.02   0.08
    18   1     0.10   0.01   0.04     0.19  -0.18   0.08    -0.26   0.12  -0.10
    19   1     0.01   0.04  -0.03     0.00  -0.05  -0.14     0.08  -0.13   0.24
                     19                     20                     21
                      A                      A                      A
 Frequencies --    824.7953               875.6158               924.1104
 Red. masses --      1.6516                 2.7056                 2.7571
 Frc consts  --      0.6620                 1.2222                 1.3872
 IR Inten    --    162.5024                36.2007                37.2987
 Dip. str.   --    785.9972               164.9344               161.0190
 Rot. str.   --     51.6435                35.3923                -8.8991
 E-M angle   --     59.3904                56.4057                95.5076
  Atom  AN      X      Y      Z        X      Y      Z        X      Y      Z
     1   5     0.13   0.08   0.01     0.13   0.09   0.00     0.02  -0.03  -0.00
     2   9    -0.04   0.02  -0.06    -0.05   0.02  -0.07    -0.02   0.00  -0.02
     3   9    -0.04   0.01   0.06    -0.06   0.01   0.07    -0.02  -0.00   0.02
     4   9     0.01  -0.07  -0.00     0.01  -0.10  -0.01    -0.00   0.03   0.00
     5   8    -0.04  -0.04  -0.00     0.12   0.13   0.06     0.18  -0.18   0.01
     6   6     0.01   0.03   0.01    -0.02   0.03  -0.05    -0.03   0.07  -0.10
     7   6     0.00   0.02   0.00    -0.08  -0.02   0.00    -0.16   0.04   0.04
     8   6     0.05   0.04  -0.03    -0.04  -0.09  -0.07     0.05   0.05   0.07
     9   6     0.04   0.00  -0.02     0.01  -0.11   0.00    -0.07   0.09  -0.02
    10   1    -0.13  -0.08   0.09     0.20   0.02  -0.10     0.13   0.00  -0.11
    11   1     0.09  -0.01  -0.16    -0.21   0.08   0.01     0.27  -0.01  -0.09
    12   1    -0.07  -0.10   0.02    -0.14   0.04   0.24    -0.45  -0.16   0.49
    13   1    -0.11  -0.12   0.10     0.20   0.06  -0.10     0.10  -0.13   0.05
    14   1     0.14  -0.04  -0.19    -0.07   0.01   0.22     0.20  -0.05  -0.00
    15   1    -0.39  -0.02  -0.17     0.02   0.03  -0.04     0.11  -0.20   0.07
    16   1     0.13  -0.15   0.41    -0.14   0.16  -0.15     0.03   0.09   0.04
    17   1    -0.18  -0.01   0.06     0.44  -0.24   0.34    -0.14   0.16  -0.23
    18   1    -0.34   0.10  -0.12     0.06   0.19   0.01     0.09  -0.08   0.03
    19   1     0.15  -0.26   0.36    -0.11   0.30  -0.06    -0.07   0.04  -0.17
                     22                     23                     24
                      A                      A                      A
 Frequencies --   1024.9526              1045.8951              1114.9185
 Red. masses --      2.8680                 2.3035                 2.3590
 Frc consts  --      1.7752                 1.4846                 1.7277
 IR Inten    --    145.5980                33.4642                53.7526
 Dip. str.   --    566.7076               127.6438               192.3375
 Rot. str.   --    -18.3619               -10.8058              -121.2215
 E-M angle   --     99.1215               116.7914               121.8129
  Atom  AN      X      Y      Z        X      Y      Z        X      Y      Z
     1   5    -0.05   0.02   0.02    -0.04  -0.05   0.01    -0.08   0.12  -0.03
     2   9     0.01  -0.00   0.01     0.01   0.00   0.01     0.02  -0.01   0.03
     3   9     0.02  -0.00  -0.02     0.01  -0.00  -0.01     0.01  -0.01  -0.01
     4   9    -0.00  -0.02  -0.00    -0.00   0.03   0.00     0.01  -0.04  -0.00
     5   8    -0.11   0.14  -0.04    -0.03  -0.06  -0.07     0.01   0.01  -0.03
     6   6     0.26  -0.07   0.02     0.07  -0.05  -0.02    -0.08  -0.09   0.18
     7   6    -0.16   0.03   0.03    -0.05   0.03   0.03     0.01   0.10  -0.17
     8   6    -0.00  -0.11  -0.03    -0.08   0.23  -0.00     0.05   0.00   0.05
     9   6     0.02   0.05   0.01     0.07  -0.15   0.03    -0.04  -0.02  -0.05
    10   1     0.39  -0.06  -0.03     0.04   0.04  -0.05    -0.09  -0.03   0.16
    11   1     0.20  -0.07  -0.15     0.31  -0.11  -0.00    -0.03  -0.11   0.22
    12   1    -0.39  -0.11   0.47    -0.15  -0.09   0.13    -0.23  -0.09   0.24
    13   1     0.11  -0.16   0.05    -0.04  -0.10   0.09     0.44  -0.12  -0.19
    14   1     0.14  -0.03   0.16     0.08  -0.02  -0.04     0.52  -0.01  -0.19
    15   1     0.04   0.02  -0.00    -0.18   0.37  -0.03     0.02  -0.02   0.05
    16   1     0.01  -0.15  -0.02    -0.10   0.25  -0.10     0.05   0.03   0.08
    17   1    -0.21   0.11  -0.14     0.38  -0.28   0.38     0.10  -0.06   0.08
    18   1    -0.07  -0.11  -0.02     0.10   0.15   0.04    -0.04   0.16  -0.06
    19   1     0.08  -0.16   0.01     0.00   0.14   0.17    -0.11   0.18  -0.05
                     25                     26                     27
                      A                      A                      A
 Frequencies --   1121.3857              1124.9425              1149.2585
 Red. masses --      7.7532                 2.4668                 3.6704
 Frc consts  --      5.7444                 1.8393                 2.8563
 IR Inten    --    467.3228                86.2561               369.4463
 Dip. str.   --   1662.5297               305.8911              1282.4516
 Rot. str.   --    -65.2033               135.7961                71.1343
 E-M angle   --     94.6721                52.6679                82.9432
  Atom  AN      X      Y      Z        X      Y      Z        X      Y      Z
     1   5    -0.11   0.12   0.67    -0.05   0.10  -0.15    -0.20   0.34  -0.05
     2   9    -0.07   0.04  -0.16     0.03  -0.02   0.06     0.04  -0.04   0.06
     3   9     0.11  -0.04  -0.19    -0.01   0.00   0.02     0.03  -0.02  -0.03
     4   9     0.02  -0.06  -0.03     0.01  -0.03   0.00     0.04  -0.12  -0.00
     5   8    -0.01  -0.01  -0.02    -0.03   0.01  -0.01     0.01  -0.05   0.05
     6   6    -0.00   0.01  -0.06     0.04  -0.01  -0.11     0.01   0.01  -0.07
     7   6     0.01  -0.01   0.05     0.00   0.00   0.11     0.01  -0.01   0.06
     8   6     0.09  -0.02   0.10     0.09  -0.05   0.16     0.01   0.05  -0.16
     9   6    -0.07  -0.02  -0.09    -0.07  -0.01  -0.15    -0.01  -0.01   0.14
    10   1    -0.05   0.12  -0.10    -0.05   0.20  -0.19     0.01   0.09  -0.10
    11   1     0.06   0.00   0.03     0.18  -0.02   0.07    -0.00   0.02  -0.03
    12   1     0.06  -0.02  -0.10     0.06  -0.07  -0.14     0.05  -0.03  -0.09
    13   1    -0.17   0.01   0.10    -0.33  -0.04   0.22    -0.18  -0.00   0.11
    14   1    -0.09   0.00  -0.04    -0.15   0.00  -0.08    -0.11   0.00  -0.03
    15   1     0.10  -0.03   0.11     0.18   0.08   0.20    -0.27  -0.25  -0.26
    16   1     0.09  -0.01   0.16     0.10  -0.09   0.04    -0.06   0.25   0.18
    17   1     0.13  -0.10   0.13     0.08  -0.12   0.18     0.03   0.09  -0.20
    18   1    -0.15   0.26  -0.13    -0.27   0.40  -0.22     0.35  -0.31   0.25
    19   1    -0.15   0.25  -0.08    -0.15   0.29   0.01    -0.01  -0.06  -0.18
                     28                     29                     30
                      A                      A                      A
 Frequencies --   1187.8327              1207.1358              1324.9277
 Red. masses --      1.9696                 1.8254                 1.0973
 Frc consts  --      1.6373                 1.5671                 1.1349
 IR Inten    --    185.8563                25.4832                11.4884
 Dip. str.   --    624.2080                84.2181                34.5918
 Rot. str.   --     -1.4237                17.4972                 4.6733
 E-M angle   --     90.7323                80.8403                82.2650
  Atom  AN      X      Y      Z        X      Y      Z        X      Y      Z
     1   5     0.08  -0.13   0.00     0.00  -0.00  -0.02     0.00  -0.00  -0.00
     2   9    -0.01   0.01  -0.01     0.01  -0.00   0.01     0.00  -0.00   0.00
     3   9    -0.01   0.01   0.01     0.00   0.00   0.00     0.00   0.00   0.00
     4   9    -0.02   0.04   0.00     0.00   0.01   0.00     0.00   0.00   0.00
     5   8    -0.06   0.07   0.03    -0.08  -0.05  -0.03    -0.02  -0.03  -0.02
     6   6    -0.00  -0.09  -0.03     0.07   0.13   0.06    -0.01   0.00   0.01
     7   6     0.02   0.06   0.03    -0.04  -0.11  -0.04     0.01   0.04   0.04
     8   6     0.14  -0.00  -0.07     0.10   0.05   0.02    -0.00   0.04   0.00
     9   6    -0.10  -0.03   0.04    -0.08  -0.04  -0.01    -0.02  -0.01  -0.01
    10   1    -0.07   0.18  -0.13     0.04  -0.26   0.24     0.71  -0.17  -0.08
    11   1     0.12  -0.09   0.23    -0.00   0.10  -0.38    -0.53   0.13   0.02
    12   1    -0.05  -0.14  -0.05     0.09   0.23   0.10     0.01  -0.04  -0.07
    13   1    -0.12  -0.12   0.15     0.18   0.19  -0.23    -0.08  -0.03   0.10
    14   1     0.10   0.01  -0.19    -0.19  -0.02   0.36     0.09  -0.00  -0.18
    15   1    -0.20  -0.28  -0.19    -0.05  -0.19  -0.04     0.02  -0.07   0.00
    16   1     0.10   0.18   0.37     0.14  -0.01   0.25     0.10  -0.24   0.03
    17   1     0.24   0.00  -0.11     0.19  -0.06   0.00     0.04  -0.02   0.02
    18   1     0.25  -0.02   0.14     0.11   0.13   0.03     0.06   0.03   0.02
    19   1    -0.19   0.20  -0.32    -0.17   0.22  -0.16    -0.03   0.03   0.02
                     31                     32                     33
                      A                      A                      A
 Frequencies --   1330.0601              1384.5138              1395.1163
 Red. masses --      1.1014                 1.2016                 1.2240
 Frc consts  --      1.1480                 1.3570                 1.4036
 IR Inten    --      4.7443                 1.2176                10.1171
 Dip. str.   --     14.2301                 3.5085                28.9302
 Rot. str.   --     13.4421                -0.6674                -9.3073
 E-M angle   --     66.5934                95.2446               110.2522
  Atom  AN      X      Y      Z        X      Y      Z        X      Y      Z
     1   5    -0.00   0.01  -0.00    -0.00   0.01   0.00    -0.01   0.00  -0.00
     2   9    -0.00  -0.00  -0.00    -0.00  -0.00  -0.00     0.00  -0.00   0.00
     3   9    -0.00  -0.00   0.00    -0.00  -0.00   0.00     0.00  -0.00  -0.00
     4   9     0.00  -0.00  -0.00    -0.00  -0.00  -0.00     0.00  -0.00   0.00
     5   8     0.04  -0.00  -0.02     0.00   0.04   0.00     0.01   0.01   0.01
     6   6    -0.00   0.01  -0.01    -0.06   0.01   0.02     0.02  -0.01  -0.01
     7   6    -0.01  -0.00   0.00    -0.06  -0.03   0.07     0.03   0.01  -0.04
     8   6     0.02  -0.03  -0.00    -0.01   0.01  -0.01    -0.01   0.02  -0.01
     9   6    -0.05  -0.00   0.05    -0.03   0.02  -0.02    -0.07   0.06  -0.08
    10   1    -0.10   0.02   0.00     0.27  -0.00  -0.06    -0.15  -0.02   0.04
    11   1    -0.00   0.01   0.03     0.55  -0.15  -0.11    -0.04   0.02   0.09
    12   1     0.00   0.02   0.01     0.20   0.12  -0.35    -0.10  -0.05   0.22
    13   1     0.01   0.03  -0.02     0.33   0.14  -0.13    -0.19  -0.03   0.04
    14   1     0.00  -0.01  -0.00     0.19  -0.11  -0.23    -0.13   0.06   0.11
    15   1    -0.25   0.75  -0.05     0.02  -0.11  -0.00     0.14  -0.12   0.04
    16   1     0.19  -0.49   0.06     0.07  -0.21  -0.01     0.10  -0.26   0.11
    17   1     0.03   0.04  -0.08     0.09  -0.04   0.14     0.28  -0.14   0.42
    18   1     0.10  -0.07   0.09     0.12  -0.13   0.03     0.35  -0.35   0.07
    19   1    -0.09   0.06  -0.18     0.02  -0.10   0.09     0.06  -0.29   0.28
                     34                     35                     36
                      A                      A                      A
 Frequencies --   1415.0282              1438.2562              1456.7872
 Red. masses --      1.2799                 1.2709                 1.0398
 Frc consts  --      1.5099                 1.5489                 1.3002
 IR Inten    --     31.3279                11.7703                 7.4824
 Dip. str.   --     88.3228                32.6482                20.4905
 Rot. str.   --      7.2704                 2.2130                 0.7276
 E-M angle   --     76.7836                81.8008                88.5152
  Atom  AN      X      Y      Z        X      Y      Z        X      Y      Z
     1   5     0.00   0.01   0.00     0.02   0.00  -0.00     0.00  -0.00   0.00
     2   9    -0.00  -0.00  -0.00    -0.00   0.00  -0.00    -0.00   0.00  -0.00
     3   9    -0.00  -0.00   0.00    -0.00   0.00   0.00     0.00   0.00  -0.00
     4   9    -0.00  -0.00  -0.00    -0.00  -0.00   0.00    -0.00   0.00   0.00
     5   8    -0.00   0.03  -0.01    -0.03  -0.03  -0.03     0.00   0.00   0.00
     6   6    -0.09  -0.00   0.04    -0.03   0.01   0.03    -0.01  -0.02  -0.01
     7   6     0.10  -0.02  -0.05     0.02   0.00   0.00    -0.02  -0.03  -0.02
     8   6    -0.01   0.00  -0.01     0.07  -0.07   0.04     0.01  -0.00   0.01
     9   6     0.02  -0.02   0.02    -0.02   0.07  -0.02     0.00   0.01  -0.00
    10   1     0.37  -0.08  -0.03     0.26   0.06  -0.06     0.03   0.06  -0.06
    11   1     0.49  -0.15  -0.05    -0.02  -0.01  -0.19    -0.00  -0.02  -0.00
    12   1    -0.14  -0.11   0.41    -0.02  -0.07  -0.00     0.21   0.58   0.25
    13   1    -0.37   0.20  -0.01     0.00   0.03  -0.01    -0.44   0.09   0.06
    14   1    -0.35   0.08  -0.03    -0.08   0.02  -0.05     0.52  -0.12   0.10
    15   1     0.01  -0.03  -0.01    -0.20   0.36  -0.03    -0.13  -0.04  -0.04
    16   1     0.03  -0.12  -0.02    -0.17   0.57  -0.04    -0.01   0.03  -0.13
    17   1    -0.06   0.03  -0.12     0.11  -0.05   0.31    -0.03  -0.01   0.05
    18   1    -0.07   0.10  -0.01    -0.11  -0.37  -0.03    -0.00  -0.06  -0.00
    19   1    -0.02   0.07  -0.06     0.04  -0.18  -0.16    -0.01   0.03  -0.00
                     37                     38                     39
                      A                      A                      A
 Frequencies --   1463.8403              1470.4569              1472.7951
 Red. masses --      1.0606                 1.0794                 1.0660
 Frc consts  --      1.3390                 1.3750                 1.3624
 IR Inten    --      9.9457                 1.8323                 3.6000
 Dip. str.   --     27.1051                 4.9712                 9.7514
 Rot. str.   --     -7.5949                 0.2440                 0.9748
 E-M angle   --    111.9537                85.9220                80.5759
  Atom  AN      X      Y      Z        X      Y      Z        X      Y      Z
     1   5     0.00  -0.01  -0.00     0.00   0.00  -0.00     0.00  -0.00   0.01
     2   9    -0.00  -0.00   0.00    -0.00  -0.00  -0.00    -0.00   0.00  -0.00
     3   9    -0.00   0.00   0.00    -0.00  -0.00   0.00    -0.00   0.00  -0.00
     4   9    -0.00   0.00   0.00    -0.00  -0.00   0.00    -0.00   0.00  -0.00
     5   8     0.00   0.00   0.00     0.00   0.00  -0.00    -0.00   0.00   0.00
     6   6     0.01   0.00  -0.01    -0.05   0.01   0.02    -0.01  -0.00   0.02
     7   6    -0.00  -0.00   0.00     0.01   0.03  -0.05     0.01   0.01  -0.01
     8   6    -0.00   0.03  -0.03    -0.01   0.01  -0.01     0.04  -0.03   0.02
     9   6     0.05  -0.01   0.00     0.01  -0.00   0.01    -0.01  -0.01  -0.04
    10   1    -0.05  -0.07   0.04     0.16   0.10  -0.08     0.05   0.12  -0.05
    11   1     0.01   0.01   0.09     0.15  -0.06  -0.17     0.00  -0.02  -0.15
    12   1    -0.02  -0.02   0.01     0.09   0.00  -0.25    -0.02  -0.08  -0.05
    13   1     0.02   0.04  -0.02    -0.01  -0.59   0.25     0.03  -0.10   0.03
    14   1    -0.02  -0.00  -0.04     0.07   0.09   0.59    -0.07   0.03   0.09
    15   1     0.08  -0.08  -0.01     0.11   0.02   0.03    -0.29   0.02  -0.09
    16   1     0.06  -0.12   0.11     0.03  -0.08   0.12    -0.02   0.07  -0.25
    17   1    -0.45  -0.11   0.41     0.02  -0.01   0.02    -0.39   0.02  -0.02
    18   1    -0.19  -0.47  -0.05    -0.09  -0.03  -0.02     0.47   0.02   0.11
    19   1    -0.13   0.47  -0.21    -0.01  -0.00  -0.11    -0.07   0.34   0.51
                     40                     41                     42
                      A                      A                      A
 Frequencies --   1495.3546              1505.1485              3064.7216
 Red. masses --      1.0811                 1.0948                 1.0361
 Frc consts  --      1.4243                 1.4613                 5.7339
 IR Inten    --     17.6495                23.0656                13.1967
 Dip. str.   --     47.0863                61.1355                17.1783
 Rot. str.   --     29.3678               -12.9844                -3.1759
 E-M angle   --     36.6983               109.9888                96.5108
  Atom  AN      X      Y      Z        X      Y      Z        X      Y      Z
     1   5     0.01  -0.00  -0.00    -0.01  -0.01  -0.00     0.00   0.00   0.00
     2   9    -0.00   0.00  -0.00     0.00   0.00   0.00    -0.00  -0.00  -0.00
     3   9    -0.00   0.00   0.00     0.00   0.00  -0.00    -0.00  -0.00   0.00
     4   9    -0.00   0.00   0.00     0.00   0.00   0.00    -0.00  -0.00  -0.00
     5   8    -0.01  -0.02  -0.01     0.02  -0.00   0.02    -0.00   0.00   0.00
     6   6    -0.01  -0.01   0.01     0.01  -0.04   0.06     0.00   0.00  -0.00
     7   6    -0.00  -0.01   0.01     0.00  -0.00   0.00    -0.04  -0.01   0.03
     8   6    -0.03  -0.03  -0.06    -0.01   0.03  -0.00     0.00   0.00   0.00
     9   6     0.00  -0.01  -0.01     0.00  -0.01   0.01    -0.00   0.00  -0.00
    10   1     0.05   0.10  -0.05    -0.09   0.64  -0.22    -0.00  -0.00  -0.00
    11   1    -0.02  -0.02  -0.10    -0.21  -0.05  -0.59    -0.00  -0.00   0.00
    12   1     0.04   0.10   0.05    -0.04  -0.04   0.08     0.46  -0.26   0.19
    13   1    -0.06   0.10  -0.03     0.01   0.12  -0.06    -0.15  -0.23  -0.49
    14   1     0.10  -0.04  -0.08    -0.06  -0.01  -0.12     0.12   0.59  -0.07
    15   1     0.50   0.31   0.14     0.01  -0.13   0.00     0.01   0.00  -0.01
    16   1    -0.08   0.22   0.61     0.07  -0.19  -0.02    -0.02  -0.01   0.00
    17   1    -0.14   0.02  -0.07     0.04  -0.02   0.03    -0.00  -0.00  -0.00
    18   1     0.19   0.07   0.05    -0.10  -0.02  -0.02    -0.00   0.00   0.00
    19   1    -0.01   0.10   0.22    -0.01  -0.01  -0.11     0.00   0.00  -0.00
                     43                     44                     45
                      A                      A                      A
 Frequencies --   3073.0935              3107.3576              3116.7401
 Red. masses --      1.0369                 1.0604                 1.0691
 Frc consts  --      5.7695                 6.0325                 6.1188
 IR Inten    --     13.6981                15.9672                28.1635
 Dip. str.   --     17.7825                20.4996                36.0490
 Rot. str.   --     -0.0192                 2.2393                 2.4377
 E-M angle   --     90.0794                85.5731                86.1909
  Atom  AN      X      Y      Z        X      Y      Z        X      Y      Z
     1   5     0.00   0.00   0.00     0.00   0.00  -0.00     0.00   0.00  -0.00
     2   9    -0.00   0.00  -0.00    -0.00  -0.00  -0.00    -0.00  -0.00  -0.00
     3   9    -0.00   0.00  -0.00    -0.00   0.00   0.00    -0.00   0.00   0.00
     4   9    -0.00  -0.00  -0.00    -0.00  -0.00  -0.00     0.00  -0.00   0.00
     5   8     0.00   0.00   0.00     0.00  -0.00  -0.00    -0.00   0.00  -0.00
     6   6    -0.00  -0.00  -0.00     0.00   0.00   0.01    -0.01  -0.00  -0.07
     7   6    -0.00  -0.00   0.00    -0.00   0.00  -0.00     0.01   0.00   0.01
     8   6    -0.00   0.00  -0.00    -0.02  -0.01  -0.06    -0.00  -0.00  -0.01
     9   6     0.02  -0.04   0.03     0.00   0.01   0.01    -0.00   0.00   0.00
    10   1    -0.00   0.00  -0.00    -0.03  -0.06  -0.12     0.20   0.37   0.81
    11   1     0.00   0.00  -0.00     0.01   0.05  -0.00    -0.08  -0.33   0.02
    12   1     0.00  -0.00   0.00     0.03  -0.01   0.01    -0.07   0.04  -0.03
    13   1    -0.00  -0.00  -0.00    -0.00  -0.00  -0.01    -0.03  -0.05  -0.10
    14   1     0.00   0.01  -0.00    -0.00   0.01  -0.00    -0.00  -0.02   0.01
    15   1     0.00  -0.00  -0.01    -0.25  -0.03   0.76    -0.05  -0.00   0.14
    16   1    -0.02  -0.01   0.00     0.53   0.20  -0.04     0.04   0.02  -0.00
    17   1     0.05   0.62   0.21    -0.01  -0.06  -0.02    -0.00  -0.01  -0.00
    18   1     0.17  -0.03  -0.56     0.03  -0.00  -0.07     0.01  -0.00  -0.02
    19   1    -0.46  -0.15   0.04    -0.02  -0.01   0.01     0.00   0.00   0.00
                     46                     47                     48
                      A                      A                      A
 Frequencies --   3150.2805              3157.5049              3159.0637
 Red. masses --      1.1029                 1.1010                 1.1026
 Frc consts  --      6.4488                 6.4673                 6.4829
 IR Inten    --     23.2071                21.0486                31.4132
 Dip. str.   --     29.3886                26.5941                39.6699
 Rot. str.   --    -12.8331                 6.1865                14.0159
 E-M angle   --     97.5984                84.7447                82.4755
  Atom  AN      X      Y      Z        X      Y      Z        X      Y      Z
     1   5    -0.00  -0.00  -0.00    -0.00   0.00  -0.00     0.00   0.00  -0.00
     2   9    -0.00   0.00  -0.00    -0.00  -0.00   0.00    -0.00  -0.00  -0.00
     3   9     0.00   0.00   0.00    -0.00  -0.00   0.00    -0.00  -0.00   0.00
     4   9     0.00   0.00   0.00     0.00  -0.00   0.00     0.00  -0.00   0.00
     5   8    -0.00   0.00   0.00    -0.00   0.00   0.00     0.00  -0.00   0.00
     6   6     0.00   0.01   0.00     0.00   0.00   0.00    -0.00   0.01  -0.01
     7   6     0.02  -0.09   0.01     0.00  -0.00   0.00    -0.06  -0.02  -0.07
     8   6     0.00   0.00  -0.00    -0.01  -0.00  -0.00     0.00   0.00  -0.00
     9   6    -0.00   0.00   0.00    -0.01  -0.06  -0.07    -0.00  -0.00  -0.00
    10   1    -0.01  -0.02  -0.04    -0.00  -0.00  -0.00     0.02   0.04   0.10
    11   1    -0.02  -0.09   0.01     0.00   0.00   0.00    -0.03  -0.12   0.01
    12   1    -0.49   0.25  -0.20    -0.04   0.02  -0.02     0.47  -0.26   0.18
    13   1     0.07   0.08   0.22    -0.01  -0.02  -0.04     0.19   0.31   0.68
    14   1     0.16   0.74  -0.09     0.00   0.01  -0.00     0.03   0.18  -0.03
    15   1    -0.01  -0.00   0.03    -0.02  -0.00   0.05    -0.01  -0.00   0.03
    16   1    -0.03  -0.01   0.00     0.11   0.04  -0.01    -0.01  -0.00   0.00
    17   1    -0.00  -0.02  -0.01     0.05   0.68   0.22     0.00   0.04   0.01
    18   1     0.01  -0.00  -0.02    -0.19   0.02   0.61    -0.01   0.00   0.03
    19   1     0.01   0.00  -0.00     0.20   0.05  -0.03     0.03   0.01  -0.00
                     49                     50                     51
                      A                      A                      A
 Frequencies --   3169.1470              3188.1034              3221.9398
 Red. masses --      1.1055                 1.1073                 1.1015
 Frc consts  --      6.5420                 6.6311                 6.7371
 IR Inten    --      0.1172                29.2273                 5.3161
 Dip. str.   --      0.1475                36.5732                 6.5823
 Rot. str.   --     -1.3563                -0.8274                 1.2859
 E-M angle   --    108.7397                90.6657                78.3482
  Atom  AN      X      Y      Z        X      Y      Z        X      Y      Z
     1   5    -0.00  -0.00  -0.00    -0.00   0.00   0.00     0.00  -0.00   0.00
     2   9     0.00  -0.00  -0.00     0.00  -0.00  -0.00     0.00   0.00   0.00
     3   9     0.00   0.00   0.00     0.00  -0.00  -0.00     0.00   0.00  -0.00
     4   9    -0.00  -0.00  -0.00     0.00  -0.00   0.00    -0.00  -0.00  -0.00
     5   8    -0.00   0.00  -0.00     0.00   0.00  -0.00     0.00   0.00   0.00
     6   6    -0.00  -0.00   0.00     0.00   0.00  -0.00    -0.02  -0.09  -0.02
     7   6     0.00   0.00   0.00    -0.00  -0.00   0.00    -0.00  -0.01  -0.00
     8   6     0.06   0.02  -0.03    -0.06  -0.02   0.03    -0.00  -0.00   0.00
     9   6    -0.06  -0.03   0.02    -0.06  -0.02   0.03    -0.00  -0.00   0.00
    10   1    -0.01  -0.01  -0.03     0.00   0.01   0.01     0.07   0.13   0.30
    11   1     0.01   0.04  -0.00    -0.01  -0.04   0.00     0.22   0.90  -0.09
    12   1     0.00  -0.00   0.00    -0.00   0.00  -0.00    -0.02   0.01  -0.00
    13   1    -0.01  -0.01  -0.02     0.00   0.00   0.00     0.02   0.03   0.07
    14   1    -0.01  -0.04   0.00     0.00   0.02  -0.00     0.02   0.10  -0.02
    15   1    -0.12  -0.01   0.38     0.12   0.02  -0.38     0.00   0.00  -0.02
    16   1    -0.55  -0.20   0.03     0.54   0.19  -0.02     0.03   0.01  -0.00
    17   1     0.00   0.15   0.06    -0.00   0.09   0.04    -0.00  -0.00  -0.00
    18   1     0.08  -0.02  -0.29     0.10  -0.02  -0.37     0.00  -0.00  -0.00
    19   1     0.58   0.18  -0.05     0.57   0.17  -0.04     0.01   0.00  -0.00

 -------------------
 - Thermochemistry -
 -------------------
 Temperature   298.150 Kelvin.  Pressure   1.00000 Atm.
 Atom     1 has atomic number  5 and mass  11.00931
 Atom     2 has atomic number  9 and mass  18.99840
 Atom     3 has atomic number  9 and mass  18.99840
 Atom     4 has atomic number  9 and mass  18.99840
 Atom     5 has atomic number  8 and mass  15.99491
 Atom     6 has atomic number  6 and mass  12.00000
 Atom     7 has atomic number  6 and mass  12.00000
 Atom     8 has atomic number  6 and mass  12.00000
 Atom     9 has atomic number  6 and mass  12.00000
 Atom    10 has atomic number  1 and mass   1.00783
 Atom    11 has atomic number  1 and mass   1.00783
 Atom    12 has atomic number  1 and mass   1.00783
 Atom    13 has atomic number  1 and mass   1.00783
 Atom    14 has atomic number  1 and mass   1.00783
 Atom    15 has atomic number  1 and mass   1.00783
 Atom    16 has atomic number  1 and mass   1.00783
 Atom    17 has atomic number  1 and mass   1.00783
 Atom    18 has atomic number  1 and mass   1.00783
 Atom    19 has atomic number  1 and mass   1.00783
 Molecular mass:   142.07768 amu.
 Principal axes and moments of inertia in atomic units:
                           1         2         3
     Eigenvalues --  1031.579811273.024551791.62525
           X            0.98921  -0.14648  -0.00370
           Y            0.14646   0.98920  -0.00593
           Z            0.00452   0.00532   0.99998
 This molecule is an asymmetric top.
 Rotational symmetry number  1.
 Warning -- assumption of classical behavior for rotation
           may cause significant error
 Rotational temperatures (Kelvin)      0.08396     0.06804     0.04834
 Rotational constants (GHZ):           1.74949     1.41768     1.00732
 Zero-point vibrational energy     398598.2 (Joules/Mol)
                                   95.26725 (Kcal/Mol)
 Warning -- explicit consideration of  15 degrees of freedom as
           vibrations may cause significant error
 Vibrational temperatures:     37.15    73.36   106.84   242.72   305.88
          (Kelvin)            318.08   396.22   421.88   442.70   476.10
                              541.62   598.85   678.95   710.28   764.16
                              913.48  1123.77  1170.29  1186.70  1259.82
                             1329.59  1474.68  1504.81  1604.12  1613.42
                             1618.54  1653.53  1709.03  1736.80  1906.28
                             1913.66  1992.01  2007.26  2035.91  2069.33
                             2095.99  2106.14  2115.66  2119.02  2151.48
                             2165.57  4409.45  4421.50  4470.79  4484.29
                             4532.55  4542.95  4545.19  4559.70  4586.97
                             4635.65
 
 Zero-point correction=                           0.151818 (Hartree/Particle)
 Thermal correction to Energy=                    0.162563
 Thermal correction to Enthalpy=                  0.163507
 Thermal correction to Gibbs Free Energy=         0.114608
 Sum of electronic and zero-point Energies=           -558.000508
 Sum of electronic and thermal Energies=              -557.989763
 Sum of electronic and thermal Enthalpies=            -557.988819
 Sum of electronic and thermal Free Energies=         -558.037719
 
                     E (Thermal)             CV                S
                      KCal/Mol        Cal/Mol-Kelvin    Cal/Mol-Kelvin
 Total                  102.010             37.969            102.918
 Electronic               0.000              0.000              0.000
 Translational            0.889              2.981             40.765
 Rotational               0.889              2.981             29.244
 Vibrational            100.233             32.008             32.909
 Vibration     1          0.593              1.985              6.127
 Vibration     2          0.595              1.977              4.779
 Vibration     3          0.599              1.966              4.037
 Vibration     4          0.625              1.881              2.450
 Vibration     5          0.644              1.822              2.021
 Vibration     6          0.648              1.809              1.950
 Vibration     7          0.677              1.719              1.562
 Vibration     8          0.688              1.686              1.455
 Vibration     9          0.698              1.659              1.375
 Vibration    10          0.713              1.614              1.256
 Vibration    11          0.747              1.520              1.053
 Vibration    12          0.779              1.435              0.905
 Vibration    13          0.829              1.312              0.732
 Vibration    14          0.849              1.264              0.674
 Vibration    15          0.886              1.181              0.585
                       Q            Log10(Q)             Ln(Q)
 Total Bot       0.192358D-52        -52.715889       -121.382821
 Total V=0       0.130466D+18         17.115497         39.409889
 Vib (Bot)       0.526295D-66        -66.278771       -152.612510
 Vib (Bot)    1  0.802118D+01          0.904238          2.082086
 Vib (Bot)    2  0.405417D+01          0.607902          1.399746
 Vib (Bot)    3  0.277586D+01          0.443397          1.020959
 Vib (Bot)    4  0.119509D+01          0.077401          0.178222
 Vib (Bot)    5  0.933267D+00         -0.029994         -0.069064
 Vib (Bot)    6  0.894336D+00         -0.048499         -0.111674
 Vib (Bot)    7  0.699842D+00         -0.155000         -0.356900
 Vib (Bot)    8  0.651026D+00         -0.186401         -0.429205
 Vib (Bot)    9  0.615376D+00         -0.210859         -0.485522
 Vib (Bot)   10  0.564331D+00         -0.248466         -0.572114
 Vib (Bot)   11  0.481483D+00         -0.317419         -0.730885
 Vib (Bot)   12  0.423084D+00         -0.373574         -0.860185
 Vib (Bot)   13  0.356869D+00         -0.447492         -1.030387
 Vib (Bot)   14  0.334786D+00         -0.475233         -1.094263
 Vib (Bot)   15  0.300801D+00         -0.521721         -1.201307
 Vib (V=0)       0.356957D+04          3.552616          8.180200
 Vib (V=0)    1  0.853675D+01          0.931293          2.144381
 Vib (V=0)    2  0.458489D+01          0.661329          1.522765
 Vib (V=0)    3  0.332053D+01          0.521207          1.200124
 Vib (V=0)    4  0.179547D+01          0.254178          0.585266
 Vib (V=0)    5  0.155877D+01          0.192781          0.443895
 Vib (V=0)    6  0.152462D+01          0.183160          0.421742
 Vib (V=0)    7  0.136010D+01          0.133572          0.307561
 Vib (V=0)    8  0.132087D+01          0.120862          0.278294
 Vib (V=0)    9  0.129290D+01          0.111564          0.256886
 Vib (V=0)   10  0.125397D+01          0.098287          0.226314
 Vib (V=0)   11  0.119414D+01          0.077054          0.177423
 Vib (V=0)   12  0.115498D+01          0.062575          0.144084
 Vib (V=0)   13  0.111429D+01          0.046999          0.108220
 Vib (V=0)   14  0.110173D+01          0.042076          0.096884
 Vib (V=0)   15  0.108351D+01          0.034832          0.080204
 Electronic      0.100000D+01          0.000000          0.000000
 Translational   0.665645D+08          7.823243         18.013682
 Rotational      0.549084D+06          5.739639         13.216007
 ***** Axes restored to original set *****
 -------------------------------------------------------------------
 Center     Atomic                   Forces (Hartrees/Bohr)
 Number     Number              X              Y              Z
 -------------------------------------------------------------------
      1        5          -0.000001844    0.000002964   -0.000002089
      2        9          -0.000010522    0.000001418    0.000001381
      3        9           0.000000064   -0.000003590   -0.000001210
      4        9           0.000002017   -0.000006869    0.000003636
      5        8          -0.000000312   -0.000019062    0.000021603
      6        6           0.000004326    0.000014727   -0.000006423
      7        6           0.000004649   -0.000005089    0.000001670
      8        6           0.000007172    0.000002411   -0.000012022
      9        6          -0.000000780    0.000009240   -0.000003884
     10        1           0.000000423   -0.000000171    0.000000749
     11        1           0.000000110   -0.000000985    0.000001250
     12        1           0.000000640    0.000001486   -0.000000524
     13        1           0.000000309    0.000001081   -0.000001382
     14        1           0.000000174    0.000005278   -0.000003853
     15        1           0.000002132    0.000000856    0.000001467
     16        1          -0.000000969   -0.000001203    0.000002115
     17        1          -0.000000774   -0.000001284   -0.000001023
     18        1          -0.000003617    0.000002140   -0.000001905
     19        1          -0.000003199   -0.000003349    0.000000443
 -------------------------------------------------------------------
 Cartesian Forces:  Max     0.000021603 RMS     0.000005593
 FormGI is forming the generalized inverse of G from B-inverse, IUseBI=4.

 GradGradGradGradGradGradGradGradGradGradGradGradGradGradGradGradGradGrad
 Berny optimization.
 Internal  Forces:  Max     0.000017170 RMS     0.000004006
 Search for a local minimum.
 Step number   1 out of a maximum of    2
 All quantities printed in internal units (Hartrees-Bohrs-Radians)
 Second derivative matrix not updated -- analytic derivatives used.
 ITU=  0
     Eigenvalues ---    0.00084   0.00144   0.00240   0.00320   0.00456
     Eigenvalues ---    0.00947   0.04096   0.04127   0.04190   0.04315
     Eigenvalues ---    0.04348   0.04374   0.05048   0.05414   0.07283
     Eigenvalues ---    0.07799   0.09140   0.09838   0.10056   0.11890
     Eigenvalues ---    0.12217   0.12393   0.12469   0.12949   0.13591
     Eigenvalues ---    0.15630   0.16187   0.16427   0.18746   0.19962
     Eigenvalues ---    0.22866   0.24994   0.26816   0.29727   0.30262
     Eigenvalues ---    0.30908   0.31745   0.33724   0.34439   0.34490
     Eigenvalues ---    0.34638   0.34716   0.34875   0.34930   0.35072
     Eigenvalues ---    0.35160   0.35501   0.35731   0.39288   0.39966
     Eigenvalues ---    0.41663
 Angle between quadratic step and forces=  77.80 degrees.
 Linear search not attempted -- first point.
 Iteration  1 RMS(Cart)=  0.00038139 RMS(Int)=  0.00000005
 Iteration  2 RMS(Cart)=  0.00000008 RMS(Int)=  0.00000001
 Variable       Old X    -DE/DX   Delta X   Delta X   Delta X     New X
                                 (Linear)    (Quad)   (Total)
    R1        2.62038   0.00000   0.00000  -0.00000  -0.00000   2.62038
    R2        2.62761  -0.00000   0.00000  -0.00002  -0.00002   2.62760
    R3        2.62088   0.00000   0.00000  -0.00000  -0.00000   2.62088
    R4        3.00123   0.00001   0.00000   0.00004   0.00004   3.00127
    R5        2.77978  -0.00002   0.00000  -0.00010  -0.00010   2.77968
    R6        2.77897   0.00000   0.00000  -0.00002  -0.00002   2.77894
    R7        2.85403   0.00000   0.00000   0.00001   0.00001   2.85404
    R8        2.07005  -0.00000   0.00000   0.00000   0.00000   2.07005
    R9        2.05876   0.00000   0.00000   0.00000   0.00000   2.05876
   R10        2.07368  -0.00000   0.00000  -0.00000  -0.00000   2.07368
   R11        2.07165   0.00000   0.00000   0.00001   0.00001   2.07166
   R12        2.07310   0.00000   0.00000   0.00000   0.00000   2.07310
   R13        2.85200   0.00000   0.00000   0.00001   0.00001   2.85201
   R14        2.07093   0.00000   0.00000   0.00001   0.00001   2.07094
   R15        2.06607   0.00000   0.00000  -0.00000  -0.00000   2.06607
   R16        2.07371   0.00000   0.00000  -0.00000  -0.00000   2.07371
   R17        2.07072  -0.00000   0.00000  -0.00000  -0.00000   2.07072
   R18        2.06733  -0.00000   0.00000  -0.00000  -0.00000   2.06733
    A1        1.96547  -0.00000   0.00000  -0.00003  -0.00003   1.96544
    A2        1.95092  -0.00000   0.00000   0.00001   0.00001   1.95093
    A3        1.85153   0.00002   0.00000   0.00008   0.00008   1.85160
    A4        1.96754   0.00000   0.00000   0.00002   0.00002   1.96756
    A5        1.86178   0.00000   0.00000  -0.00003  -0.00003   1.86175
    A6        1.85682  -0.00001   0.00000  -0.00004  -0.00004   1.85678
    A7        2.09043  -0.00001   0.00000   0.00012   0.00012   2.09055
    A8        2.05617   0.00001   0.00000   0.00011   0.00011   2.05628
    A9        1.96087  -0.00000   0.00000   0.00012   0.00012   1.96099
   A10        1.91559   0.00000   0.00000   0.00003   0.00003   1.91562
   A11        1.86401  -0.00000   0.00000   0.00001   0.00001   1.86402
   A12        1.85048  -0.00000   0.00000  -0.00001  -0.00001   1.85047
   A13        1.97104   0.00000   0.00000   0.00001   0.00001   1.97106
   A14        1.95349   0.00000   0.00000  -0.00002  -0.00002   1.95348
   A15        1.90324  -0.00000   0.00000  -0.00003  -0.00003   1.90320
   A16        1.89313  -0.00000   0.00000   0.00000   0.00000   1.89313
   A17        1.92985   0.00000   0.00000  -0.00001  -0.00001   1.92984
   A18        1.95342  -0.00000   0.00000   0.00000   0.00000   1.95342
   A19        1.89589   0.00000   0.00000   0.00001   0.00001   1.89590
   A20        1.88552   0.00000   0.00000   0.00004   0.00004   1.88556
   A21        1.90464  -0.00000   0.00000  -0.00003  -0.00003   1.90461
   A22        1.95694   0.00001   0.00000  -0.00001  -0.00001   1.95693
   A23        1.86548  -0.00000   0.00000  -0.00000  -0.00000   1.86548
   A24        1.83244  -0.00000   0.00000   0.00002   0.00002   1.83246
   A25        1.96355  -0.00000   0.00000  -0.00002  -0.00002   1.96353
   A26        1.92875   0.00000   0.00000   0.00006   0.00006   1.92881
   A27        1.91104  -0.00000   0.00000  -0.00005  -0.00005   1.91099
   A28        1.86964  -0.00000   0.00000  -0.00001  -0.00001   1.86963
   A29        1.93651   0.00000   0.00000   0.00001   0.00001   1.93652
   A30        1.95955  -0.00000   0.00000  -0.00005  -0.00005   1.95950
   A31        1.89474   0.00000   0.00000   0.00002   0.00002   1.89476
   A32        1.89103   0.00000   0.00000   0.00003   0.00003   1.89106
   A33        1.91039   0.00000   0.00000   0.00000   0.00000   1.91039
    D1       -2.43922   0.00000   0.00000   0.00063   0.00063  -2.43859
    D2        1.35081  -0.00000   0.00000   0.00001   0.00001   1.35082
    D3        1.74484  -0.00000   0.00000   0.00064   0.00064   1.74549
    D4       -0.74832  -0.00000   0.00000   0.00002   0.00002  -0.74830
    D5       -0.35943   0.00000   0.00000   0.00066   0.00066  -0.35877
    D6       -2.85259   0.00000   0.00000   0.00004   0.00004  -2.85255
    D7        2.18858  -0.00000   0.00000  -0.00019  -0.00019   2.18839
    D8       -1.95230  -0.00000   0.00000  -0.00015  -0.00015  -1.95245
    D9        0.07565  -0.00000   0.00000  -0.00018  -0.00018   0.07547
   D10       -1.56876   0.00000   0.00000   0.00040   0.00040  -1.56836
   D11        0.57354   0.00001   0.00000   0.00044   0.00044   0.57398
   D12        2.60149   0.00000   0.00000   0.00040   0.00040   2.60190
   D13       -1.00011  -0.00000   0.00000  -0.00012  -0.00012  -1.00023
   D14        1.15924  -0.00000   0.00000  -0.00015  -0.00015   1.15910
   D15       -3.09497  -0.00000   0.00000  -0.00019  -0.00019  -3.09516
   D16        2.74409   0.00000   0.00000  -0.00070  -0.00070   2.74340
   D17       -1.37974   0.00000   0.00000  -0.00073  -0.00073  -1.38046
   D18        0.64924  -0.00000   0.00000  -0.00077  -0.00077   0.64846
   D19        3.13770   0.00000   0.00000  -0.00008  -0.00008   3.13762
   D20       -1.06829   0.00000   0.00000  -0.00008  -0.00008  -1.06837
   D21        1.05915  -0.00000   0.00000  -0.00013  -0.00013   1.05902
   D22        1.06008   0.00000   0.00000  -0.00012  -0.00012   1.05995
   D23        3.13727   0.00000   0.00000  -0.00012  -0.00012   3.13715
   D24       -1.01847  -0.00000   0.00000  -0.00017  -0.00017  -1.01865
   D25       -1.09584   0.00000   0.00000  -0.00008  -0.00008  -1.09592
   D26        0.98136   0.00000   0.00000  -0.00008  -0.00008   0.98128
   D27        3.10879  -0.00000   0.00000  -0.00013  -0.00013   3.10866
   D28       -3.02985   0.00000   0.00000  -0.00004  -0.00004  -3.02989
   D29       -0.96451   0.00000   0.00000  -0.00002  -0.00002  -0.96454
   D30        1.17946   0.00000   0.00000  -0.00004  -0.00004   1.17941
   D31        1.14992  -0.00000   0.00000  -0.00002  -0.00002   1.14990
   D32       -3.06793  -0.00000   0.00000  -0.00000  -0.00000  -3.06793
   D33       -0.92396  -0.00000   0.00000  -0.00002  -0.00002  -0.92398
   D34       -0.99206   0.00000   0.00000   0.00001   0.00001  -0.99205
   D35        1.07328   0.00000   0.00000   0.00003   0.00003   1.07331
   D36       -3.06594   0.00000   0.00000   0.00001   0.00001  -3.06593
         Item               Value     Threshold  Converged?
 Maximum Force            0.000017     0.000450     YES
 RMS     Force            0.000004     0.000300     YES
 Maximum Displacement     0.001182     0.001800     YES
 RMS     Displacement     0.000381     0.001200     YES
 Predicted change in Energy=-7.646051D-09
 Optimization completed.
    -- Stationary point found.
                           ----------------------------
                           !   Optimized Parameters   !
                           ! (Angstroms and Degrees)  !
 --------------------------                            --------------------------
 ! Name  Definition              Value          Derivative Info.                !
 --------------------------------------------------------------------------------
 ! R1    R(1,2)                  1.3866         -DE/DX =    0.0                 !
 ! R2    R(1,3)                  1.3905         -DE/DX =    0.0                 !
 ! R3    R(1,4)                  1.3869         -DE/DX =    0.0                 !
 ! R4    R(1,5)                  1.5882         -DE/DX =    0.0                 !
 ! R5    R(5,6)                  1.471          -DE/DX =    0.0                 !
 ! R6    R(5,8)                  1.4706         -DE/DX =    0.0                 !
 ! R7    R(6,7)                  1.5103         -DE/DX =    0.0                 !
 ! R8    R(6,10)                 1.0954         -DE/DX =    0.0                 !
 ! R9    R(6,11)                 1.0894         -DE/DX =    0.0                 !
 ! R10   R(7,12)                 1.0973         -DE/DX =    0.0                 !
 ! R11   R(7,13)                 1.0963         -DE/DX =    0.0                 !
 ! R12   R(7,14)                 1.097          -DE/DX =    0.0                 !
 ! R13   R(8,9)                  1.5092         -DE/DX =    0.0                 !
 ! R14   R(8,15)                 1.0959         -DE/DX =    0.0                 !
 ! R15   R(8,16)                 1.0933         -DE/DX =    0.0                 !
 ! R16   R(9,17)                 1.0974         -DE/DX =    0.0                 !
 ! R17   R(9,18)                 1.0958         -DE/DX =    0.0                 !
 ! R18   R(9,19)                 1.094          -DE/DX =    0.0                 !
 ! A1    A(2,1,3)              112.6134         -DE/DX =    0.0                 !
 ! A2    A(2,1,4)              111.7793         -DE/DX =    0.0                 !
 ! A3    A(2,1,5)              106.0846         -DE/DX =    0.0                 !
 ! A4    A(3,1,4)              112.7317         -DE/DX =    0.0                 !
 ! A5    A(3,1,5)              106.6721         -DE/DX =    0.0                 !
 ! A6    A(4,1,5)              106.3878         -DE/DX =    0.0                 !
 ! A7    A(1,5,6)              119.7728         -DE/DX =    0.0                 !
 ! A8    A(1,5,8)              117.8098         -DE/DX =    0.0                 !
 ! A9    A(6,5,8)              112.3494         -DE/DX =    0.0                 !
 ! A10   A(5,6,7)              109.7552         -DE/DX =    0.0                 !
 ! A11   A(5,6,10)             106.8            -DE/DX =    0.0                 !
 ! A12   A(5,6,11)             106.0247         -DE/DX =    0.0                 !
 ! A13   A(7,6,10)             112.9325         -DE/DX =    0.0                 !
 ! A14   A(7,6,11)             111.9269         -DE/DX =    0.0                 !
 ! A15   A(10,6,11)            109.0474         -DE/DX =    0.0                 !
 ! A16   A(6,7,12)             108.4684         -DE/DX =    0.0                 !
 ! A17   A(6,7,13)             110.5725         -DE/DX =    0.0                 !
 ! A18   A(6,7,14)             111.9227         -DE/DX =    0.0                 !
 ! A19   A(12,7,13)            108.6265         -DE/DX =    0.0                 !
 ! A20   A(12,7,14)            108.0325         -DE/DX =    0.0                 !
 ! A21   A(13,7,14)            109.1281         -DE/DX =    0.0                 !
 ! A22   A(5,8,9)              112.1246         -DE/DX =    0.0                 !
 ! A23   A(5,8,15)             106.8842         -DE/DX =    0.0                 !
 ! A24   A(5,8,16)             104.9909         -DE/DX =    0.0                 !
 ! A25   A(9,8,15)             112.5029         -DE/DX =    0.0                 !
 ! A26   A(9,8,16)             110.5091         -DE/DX =    0.0                 !
 ! A27   A(15,8,16)            109.4945         -DE/DX =    0.0                 !
 ! A28   A(8,9,17)             107.1225         -DE/DX =    0.0                 !
 ! A29   A(8,9,18)             110.9538         -DE/DX =    0.0                 !
 ! A30   A(8,9,19)             112.2737         -DE/DX =    0.0                 !
 ! A31   A(17,9,18)            108.5605         -DE/DX =    0.0                 !
 ! A32   A(17,9,19)            108.3479         -DE/DX =    0.0                 !
 ! A33   A(18,9,19)            109.4572         -DE/DX =    0.0                 !
 ! D1    D(2,1,5,6)           -139.7569         -DE/DX =    0.0                 !
 ! D2    D(2,1,5,8)             77.3957         -DE/DX =    0.0                 !
 ! D3    D(3,1,5,6)             99.9721         -DE/DX =    0.0                 !
 ! D4    D(3,1,5,8)            -42.8753         -DE/DX =    0.0                 !
 ! D5    D(4,1,5,6)            -20.5937         -DE/DX =    0.0                 !
 ! D6    D(4,1,5,8)           -163.4411         -DE/DX =    0.0                 !
 ! D7    D(1,5,6,7)            125.3965         -DE/DX =    0.0                 !
 ! D8    D(1,5,6,10)          -111.8585         -DE/DX =    0.0                 !
 ! D9    D(1,5,6,11)             4.3346         -DE/DX =    0.0                 !
 ! D10   D(8,5,6,7)            -89.8834         -DE/DX =    0.0                 !
 ! D11   D(8,5,6,10)            32.8616         -DE/DX =    0.0                 !
 ! D12   D(8,5,6,11)           149.0546         -DE/DX =    0.0                 !
 ! D13   D(1,5,8,9)            -57.3023         -DE/DX =    0.0                 !
 ! D14   D(1,5,8,15)            66.4197         -DE/DX =    0.0                 !
 ! D15   D(1,5,8,16)          -177.3287         -DE/DX =    0.0                 !
 ! D16   D(6,5,8,9)            157.2249         -DE/DX =    0.0                 !
 ! D17   D(6,5,8,15)           -79.0531         -DE/DX =    0.0                 !
 ! D18   D(6,5,8,16)            37.1986         -DE/DX =    0.0                 !
 ! D19   D(5,6,7,12)           179.7772         -DE/DX =    0.0                 !
 ! D20   D(5,6,7,13)           -61.2082         -DE/DX =    0.0                 !
 ! D21   D(5,6,7,14)            60.6849         -DE/DX =    0.0                 !
 ! D22   D(10,6,7,12)           60.738          -DE/DX =    0.0                 !
 ! D23   D(10,6,7,13)          179.7525         -DE/DX =    0.0                 !
 ! D24   D(10,6,7,14)          -58.3543         -DE/DX =    0.0                 !
 ! D25   D(11,6,7,12)          -62.7868         -DE/DX =    0.0                 !
 ! D26   D(11,6,7,13)           56.2277         -DE/DX =    0.0                 !
 ! D27   D(11,6,7,14)          178.1208         -DE/DX =    0.0                 !
 ! D28   D(5,8,9,17)          -173.5975         -DE/DX =    0.0                 !
 ! D29   D(5,8,9,18)           -55.2625         -DE/DX =    0.0                 !
 ! D30   D(5,8,9,19)            67.5779         -DE/DX =    0.0                 !
 ! D31   D(15,8,9,17)           65.8858         -DE/DX =    0.0                 !
 ! D32   D(15,8,9,18)         -175.7792         -DE/DX =    0.0                 !
 ! D33   D(15,8,9,19)          -52.9388         -DE/DX =    0.0                 !
 ! D34   D(16,8,9,17)          -56.8408         -DE/DX =    0.0                 !
 ! D35   D(16,8,9,18)           61.4942         -DE/DX =    0.0                 !
 ! D36   D(16,8,9,19)         -175.6654         -DE/DX =    0.0                 !
 --------------------------------------------------------------------------------
 GradGradGradGradGradGradGradGradGradGradGradGradGradGradGradGradGradGrad


 ----------------------------------------------------------------------

 Electric dipole moment (input orientation):
 (Debye = 10**-18 statcoulomb cm , SI units = C m)
                  (au)            (Debye)         (10**-30 SI)
   Tot        0.317062D+01      0.805892D+01      0.268817D+02
   x          0.267878D+01      0.680878D+01      0.227116D+02
   y         -0.143922D+01     -0.365813D+01     -0.122022D+02
   z          0.897574D+00      0.228141D+01      0.760995D+01

 Dipole polarizability, Alpha (input orientation).
 (esu units = cm**3 , SI units = C**2 m**2 J**-1)
 Alpha(0;0):
               (au)            (10**-24 esu)      (10**-40 SI)
   iso        0.885581D+02      0.131229D+02      0.146013D+02
   aniso      0.983819D+01      0.145787D+01      0.162210D+01
   xx         0.871400D+02      0.129128D+02      0.143675D+02
   yx         0.117109D+01      0.173537D+00      0.193086D+00
   yy         0.944465D+02      0.139955D+02      0.155721D+02
   zx         0.774836D+00      0.114819D+00      0.127753D+00
   zy         0.139870D+01      0.207266D+00      0.230614D+00
   zz         0.840876D+02      0.124605D+02      0.138642D+02

 ----------------------------------------------------------------------

 Dipole orientation:
     5         -0.74484840         -0.13329965         -3.50158039
     9          1.56889510          0.59251468         -4.49465305
     9         -2.63143525          1.64432843         -3.93191574
     9         -1.42537048         -2.54125370         -4.28111628
     8         -0.36381825         -0.28188694         -0.52834473
     6         -1.53375793         -2.35200019          0.91146045
     6          0.45874831         -3.71395416          2.43477351
     6         -0.32488600          2.10479622          0.89463962
     6          1.69825595          3.88224580         -0.04423621
     1         -3.00892211         -1.50250092          2.08931111
     1         -2.41391857         -3.58645625         -0.48135369
     1         -0.45658655         -5.24191411          3.49668355
     1          1.89038916         -4.54107020          1.18656249
     1          1.38846869         -2.45505740          3.79438087
     1         -2.22349162          2.91986105          0.75416381
     1          0.04616200          1.55447119          2.85119680
     1          1.73672475          5.50185472          1.25024299
     1          3.55713866          2.97035473         -0.01443997
     1          1.30457269          4.58121648         -1.94957701

 Electric dipole moment (dipole orientation):
 (Debye = 10**-18 statcoulomb cm , SI units = C m)
                  (au)            (Debye)         (10**-30 SI)
   Tot        0.317062D+01      0.805892D+01      0.268817D+02
   x          0.000000D+00      0.000000D+00      0.000000D+00
   y          0.000000D+00      0.000000D+00      0.000000D+00
   z          0.317062D+01      0.805892D+01      0.268817D+02

 Dipole polarizability, Alpha (dipole orientation).
 (esu units = cm**3 , SI units = C**2 m**2 J**-1)
 Alpha(0;0):
               (au)            (10**-24 esu)      (10**-40 SI)
   iso        0.885581D+02      0.131229D+02      0.146013D+02
   aniso      0.983819D+01      0.145787D+01      0.162210D+01
   xx         0.846372D+02      0.125419D+02      0.139548D+02
   yx         0.270278D+01      0.400510D+00      0.445628D+00
   yy         0.935232D+02      0.138587D+02      0.154199D+02
   zx        -0.236178D-02     -0.349980D-03     -0.389405D-03
   zy        -0.209770D+01     -0.310847D+00     -0.345864D+00
   zz         0.875138D+02      0.129682D+02      0.144291D+02

 ----------------------------------------------------------------------
 Unable to Open any file for archive entry.
 1\1\GINC-B-DFT-3--25439D1DEB0F-2PCZBCBPIJ\Freq\RwB97XD\Aug-CC-pVDZ\C4H
 10B1F3O1\ROOT\24-May-2026\0\\#N Geom=AllCheck Guess=TCheck SCRF=Check 
 GenChk RwB97XD/Aug-CC-pVDZ Freq\\BF3OEt2_D2O | solvent model: D2O as w
 ater\\0,1\B,-1.7614778651,0.6640779149,-0.2235611002\F,-1.547439233,1.
 5909859884,-1.2324313436\F,-2.1156516547,1.2586693324,0.982440431\F,-2
 .6506361655,-0.3259197212,-0.6144911264\O,-0.366220879,-0.0558466475,0
 .0157992074\C,-0.3246092499,-1.5062851384,0.2573022169\C,0.6088366627,
 -2.1620214207,-0.7324735325\C,0.65661654,0.6686632895,0.7848590801\C,0
 .9929925346,2.0037240636,0.1666414839\H,-0.0099867687,-1.645189336,1.2
 973338929\H,-1.3492191176,-1.8592798443,0.1456373016\H,0.6270241554,-3
 .2405931085,-0.5311835332\H,0.2560786249,-2.0031576422,-1.7582101891\H
 ,1.6341017214,-1.7823549557,-0.6420699483\H,0.2769670224,0.7641584031,
 1.8084430414\H,1.5314426805,0.0129207847,0.7798787984\H,1.8369413517,2
 .4182950477,0.7324019827\H,1.2985173967,1.8855218715,-0.8790214441\H,0
 .1592612433,2.7096121188,0.2251197812\\Version=ES64L-G16RevC.01\State=
 1-A\HF=-558.1523264\RMSD=8.581e-10\RMSF=5.593e-06\ZeroPoint=0.151818\T
 hermal=0.1625633\ETot=-557.9897631\HTot=-557.9888189\GTot=-558.0377186
 \Dipole=2.6787791,-1.4392207,0.897574\DipoleDeriv=2.447054,-0.1801305,
 0.1226643,-0.185405,2.1676931,-0.079538,0.0736839,-0.0519409,2.1462873
 ,-0.6214083,-0.0241965,0.015479,0.0028947,-0.8656422,0.3402804,-0.0285
 982,0.3744895,-0.9058082,-0.7098143,0.1410524,0.1482255,0.140818,-0.68
 75904,-0.2202398,0.212119,-0.2808627,-0.9958172,-0.9572885,-0.2631625,
 -0.1745393,-0.2509232,-0.8612375,-0.1251339,-0.1852387,-0.1153958,-0.5
 797339,-1.2781255,0.0220746,-0.3064894,0.1342899,-1.6184307,-0.1032736
 ,-0.3115142,-0.0904702,-0.636523,0.2184586,-0.1628472,-0.0599888,-0.14
 99898,1.2750542,0.076648,-0.061866,-0.0316138,0.3711727,0.036709,0.097
 7327,0.0640578,0.0401208,-0.0639929,-0.0332239,0.0839772,-0.0658576,0.
 0178041,0.6899204,0.4903999,0.1963474,0.3874355,0.664418,0.18385,0.231
 1213,0.2871292,0.5520688,0.0288751,-0.1044407,-0.0153994,-0.0887823,-0
 .0832152,0.0162467,-0.0020872,0.0215603,0.0551827,0.0798286,0.0516832,
 -0.0500614,0.019561,-0.0033209,-0.0651379,-0.0170871,0.0278346,-0.1245
 657,0.0062701,-0.0685682,0.0388045,-0.0228673,0.0074065,-0.02399,0.011
 9081,-0.0294802,0.1027808,0.097552,0.0023352,0.0243546,0.0134508,-0.12
 8749,0.0272578,0.0195765,0.0351021,0.0743414,0.0396046,0.0336567,-0.07
 22199,0.02893,0.0893011,0.0418166,-0.0329906,-0.0022686,-0.1234872,-0.
 1201397,-0.0632959,0.0069891,-0.1019554,0.0667468,-0.0185401,-0.023481
 8,-0.0426383,0.0603857,0.028993,-0.0624745,0.101892,-0.0613701,0.02250
 49,0.0157119,0.0054529,-0.0195103,-0.1018571,-0.0371869,0.0441545,-0.0
 270025,0.0826563,-0.0431292,0.012276,0.0003951,-0.0330299,0.0762078,-0
 .0308551,-0.0859636,-0.0946578,-0.0657551,0.0359758,-0.0220835,-0.1004
 376,-0.0233782,0.0350102,0.0914578,0.0102334,0.056705,0.0068766,0.0409
 96,-0.0386425,0.079352,0.01728,-0.1120817,-0.0099049,0.1217569,0.02483
 91,0.0700146,-0.0147884,0.0157158,0.0457154,0.0230506,0.0886325\Polar=
 87.1400311,1.1710884,94.4465433,0.7748356,1.3986999,84.0875772\AAT=0.0
 275654,-0.1689985,-0.4913315,0.2376186,-0.0113214,-1.4029993,0.4695373
 ,1.2285383,-0.0187021,-0.0211,0.4490697,0.5162898,-0.3448061,0.1782283
 ,0.4583266,-0.4593513,-0.4336548,-0.1748948,0.0274626,-0.3055877,0.313
 5883,0.279499,-0.1246997,0.4866214,-0.4297957,-0.7021901,0.1118551,-0.
 0243812,0.1162752,-0.0619524,-0.2496253,-0.027928,0.9284496,0.1617964,
 -0.58572,0.058507,0.0905888,0.0639833,-0.2111354,0.227271,-0.0060156,-
 0.0787466,0.0759274,-0.0573659,-0.0854724,0.0656894,-0.0819719,0.02273
 22,-0.1648413,-0.0162073,0.1245112,-0.1320605,-0.1309489,-0.0317047,-0
 .0899659,0.0114547,-0.0092922,-0.1110584,-0.009793,-0.1027663,0.123755
 ,0.0727336,0.0851275,-0.1461675,0.0085999,0.0837582,-0.1116306,0.01969
 44,0.2715786,-0.0365954,-0.1144859,0.1095821,-0.0285098,0.0751184,0.11
 26438,0.0018611,-0.0339788,-0.0655517,-0.1696265,0.0680274,0.0781366,0
 .047946,0.1307016,0.0796281,0.021486,0.0093389,0.0295615,0.0982573,-0.
 0597161,-0.0216375,-0.0175227,-0.0672996,0.0521806,0.0238118,0.0193309
 ,-0.0545568,-0.1081659,0.0940518,-0.0189101,-0.0271544,0.0021327,0.257
 3268,-0.1234116,-0.0248373,-0.0775822,-0.2171135,-0.0425344,0.0488917,
 0.0786568,-0.0703778,0.020033,0.1213058,-0.0245371,0.0196094,0.1849346
 ,0.1818566,-0.039798,-0.0267166,0.0996545,-0.2691468,0.0166798,0.03985
 9,0.0745835,-0.0157412,-0.1424977,-0.0230067,0.0591266,-0.0442161,-0.0
 438761,-0.1279929,-0.0669421,-0.016452,0.0417444,0.1296201,0.006521,-0
 .029389,-0.0023103,0.0606301,0.0822765,0.0715563,0.0421427,0.0079126,-
 0.1172323,-0.0626509,-0.0796285,0.170167,-0.0637122,-0.1139217,0.01243
 6,0.2187879,0.0721179,-0.1527586,0.0700209,0.0680509,-0.1722962,-0.021
 4434,0.114271,0.0106898,0.0518896,-0.155025,0.0533179,-0.061829,0.0282
 552,0.0099421,0.0167673,-0.0028082,-0.015492,-0.2439984,0.1286146,0.04
 82957,-0.0270707\GPTens=-0.2443794,-6.0168574,-19.7832793,12.0044181,-
 0.4096929,-48.4496326,18.3936572,46.5540851,1.1374641\OptRot=0.36051,-
 0.757984,0.0169876,-0.757984,0.3543668,-1.3103085,0.0169876,-1.3103085
 ,-0.231485\DQPolar=117.327396,-53.3605683,-63.9668277,-27.9112612,8.80
 86023,4.1857112,33.1660978,-61.202629,28.0365311,114.2170502,3.8035065
 ,4.6545811,-3.3562953,-13.4215656,16.7778609,3.8170091,89.3372274,-30.
 3974845\Quadrupole=-1.5529686,2.9259706,-1.373002,1.2160631,1.0622143,
 0.3761861\PG=C01 [X(C4H10B1F3O1)]\NImag=0\\0.25479823,0.09575615,0.387
 52133,-0.02282451,0.01648521,0.40847680,-0.04519026,-0.01981127,0.0199
 2308,0.05714954,-0.02403624,-0.12246114,0.08856083,0.03238565,0.173526
 73,0.02358496,0.08571645,-0.14057328,-0.02900575,-0.13073739,0.1936078
 3,-0.05250600,0.01681989,0.04087653,0.00555550,-0.00044586,0.01392896,
 0.06758684,0.01592586,-0.07489683,-0.06641251,-0.00332038,0.00857407,0
 .01374134,-0.02914353,0.09815085,0.03656743,-0.06237863,-0.17505379,0.
 01651857,0.00442478,-0.05004718,-0.06003901,0.09934447,0.24837843,-0.1
 1423829,-0.08470469,-0.03178232,-0.00586906,-0.02360232,0.00588949,0.0
 0587045,-0.00633793,-0.00698448,0.16287159,-0.08110741,-0.13555155,-0.
 03599661,-0.02933275,-0.03692539,0.01235744,-0.01281246,-0.02035050,-0
 .02909486,0.12059960,0.19285927,-0.03176103,-0.03703009,-0.05791732,0.
 01131018,0.01858272,0.00593832,-0.01433208,-0.03190159,-0.02069256,0.0
 5140894,0.05045379,0.07236222,-0.03207260,-0.01494991,0.00725436,-0.00
 561690,0.01797570,-0.01115065,-0.02481580,0.02567908,0.01463502,-0.040
 96645,-0.00589714,-0.01279796,0.33630189,-0.01182989,-0.05005550,-0.01
 096068,0.02324562,-0.02299483,0.02179980,0.02587672,-0.01258958,-0.013
 40298,-0.01084484,0.00413389,-0.00136858,0.00232855,0.43118722,0.00025
 388,-0.00593554,-0.02610620,-0.01358950,0.01890023,-0.00723428,0.01435
 527,-0.01248059,-0.00086767,-0.01785987,-0.00192208,-0.00077599,0.1096
 7951,0.01105622,0.20449450,0.00873362,0.01379736,-0.00103769,-0.001866
 37,0.00187888,-0.00208789,-0.00257973,0.00035347,0.00158941,-0.0011099
 2,0.00053344,-0.00075197,-0.09207315,0.00667900,-0.02139086,0.63717391
 ,0.03576057,-0.01735929,0.01090187,-0.00446276,0.00613745,-0.00557331,
 -0.00695039,0.00531421,0.00373249,-0.00551045,-0.00777234,-0.00135011,
 -0.00464801,-0.13412874,0.01173466,0.04444362,0.38540418,-0.00040249,0
 .00141043,-0.00446063,-0.00218410,0.00222561,-0.00103366,0.00268332,-0
 .00110551,-0.00110444,-0.00106538,0.00235336,0.00039123,-0.01825766,0.
 03080102,-0.06518470,0.05109242,0.01370744,0.59290958,-0.00108398,-0.0
 0047464,0.00011362,0.00019720,-0.00008632,0.00007242,0.00020850,-0.000
 06697,-0.00010195,-0.00006691,0.00075009,-0.00053623,0.00254746,0.0036
 8374,-0.00105290,-0.14427704,0.03463282,0.06244298,0.55617632,-0.00636
 496,-0.00053317,-0.00263412,0.00062519,-0.00065766,0.00093829,0.002126
 69,-0.00106007,-0.00099214,0.00063951,0.00130859,0.00001113,0.02691894
 ,-0.04308536,-0.01958616,0.02637366,-0.08432579,-0.03449800,0.02571347
 ,0.56013543,0.00203137,-0.00068056,0.00060316,-0.00017968,0.00048739,-
 0.00057452,-0.00072821,0.00051272,0.00056163,-0.00052103,0.00043369,-0
 .00026579,-0.00568652,0.00597053,0.00780484,0.06534646,-0.04381147,-0.
 15382608,0.03130640,-0.03006947,0.55240533,-0.02748452,0.00168531,-0.0
 1186942,0.00208236,-0.00355564,0.00305250,0.00374137,-0.00366363,-0.00
 383396,0.00198030,0.00081797,0.00063999,-0.10672937,-0.00733469,-0.036
 30523,0.00131839,-0.02412634,0.00476061,0.00079305,0.00427912,-0.00143
 042,0.52075221,-0.01626131,0.02283075,0.00070216,0.00063726,-0.0056018
 0,0.00251775,0.00333554,-0.00430010,-0.00233521,0.00904295,0.00125517,
 0.00215782,0.00840459,-0.09853630,-0.00405699,-0.02331024,-0.02935020,
 -0.01408239,-0.00020126,0.00026783,-0.00050089,-0.10697229,0.53654617,
 -0.01455321,0.00773183,-0.00315859,0.00171517,-0.00153876,0.00164066,0
 .00237308,-0.00314020,-0.00363805,0.00473654,0.00074063,0.00211552,-0.
 05202032,-0.02509451,-0.09736641,0.01010489,-0.00670391,0.00234898,0.0
 0063905,0.00047727,-0.00151454,-0.07742055,-0.03315325,0.55274714,0.00
 058255,-0.00177562,0.00016691,-0.00271170,-0.00048280,-0.00087405,-0.0
 0073300,0.00028494,0.00043975,-0.00036183,-0.00007425,-0.00019457,-0.0
 1062988,-0.03269196,0.00453836,-0.00401726,0.00219719,-0.00146071,0.00
 009722,-0.00040591,0.00003193,-0.08067769,-0.01046749,0.01359268,0.577
 04291,-0.00015741,0.00159482,-0.00075928,-0.00248780,-0.00119272,-0.00
 164288,-0.00050789,-0.00053596,0.00064607,-0.00020369,-0.00023121,0.00
 001328,-0.00846970,-0.01787888,0.00144215,-0.00216148,0.00064808,-0.00
 028015,-0.00011584,-0.00004095,0.00008816,-0.01804701,-0.19215325,0.05
 921521,-0.03435931,0.52094525,0.00255587,-0.00057491,0.00075058,-0.002
 21207,-0.00094483,-0.00153605,-0.00055781,0.00040250,0.00046344,-0.000
 64299,-0.00022423,-0.00025730,-0.00670660,-0.02514148,0.00859152,-0.00
 410090,0.00102659,-0.00174776,0.00002816,-0.00034187,0.00034933,0.0177
 6924,0.06903763,-0.11384314,0.00951418,0.02520916,0.57968162,0.0001174
 9,-0.00121271,-0.00058553,-0.00002603,0.00038024,-0.00025126,-0.000091
 60,0.00015249,0.00032376,-0.00066478,0.00138325,-0.00003093,-0.0000058
 9,-0.00071342,-0.00037274,-0.07744583,0.01051617,-0.07922761,0.0075316
 3,-0.00214680,0.02142449,-0.00042632,-0.00197290,0.00083339,-0.0000119
 2,0.00009627,0.00004542,0.07678760,-0.00621040,0.00066490,0.00069224,0
 .00143487,-0.00160977,0.00115514,0.00056325,-0.00038364,-0.00059921,0.
 00038202,0.00102599,0.00003069,0.01367348,-0.02763595,0.03350036,0.002
 33070,-0.04765091,0.01875358,-0.00524814,0.00379196,-0.01422302,0.0029
 4791,0.00183028,0.00394639,-0.00028180,-0.00008573,-0.00039935,-0.0105
 0368,0.06781249,0.00179952,-0.00085752,-0.00027175,-0.00022303,0.00038
 341,-0.00021676,-0.00024058,0.00019631,0.00023321,-0.00023888,0.000025
 79,-0.00009279,-0.00209863,0.00482241,-0.00189088,-0.07713757,0.028959
 49,-0.29791954,-0.00716013,0.00142122,-0.01764438,-0.00217031,-0.00153
 725,0.00186086,0.00043702,-0.00022621,0.00014551,0.08249534,-0.0315120
 4,0.31663156,0.00049674,0.00100326,0.00002399,-0.00006874,-0.00032445,
 0.00010529,0.00006117,-0.00031419,-0.00024355,-0.00497472,0.00526291,-
 0.00251475,0.00440007,0.00190986,0.00014670,-0.31043904,-0.09356094,-0
 .03043969,-0.01607022,-0.00456454,-0.00232622,-0.00003371,0.00072668,0
 .00027352,0.00031434,0.00023167,0.00003663,-0.00477849,-0.00143907,0.0
 0044274,0.33015529,-0.00431443,-0.00322096,-0.00112501,0.00052700,0.00
 049638,-0.00011451,0.00052478,0.00026928,0.00033796,0.00256641,0.00003
 795,0.00086821,-0.03218944,-0.02569870,-0.00644876,-0.07699709,-0.0717
 3067,-0.00711250,0.01505506,0.00666131,0.00155646,0.00252164,-0.003277
 39,0.00515999,-0.00145815,-0.00052747,-0.00155648,0.00390125,0.0033767
 3,-0.00025308,0.08923815,0.09432720,0.00073539,0.00080628,0.00125873,-
 0.00008686,-0.00026205,0.00006129,-0.00011692,0.00000557,-0.00019051,-
 0.00189890,0.00123897,-0.00110056,0.00556499,0.00534786,0.00055027,-0.
 03453189,-0.01344833,-0.05605057,0.02329191,0.00696254,0.00281833,-0.0
 0108909,-0.00058517,-0.00061620,0.00042937,0.00007119,0.00016836,-0.02
 713571,-0.00986629,-0.00077594,0.03231191,0.01108778,0.05472257,0.0015
 4662,-0.00029803,0.00039507,-0.00018083,0.00026380,-0.00025507,-0.0004
 0155,0.00024270,0.00025999,-0.00023411,-0.00014999,-0.00001478,-0.0027
 6497,0.00570659,0.00278651,0.00025015,0.01711098,-0.00661283,-0.044281
 32,0.00294487,0.00122732,-0.00121212,-0.00013237,-0.00040273,0.0001883
 6,0.00003210,0.00014946,0.00053392,-0.00020901,0.00010857,0.00025789,-
 0.00058308,-0.00067212,0.04518444,-0.00167419,0.00062673,-0.00060212,0
 .00014154,-0.00023849,0.00023163,0.00046632,-0.00028902,-0.00025810,0.
 00028582,0.00008471,0.00009771,0.00252651,-0.00234709,-0.00206231,-0.0
 0250592,-0.01320408,0.00513508,0.00525102,-0.31156717,0.04901949,0.000
 92693,0.00070429,0.00055003,-0.00005468,-0.00003477,-0.00007763,-0.000
 17257,0.00041255,-0.00023142,0.00016815,0.00041657,0.00008547,-0.00635
 806,0.33652786,-0.00174310,0.00019515,-0.00061078,0.00021272,-0.000280
 20,0.00032436,0.00049212,-0.00026782,-0.00028747,0.00026334,0.00014666
 ,0.00011528,0.00417841,-0.00639486,-0.00188951,-0.00278422,-0.01838330
 ,0.00438945,0.00067226,0.05153154,-0.05506932,0.00096536,0.00031948,0.
 00057530,-0.00011953,-0.00003013,-0.00015638,-0.00078685,0.00061702,0.
 00024486,-0.00000387,0.00029835,0.00058131,-0.00162670,-0.05302508,0.0
 5557715,0.00002378,0.00010397,0.00002603,-0.00002631,-0.00000600,0.000
 01125,0.00003125,-0.00004150,-0.00005481,0.00006725,-0.00010431,-0.000
 03986,0.00072516,-0.00108316,-0.00109724,0.00674704,-0.00411862,0.0232
 7645,-0.07825260,0.01406398,-0.08771695,-0.00023482,-0.00001604,-0.000
 28832,0.00007558,0.00001740,-0.00006450,-0.00216806,0.00280571,0.00277
 189,0.00108486,-0.00067652,-0.00030969,-0.00127708,-0.00032014,0.00035
 076,0.08081818,0.00048770,-0.00009074,0.00003657,-0.00008868,0.0001003
 0,-0.00007070,-0.00011244,0.00007654,0.00009818,-0.00012362,-0.0000492
 1,0.00001629,-0.00107002,0.00240925,0.00014876,-0.00402729,-0.00048641
 ,-0.01617874,0.01287336,-0.05114911,0.04035995,-0.00041759,-0.00021103
 ,-0.00039596,0.00004314,0.00001165,0.00007147,0.00211323,-0.00061141,-
 0.00209358,-0.00035610,0.00013031,0.00079740,0.01007698,-0.00232840,0.
 02857561,-0.01639786,0.05110567,-0.00036438,0.00016468,-0.00019590,0.0
 0006399,-0.00009396,0.00009939,0.00004394,-0.00002646,-0.00002218,0.00
 010902,-0.00012632,0.00008906,-0.00032042,-0.00016263,0.00177457,-0.00
 729539,0.00478390,-0.02160118,-0.08434439,0.03757282,-0.28561018,0.000
 10617,0.00022060,0.00023630,0.00000222,-0.00001859,-0.00004013,0.00311
 337,-0.00214816,-0.00132566,-0.00013839,0.00010356,0.00091120,-0.00091
 308,-0.00053906,-0.00324080,0.08929559,-0.04021195,0.30970301,-0.00003
 376,-0.00056944,-0.00012541,0.00000625,0.00013365,-0.00007132,0.000066
 63,0.00005948,0.00008496,-0.00013430,0.00041940,-0.00012557,0.00115806
 ,-0.00007111,-0.00048643,-0.01909148,-0.00815667,-0.00216010,-0.283515
 44,-0.08937508,-0.02303644,-0.00043886,0.00010430,-0.00057041,0.000154
 07,0.00004749,0.00003845,0.00087150,0.00026568,-0.00007062,-0.00061045
 ,0.00201990,0.00315475,0.00199006,0.00134888,0.00000415,-0.00772819,-0
 .00320024,0.00051112,0.30644857,0.00068676,-0.00004017,0.00024586,-0.0
 0008725,0.00007006,-0.00008319,-0.00019770,0.00011424,0.00008615,-0.00
 010653,-0.00020884,0.00002697,-0.00095711,0.00210971,0.00085330,0.0167
 2223,0.00374211,0.00135429,-0.09134831,-0.07903576,-0.00858175,0.00048
 675,-0.00061274,-0.00066109,-0.00013930,0.00013055,0.00004427,-0.00081
 941,0.00010804,0.00049871,0.00189400,-0.00065939,-0.00243434,-0.028811
 45,-0.00879401,-0.00335195,0.00576428,0.00101662,0.00030323,0.09697612
 ,0.08266838,0.00015409,0.00042566,0.00005337,-0.00002560,-0.00009049,0
 .00004579,-0.00005893,-0.00003312,-0.00002986,0.00015101,-0.00045297,0
 .00015305,-0.00185639,0.00013785,0.00052040,0.02294020,0.01111528,0.00
 199400,-0.02468821,-0.01055610,-0.05004293,0.00073447,-0.00026556,0.00
 022560,-0.00028811,0.00005747,-0.00002785,-0.00048344,0.00061700,0.000
 95826,0.00225957,-0.00286356,-0.00242895,0.00522719,0.00155515,-0.0006
 7594,-0.02627365,-0.01137120,-0.00088454,0.02231534,0.01269984,0.05092
 335,0.00235736,-0.00172443,-0.00169578,-0.00029105,0.00048035,0.000065
 04,-0.00067235,0.00029891,0.00052456,-0.00032116,0.00017106,0.00029094
 ,-0.00197932,-0.01314386,-0.03326973,-0.00057960,0.00340923,-0.0016493
 3,-0.00028896,-0.00049265,0.00027648,-0.08747153,0.01417234,0.10309988
 ,-0.00079882,0.00170494,0.00572532,0.00025313,0.00017274,0.00075186,0.
 00003295,-0.00004635,0.00000182,0.00025485,-0.00005869,-0.00003014,0.0
 0006062,0.00006895,0.00005592,0.00024640,-0.00000716,-0.00003657,0.093
 79646,0.00208533,-0.00097045,0.00087127,-0.00005080,0.00046635,-0.0003
 3801,-0.00021253,0.00008930,0.00025005,-0.00041219,-0.00015422,-0.0000
 9880,-0.00382715,-0.00749030,-0.02030772,-0.00003396,0.00330528,-0.002
 18143,0.00036195,-0.00041569,0.00009419,0.01093802,-0.05266990,-0.0187
 7287,-0.01074167,0.00369045,0.02909394,0.00011324,-0.00048528,0.000616
 30,0.00003949,-0.00000507,0.00019900,0.00008465,-0.00005886,-0.0000530
 3,-0.00012987,-0.00004751,0.00011340,-0.00015852,0.00003008,0.00007694
 ,-0.00406282,0.05827636,0.00300341,-0.00251321,-0.00171979,-0.00047659
 ,0.00052315,-0.00008150,0.00057158,0.00071669,0.00158009,-0.00061339,0
 .00010362,0.00007803,-0.00708900,-0.00928093,-0.01947670,-0.00022227,0
 .00245287,-0.00061144,0.00000173,-0.00029736,0.00033177,0.09443461,-0.
 01961603,-0.28172963,0.00534822,-0.00095539,-0.00913186,0.00010308,-0.
 00067746,0.00009682,0.00004611,-0.00023974,0.00016283,0.00012754,-0.00
 008947,-0.00005828,-0.00003568,0.00012270,0.00006804,0.00006054,0.0000
 3148,-0.00001700,-0.09599424,0.02639235,0.30751155,0.00385448,-0.00412
 854,0.00071838,-0.00011630,0.00087580,-0.00056731,-0.00040905,0.000495
 95,0.00027809,-0.00183849,-0.00041555,-0.00056853,-0.03055892,0.007241
 78,-0.00812840,-0.00076274,0.00331815,-0.00075389,0.00033830,-0.000271
 07,-0.00002529,-0.22193712,0.13276012,0.00607721,0.00842781,-0.0063507
 7,0.00036648,-0.00048277,-0.00077011,0.00063410,0.00018500,-0.00007123
 ,0.00041058,0.00015872,0.00002780,-0.00001370,0.00007689,0.00012350,0.
 00009627,0.00065412,-0.00006637,-0.00010967,-0.00592368,0.00688125,0.0
 0020753,0.24706676,0.00086073,-0.00286423,-0.00035590,0.00005711,0.000
 65497,-0.00018592,0.00002123,0.00045508,0.00033420,-0.00133745,-0.0000
 8290,-0.00041173,-0.02302817,0.00655964,-0.00547458,-0.00266810,0.0004
 3279,-0.00000100,-0.00074132,-0.00028025,-0.00072502,0.14470713,-0.152
 05605,-0.00186188,0.02234568,-0.01902128,-0.00113587,-0.00118145,-0.00
 073863,-0.00008902,0.00009747,-0.00001235,0.00000890,0.00004841,0.0001
 4206,0.00018212,0.00014612,0.00014342,0.00012410,0.00016784,-0.0007284
 9,-0.00107790,0.00104277,-0.00016813,0.00144872,-0.13810163,0.16999017
 ,0.00246100,-0.00342219,-0.00095838,-0.00009227,0.00050399,-0.00017155
 ,0.00029177,0.00061799,0.00107540,-0.00145955,-0.00011385,-0.00027903,
 -0.02663194,0.00834300,-0.00522033,-0.00019738,0.00165737,0.00093539,-
 0.00066497,-0.00015352,-0.00021371,0.01305929,-0.00749223,-0.05117611,
 -0.01140326,0.01003893,0.00060543,0.00059949,0.00018430,-0.00003069,-0
 .00000006,0.00004205,-0.00009838,0.00024734,0.00013440,0.00009955,0.00
 013339,0.00011122,-0.00000097,0.00041407,-0.00104400,-0.00074748,0.022
 69333,-0.01709261,0.00210229,0.00031305,0.00634119,0.05311803,0.001182
 61,0.00116132,-0.00000148,-0.00082945,-0.00058606,-0.00052674,-0.00044
 550,-0.00022902,0.00018774,-0.00021696,-0.00026708,-0.00004290,0.00138
 987,-0.00135753,0.00118218,-0.00034043,0.00063597,-0.00016055,-0.00001
 491,-0.00010709,0.00004264,-0.00765200,-0.00088353,-0.00484600,-0.2079
 2288,-0.08078314,-0.10923649,0.00004155,0.00000699,-0.00000538,0.00002
 441,-0.00014664,-0.00000178,0.00002675,-0.00002120,-0.00003703,-0.0000
 0257,0.00001593,-0.00001249,-0.00000387,0.00001852,0.00000640,0.000203
 38,0.00020059,0.00024143,0.00061828,-0.00005646,0.00011351,0.22222686,
 0.00147976,-0.00175770,0.00064843,0.00059720,0.00082333,0.00009990,-0.
 00014949,0.00042318,0.00011340,-0.00037164,0.00012131,-0.00017432,-0.0
 0279756,-0.00784479,0.00204815,-0.00162924,0.00116710,-0.00049443,0.00
 001265,-0.00015466,0.00008433,-0.02095742,-0.00840791,-0.01746174,-0.0
 7866160,-0.08378232,-0.05103900,0.00002962,-0.00008507,0.00006979,0.00
 005366,-0.00064277,0.00007978,0.00006288,-0.00004572,-0.00006027,-0.00
 000078,0.00002574,-0.00001664,0.00002613,0.00001644,-0.00004030,0.0000
 7634,0.00067847,0.00044367,0.00034608,0.00058764,-0.00077289,0.0884164
 8,0.09198253,-0.00030801,0.00062312,-0.00067532,-0.00059606,-0.0003298
 9,0.00028553,0.00017922,-0.00001986,0.00002673,0.00011827,-0.00008842,
 0.00009358,0.00177603,0.00399553,0.00026045,0.00051861,-0.00015923,0.0
 0051954,0.00002290,0.00011468,-0.00005906,0.00999835,0.00336341,0.0053
 2988,-0.11018817,-0.05332815,-0.11828363,-0.00002266,0.00001359,-0.000
 05309,-0.00002003,0.00022697,-0.00004655,-0.00003750,0.00002370,0.0000
 4305,0.00000447,-0.00000599,0.00000258,-0.00001585,0.00000300,0.000008
 61,-0.00015593,-0.00083611,-0.00001736,0.00004645,-0.00007332,0.000603
 68,0.11928693,0.05610237,0.12396696,-0.00053866,-0.00008560,0.00088274
 ,0.00024434,0.00018745,-0.00020355,-0.00012573,-0.00025868,-0.00028287
 ,0.00013167,0.00014272,-0.00003739,0.00076948,0.00130322,0.00043076,0.
 00021875,-0.00026101,0.00001612,-0.00002536,0.00001845,-0.00003043,-0.
 00443056,-0.00071654,0.00747716,-0.06678014,0.01081329,0.07335823,-0.0
 0000071,0.00008808,-0.00005330,-0.00001198,0.00007050,-0.00002151,-0.0
 0001827,0.00001568,-0.00000079,-0.00001783,-0.00000348,-0.00000605,-0.
 00002005,-0.00000416,0.00001243,0.00076940,-0.00154106,0.00074553,0.00
 014242,-0.00024487,-0.00070358,0.00778418,-0.00151536,-0.02339742,0.06
 746809,-0.00011240,-0.00018325,-0.00007661,-0.00030834,-0.00005211,0.0
 0006135,0.00006373,0.00010931,-0.00010601,-0.00005096,0.00000134,0.000
 03129,0.00076176,0.00234090,-0.00100014,0.00034613,-0.00000567,0.00010
 687,-0.00005340,0.00004976,-0.00004513,-0.00902664,0.00291993,0.032526
 87,0.01104396,-0.05113427,-0.03353440,0.00001172,0.00012485,-0.0000638
 8,-0.00001555,0.00010150,-0.00001235,0.00000690,0.00001006,-0.00001643
 ,0.00001975,-0.00002100,-0.00001941,0.00002705,-0.00000023,-0.00000475
 ,-0.00154713,-0.00527395,0.00190248,0.00016950,0.00116280,-0.00050953,
 0.00450056,-0.00203514,-0.01087526,-0.00915541,0.05389121,-0.00039011,
 0.00039165,-0.00061907,-0.00063028,-0.00019430,0.00034767,0.00016303,-
 0.00002472,0.00008715,0.00012429,-0.00001886,0.00009518,0.00064079,0.0
 0007717,0.00159551,-0.00005044,-0.00039385,0.00013113,-0.00000777,0.00
 005008,-0.00003018,0.00222985,-0.00308527,-0.01339411,0.07485638,-0.02
 927838,-0.29777755,-0.00002098,-0.00010331,-0.00000446,0.00002196,0.00
 002531,0.00003931,-0.00000961,0.00002710,0.00001592,-0.00000045,-0.000
 00478,0.00002260,0.00002056,0.00001575,-0.00000466,0.00001895,0.002519
 88,0.00044583,-0.00020908,0.00000612,0.00039955,0.00521769,-0.00074670
 ,-0.01243089,-0.08083176,0.03038001,0.32103678,-0.00054541,-0.00059239
 ,-0.00045855,-0.00244221,-0.00143584,-0.00171632,-0.00034141,-0.000117
 04,0.00013136,0.00007572,0.00008050,0.00009850,0.00092125,0.00109538,0
 .00017975,0.00014072,-0.00022952,0.00010241,-0.00001295,0.00002421,-0.
 00000592,0.00806095,-0.00824981,-0.00082102,-0.21223771,0.14070088,0.0
 1393391,-0.00003443,-0.00000923,-0.00004262,-0.00002536,0.00005824,-0.
 00003626,-0.00002153,0.00000678,0.00000681,-0.00000315,-0.00000549,-0.
 00000302,-0.00001924,-0.00000391,0.00001987,0.00035191,0.00046604,-0.0
 0046013,0.00050626,-0.00213506,0.00082677,-0.01606932,0.01498227,0.002
 79040,-0.00555905,0.00331875,-0.00114301,0.22725495,-0.00097425,-0.003
 25355,-0.00022163,0.00029858,0.00088427,0.00012682,0.00073411,0.000829
 62,-0.00020059,0.00009001,0.00049794,0.00004531,-0.00043440,0.00154542
 ,-0.00040893,-0.00012516,-0.00013709,0.00008647,0.00000203,0.00009078,
 0.00003038,0.02479046,-0.01917777,-0.00156408,0.13567964,-0.16040198,-
 0.00991550,0.00002545,0.00013860,-0.00012943,-0.00005047,-0.00004247,-
 0.00008222,-0.00003886,-0.00001720,-0.00000284,-0.00002644,-0.00002470
 ,-0.00002311,-0.00006487,0.00007339,0.00007076,-0.00051454,0.00120308,
 -0.00046815,-0.00206467,-0.00417624,0.00262638,-0.01051862,0.00893035,
 0.00124987,0.00114678,-0.00200604,0.00035709,-0.14795478,0.17504359,-0
 .00080008,-0.00055783,0.00117814,-0.00044191,-0.00012022,-0.00088205,0
 .00011472,-0.00012522,-0.00047237,0.00026590,0.00018425,-0.00005014,0.
 00088699,-0.00054475,0.00042062,-0.00000354,-0.00024845,-0.00007931,-0
 .00003488,0.00004915,-0.00002371,-0.01363147,0.00839140,-0.00064345,0.
 01517137,-0.01026246,-0.04795415,-0.00002062,0.00001852,0.00005486,0.0
 0001813,0.00000700,0.00003345,0.00001544,0.00002542,0.00002225,0.00001
 132,-0.00000524,0.00001477,0.00005820,-0.00000652,-0.00002321,-0.00067
 240,-0.00054673,0.00046630,0.00122774,0.00294677,-0.00004269,-0.011407
 67,0.01111648,0.00042533,0.02264569,-0.01874495,0.00004430,-0.01340292
 ,0.00842339,0.04751106\\0.00000184,-0.00000296,0.00000209,0.00001052,-
 0.00000142,-0.00000138,-0.00000006,0.00000359,0.00000121,-0.00000202,0
 .00000687,-0.00000364,0.00000031,0.00001906,-0.00002160,-0.00000433,-0
 .00001473,0.00000642,-0.00000465,0.00000509,-0.00000167,-0.00000717,-0
 .00000241,0.00001202,0.00000078,-0.00000924,0.00000388,-0.00000042,0.0
 0000017,-0.00000075,-0.00000011,0.00000098,-0.00000125,-0.00000064,-0.
 00000149,0.00000052,-0.00000031,-0.00000108,0.00000138,-0.00000017,-0.
 00000528,0.00000385,-0.00000213,-0.00000086,-0.00000147,0.00000097,0.0
 0000120,-0.00000212,0.00000077,0.00000128,0.00000102,0.00000362,-0.000
 00214,0.00000190,0.00000320,0.00000335,-0.00000044\\\@
 The archive entry for this job was punched.


 IT WAS AN ACT OF DESPARATION. FOR SIX YEARS I HAD STRUGGLED WITH THE
 BLACKBODY THEORY. I KNEW THE PROBLEM WAS FUNDAMENTAL, AND I KNEW
 THE ANSWER. I HAD TO FIND A THEORETICAL EXPLANATION AT ANY COST,
 EXCEPT FOR THE INVIOLABLITY OF THE TWO LAWS OF THERMODYNAMICS.
   -- MAX PLANCK, 1931
 Job cpu time:       0 days  1 hours  4 minutes 44.8 seconds.
 Elapsed time:       0 days  0 hours  3 minutes 19.1 seconds.
 File lengths (MBytes):  RWF=   1440 Int=      0 D2E=      0 Chk=     32 Scr=     32
 Normal termination of Gaussian 16 at Sun May 24 17:30:55 2026.
