 Entering Gaussian System, Link 0=g16
 Initial command:
 /inspire/hdd/project/materialscienceresearch/lipenghui-253107030018/software/g16/l1.exe "/inspire/hdd/project/materialscienceresearch/lipenghui-253107030018/g16/tmp/Gau-382558.inp" -scrdir="/inspire/hdd/project/materialscienceresearch/lipenghui-253107030018/g16/tmp/"
 Entering Link 1 = /inspire/hdd/project/materialscienceresearch/lipenghui-253107030018/software/g16/l1.exe PID=    382560.
  
 Copyright (c) 1988-2019, Gaussian, Inc.  All Rights Reserved.
  
 This is part of the Gaussian(R) 16 program.  It is based on
 the Gaussian(R) 09 system (copyright 2009, Gaussian, Inc.),
 the Gaussian(R) 03 system (copyright 2003, Gaussian, Inc.),
 the Gaussian(R) 98 system (copyright 1998, Gaussian, Inc.),
 the Gaussian(R) 94 system (copyright 1995, Gaussian, Inc.),
 the Gaussian 92(TM) system (copyright 1992, Gaussian, Inc.),
 the Gaussian 90(TM) system (copyright 1990, Gaussian, Inc.),
 the Gaussian 88(TM) system (copyright 1988, Gaussian, Inc.),
 the Gaussian 86(TM) system (copyright 1986, Carnegie Mellon
 University), and the Gaussian 82(TM) system (copyright 1983,
 Carnegie Mellon University). Gaussian is a federally registered
 trademark of Gaussian, Inc.
  
 This software contains proprietary and confidential information,
 including trade secrets, belonging to Gaussian, Inc.
  
 This software is provided under written license and may be
 used, copied, transmitted, or stored only in accord with that
 written license.
  
 The following legend is applicable only to US Government
 contracts under FAR:
  
                    RESTRICTED RIGHTS LEGEND
  
 Use, reproduction and disclosure by the US Government is
 subject to restrictions as set forth in subparagraphs (a)
 and (c) of the Commercial Computer Software - Restricted
 Rights clause in FAR 52.227-19.
  
 Gaussian, Inc.
 340 Quinnipiac St., Bldg. 40, Wallingford CT 06492
  
  
 ---------------------------------------------------------------
 Warning -- This program may not be used in any manner that
 competes with the business of Gaussian, Inc. or will provide
 assistance to any competitor of Gaussian, Inc.  The licensee
 of this program is prohibited from giving any competitor of
 Gaussian, Inc. access to this program.  By using this program,
 the user acknowledges that Gaussian, Inc. is engaged in the
 business of creating and licensing software in the field of
 computational chemistry and represents and warrants to the
 licensee that it is not a competitor of Gaussian, Inc. and that
 it will not use this program in any manner prohibited above.
 ---------------------------------------------------------------
  

 Cite this work as:
 Gaussian 16, Revision C.01,
 M. J. Frisch, G. W. Trucks, H. B. Schlegel, G. E. Scuseria, 
 M. A. Robb, J. R. Cheeseman, G. Scalmani, V. Barone, 
 G. A. Petersson, H. Nakatsuji, X. Li, M. Caricato, A. V. Marenich, 
 J. Bloino, B. G. Janesko, R. Gomperts, B. Mennucci, H. P. Hratchian, 
 J. V. Ortiz, A. F. Izmaylov, J. L. Sonnenberg, D. Williams-Young, 
 F. Ding, F. Lipparini, F. Egidi, J. Goings, B. Peng, A. Petrone, 
 T. Henderson, D. Ranasinghe, V. G. Zakrzewski, J. Gao, N. Rega, 
 G. Zheng, W. Liang, M. Hada, M. Ehara, K. Toyota, R. Fukuda, 
 J. Hasegawa, M. Ishida, T. Nakajima, Y. Honda, O. Kitao, H. Nakai, 
 T. Vreven, K. Throssell, J. A. Montgomery, Jr., J. E. Peralta, 
 F. Ogliaro, M. J. Bearpark, J. J. Heyd, E. N. Brothers, K. N. Kudin, 
 V. N. Staroverov, T. A. Keith, R. Kobayashi, J. Normand, 
 K. Raghavachari, A. P. Rendell, J. C. Burant, S. S. Iyengar, 
 J. Tomasi, M. Cossi, J. M. Millam, M. Klene, C. Adamo, R. Cammi, 
 J. W. Ochterski, R. L. Martin, K. Morokuma, O. Farkas, 
 J. B. Foresman, and D. J. Fox, Gaussian, Inc., Wallingford CT, 2019.
 
 ******************************************
 Gaussian 16:  ES64L-G16RevC.01  3-Jul-2019
                24-May-2026 
 ******************************************
 %nprocshared=20
 Will use up to   20 processors via shared memory.
 %mem=72GB
 %chk=/inspire/hdd/project/materialscienceresearch/lipenghui-253107030018/g16/00-
 B-DFT-Shift/04-output/BF3OEt2_DMSO-d6/BF3OEt2_DMSO-d6.chk
 ----------------------------------------------------------------------
 # nmr=giao wb97xd/aug-cc-pvdz opt freq integral=(acc2e=12,grid=ultrafi
 ne) scrf=(cpcm,solvent=dmso)
 ----------------------------------------------------------------------
 1/18=20,19=15,26=6,38=1/1,3;
 2/9=110,12=2,17=6,18=5,40=1/2;
 3/5=16,7=10,11=2,25=1,27=12,30=1,70=2101,71=1,72=21,74=-58,75=-5/1,2,3;
 4//1;
 5/5=2,38=5,53=21,87=12/2;
 6/7=2,8=2,9=2,10=2,28=1,87=12/1;
 7/87=12/1,2,3,16;
 1/18=20,19=15,26=6/3(2);
 2/9=110/2;
 99//99;
 2/9=110/2;
 3/5=16,7=10,11=2,25=1,27=12,30=1,70=2105,71=1,72=21,74=-58,75=-5/1,2,3;
 4/5=5,16=3,69=1/1;
 5/5=2,38=5,53=21,87=12/2;
 7/87=12/1,2,3,16;
 1/18=20,19=15,26=6/3(-5);
 2/9=110/2;
 6/7=2,8=2,9=2,10=2,19=2,28=1,87=12/1;
 99/9=1/99;
 ------------------------------------------------
 BF3OEt2_DMSO-d6 | solvent model: DMSO-d6 as DMSO
 ------------------------------------------------
 Symbolic Z-matrix:
 Charge =  0 Multiplicity = 1
 B                    -1.66858   0.65829  -0.06802 
 F                    -1.7366    1.9078   -0.96747 
 F                    -1.88813   1.08044   1.39747 
 F                    -2.88846  -0.18822  -0.48146 
 O                    -0.3892   -0.03478  -0.25232 
 C                    -0.46788  -1.42858   0.04401 
 C                     0.74837  -2.25754  -0.4052 
 C                     0.70127   0.58399   0.42796 
 C                     0.91694   2.0707    0.10017 
 H                    -0.65787  -1.59574   1.13135 
 H                    -1.33239  -1.88114  -0.50048 
 H                     0.51279  -3.34717  -0.40293 
 H                     1.05982  -1.98375  -1.43937 
 H                     1.62093  -2.12975   0.27396 
 H                     0.60793   0.46168   1.53361 
 H                     1.65837   0.08909   0.13394 
 H                     1.88627   2.43335   0.5146 
 H                     0.94291   2.23982  -1.00078 
 H                     0.12706   2.71749   0.54337 
 

 GradGradGradGradGradGradGradGradGradGradGradGradGradGradGradGradGradGrad
 Berny optimization.
 Initialization pass.
                           ----------------------------
                           !    Initial Parameters    !
                           ! (Angstroms and Degrees)  !
 --------------------------                            --------------------------
 ! Name  Definition              Value          Derivative Info.                !
 --------------------------------------------------------------------------------
 ! R1    R(1,2)                  1.5411         estimate D2E/DX2                !
 ! R2    R(1,3)                  1.5408         estimate D2E/DX2                !
 ! R3    R(1,4)                  1.5413         estimate D2E/DX2                !
 ! R4    R(1,5)                  1.4667         estimate D2E/DX2                !
 ! R5    R(5,6)                  1.4271         estimate D2E/DX2                !
 ! R6    R(5,8)                  1.4265         estimate D2E/DX2                !
 ! R7    R(6,7)                  1.5389         estimate D2E/DX2                !
 ! R8    R(6,10)                 1.1164         estimate D2E/DX2                !
 ! R9    R(6,11)                 1.1174         estimate D2E/DX2                !
 ! R10   R(7,12)                 1.1148         estimate D2E/DX2                !
 ! R11   R(7,13)                 1.1142         estimate D2E/DX2                !
 ! R12   R(7,14)                 1.1131         estimate D2E/DX2                !
 ! R13   R(8,9)                  1.5376         estimate D2E/DX2                !
 ! R14   R(8,15)                 1.1163         estimate D2E/DX2                !
 ! R15   R(8,16)                 1.1169         estimate D2E/DX2                !
 ! R16   R(9,17)                 1.1148         estimate D2E/DX2                !
 ! R17   R(9,18)                 1.1142         estimate D2E/DX2                !
 ! R18   R(9,19)                 1.113          estimate D2E/DX2                !
 ! A1    A(2,1,3)              109.0681         estimate D2E/DX2                !
 ! A2    A(2,1,4)              104.7032         estimate D2E/DX2                !
 ! A3    A(2,1,5)              110.3836         estimate D2E/DX2                !
 ! A4    A(3,1,4)              107.0273         estimate D2E/DX2                !
 ! A5    A(3,1,5)              111.9184         estimate D2E/DX2                !
 ! A6    A(4,1,5)              113.4001         estimate D2E/DX2                !
 ! A7    A(1,5,6)              112.7884         estimate D2E/DX2                !
 ! A8    A(1,5,8)              113.6987         estimate D2E/DX2                !
 ! A9    A(6,5,8)              111.5166         estimate D2E/DX2                !
 ! A10   A(5,6,7)              114.9554         estimate D2E/DX2                !
 ! A11   A(5,6,10)             110.9687         estimate D2E/DX2                !
 ! A12   A(5,6,11)             109.6955         estimate D2E/DX2                !
 ! A13   A(7,6,10)             109.7641         estimate D2E/DX2                !
 ! A14   A(7,6,11)             104.5398         estimate D2E/DX2                !
 ! A15   A(10,6,11)            106.3956         estimate D2E/DX2                !
 ! A16   A(6,7,12)             111.033          estimate D2E/DX2                !
 ! A17   A(6,7,13)             111.0681         estimate D2E/DX2                !
 ! A18   A(6,7,14)             112.3092         estimate D2E/DX2                !
 ! A19   A(12,7,13)            107.5262         estimate D2E/DX2                !
 ! A20   A(12,7,14)            106.059          estimate D2E/DX2                !
 ! A21   A(13,7,14)            108.6016         estimate D2E/DX2                !
 ! A22   A(5,8,9)              115.1494         estimate D2E/DX2                !
 ! A23   A(5,8,15)             111.1554         estimate D2E/DX2                !
 ! A24   A(5,8,16)             109.7153         estimate D2E/DX2                !
 ! A25   A(9,8,15)             109.1965         estimate D2E/DX2                !
 ! A26   A(9,8,16)             104.6032         estimate D2E/DX2                !
 ! A27   A(15,8,16)            106.4897         estimate D2E/DX2                !
 ! A28   A(8,9,17)             110.9302         estimate D2E/DX2                !
 ! A29   A(8,9,18)             111.1421         estimate D2E/DX2                !
 ! A30   A(8,9,19)             112.1772         estimate D2E/DX2                !
 ! A31   A(17,9,18)            107.3192         estimate D2E/DX2                !
 ! A32   A(17,9,19)            106.2605         estimate D2E/DX2                !
 ! A33   A(18,9,19)            108.7726         estimate D2E/DX2                !
 ! D1    D(2,1,5,6)           -153.845          estimate D2E/DX2                !
 ! D2    D(2,1,5,8)             77.9211         estimate D2E/DX2                !
 ! D3    D(3,1,5,6)             84.4748         estimate D2E/DX2                !
 ! D4    D(3,1,5,8)            -43.7591         estimate D2E/DX2                !
 ! D5    D(4,1,5,6)            -36.727          estimate D2E/DX2                !
 ! D6    D(4,1,5,8)           -164.9609         estimate D2E/DX2                !
 ! D7    D(1,5,6,7)            167.8746         estimate D2E/DX2                !
 ! D8    D(1,5,6,10)           -66.8319         estimate D2E/DX2                !
 ! D9    D(1,5,6,11)            50.4426         estimate D2E/DX2                !
 ! D10   D(8,5,6,7)            -62.7613         estimate D2E/DX2                !
 ! D11   D(8,5,6,10)            62.5323         estimate D2E/DX2                !
 ! D12   D(8,5,6,11)           179.8068         estimate D2E/DX2                !
 ! D13   D(1,5,8,9)            -54.7332         estimate D2E/DX2                !
 ! D14   D(1,5,8,15)            70.0989         estimate D2E/DX2                !
 ! D15   D(1,5,8,16)          -172.386          estimate D2E/DX2                !
 ! D16   D(6,5,8,9)            176.3833         estimate D2E/DX2                !
 ! D17   D(6,5,8,15)           -58.7846         estimate D2E/DX2                !
 ! D18   D(6,5,8,16)            58.7305         estimate D2E/DX2                !
 ! D19   D(5,6,7,12)          -164.4459         estimate D2E/DX2                !
 ! D20   D(5,6,7,13)           -44.8499         estimate D2E/DX2                !
 ! D21   D(5,6,7,14)            76.9909         estimate D2E/DX2                !
 ! D22   D(10,6,7,12)           69.6361         estimate D2E/DX2                !
 ! D23   D(10,6,7,13)         -170.7679         estimate D2E/DX2                !
 ! D24   D(10,6,7,14)          -48.9272         estimate D2E/DX2                !
 ! D25   D(11,6,7,12)          -44.133          estimate D2E/DX2                !
 ! D26   D(11,6,7,13)           75.463          estimate D2E/DX2                !
 ! D27   D(11,6,7,14)         -162.6963         estimate D2E/DX2                !
 ! D28   D(5,8,9,17)          -169.4774         estimate D2E/DX2                !
 ! D29   D(5,8,9,18)           -50.1609         estimate D2E/DX2                !
 ! D30   D(5,8,9,19)            71.8607         estimate D2E/DX2                !
 ! D31   D(15,8,9,17)           64.6753         estimate D2E/DX2                !
 ! D32   D(15,8,9,18)         -176.0082         estimate D2E/DX2                !
 ! D33   D(15,8,9,19)          -53.9867         estimate D2E/DX2                !
 ! D34   D(16,8,9,17)          -48.9842         estimate D2E/DX2                !
 ! D35   D(16,8,9,18)           70.3323         estimate D2E/DX2                !
 ! D36   D(16,8,9,19)         -167.6462         estimate D2E/DX2                !
 --------------------------------------------------------------------------------
 Trust Radius=3.00D-01 FncErr=5.00D-06 GrdErr=5.00D-06 EigMax=2.50D+02 EigMin=1.00D-04
 Number of steps in this run=     97 maximum allowed number of steps=    114.
 GradGradGradGradGradGradGradGradGradGradGradGradGradGradGradGradGradGrad

                          Input orientation:                          
 ---------------------------------------------------------------------
 Center     Atomic      Atomic             Coordinates (Angstroms)
 Number     Number       Type             X           Y           Z
 ---------------------------------------------------------------------
      1          5           0       -1.668578    0.658294   -0.068017
      2          9           0       -1.736601    1.907804   -0.967472
      3          9           0       -1.888130    1.080442    1.397468
      4          9           0       -2.888462   -0.188219   -0.481460
      5          8           0       -0.389196   -0.034782   -0.252324
      6          6           0       -0.467876   -1.428577    0.044008
      7          6           0        0.748365   -2.257544   -0.405198
      8          6           0        0.701272    0.583985    0.427955
      9          6           0        0.916943    2.070699    0.100171
     10          1           0       -0.657873   -1.595740    1.131351
     11          1           0       -1.332394   -1.881140   -0.500475
     12          1           0        0.512791   -3.347170   -0.402925
     13          1           0        1.059816   -1.983745   -1.439370
     14          1           0        1.620931   -2.129751    0.273956
     15          1           0        0.607926    0.461676    1.533613
     16          1           0        1.658368    0.089091    0.133942
     17          1           0        1.886270    2.433346    0.514603
     18          1           0        0.942905    2.239820   -1.000776
     19          1           0        0.127062    2.717492    0.543365
 ---------------------------------------------------------------------
                    Distance matrix (angstroms):
                    1          2          3          4          5
     1  B    0.000000
     2  F    1.541078   0.000000
     3  F    1.540798   2.510066   0.000000
     4  F    1.541310   2.440554   2.478010   0.000000
     5  O    1.466677   2.469935   2.492457   2.514434   0.000000
     6  C    2.410242   3.710013   3.184988   2.770170   1.427119
     7  C    3.802291   4.882759   4.619833   4.185025   2.501617
     8  C    2.422333   3.105308   2.809169   3.782793   1.426455
     9  C    2.950948   2.864907   3.245308   4.463419   2.502659
    10  H    2.746029   4.224161   2.957415   3.091570   2.103172
    11  H    2.597838   3.838954   3.561179   2.299498   2.088119
    12  H    4.573213   5.743973   5.348793   4.642592   3.436303
    13  H    4.037959   4.815266   5.111485   4.441892   2.703178
    14  H    4.325622   5.395926   4.886832   4.967376   2.950674
    15  H    2.790403   3.720688   2.575209   4.087495   2.104826
    16  H    3.381324   4.005826   3.893189   4.596660   2.087358
    17  H    4.015869   3.949422   4.105593   5.537401   3.443483
    18  H    3.192351   2.700203   3.887221   4.565571   2.740162
    19  H    2.799716   2.532087   2.733208   4.311242   2.911126
                    6          7          8          9         10
     6  C    0.000000
     7  C    1.538900   0.000000
     8  C    2.358968   2.961528   0.000000
     9  C    3.763750   4.360906   1.537620   0.000000
    10  H    1.116404   2.185514   2.663314   4.121426   0.000000
    11  H    1.117437   2.116676   3.327855   4.586646   1.788655
    12  H    2.200558   1.114803   4.022420   5.456166   2.606140
    13  H    2.200560   1.114217   3.195105   4.339253   3.116025
    14  H    2.215318   1.113082   2.869469   4.262579   2.492637
    15  H    2.636158   3.342584   1.116312   2.176971   2.448882
    16  H    2.613870   2.573999   1.116869   2.116039   3.032895
    17  H    4.547297   4.913788   2.198150   1.114837   4.804849
    18  H    4.066819   4.540797   2.200329   1.114163   4.671186
    19  H    4.218198   5.102624   2.212440   1.112957   4.423327
                   11         12         13         14         15
    11  H    0.000000
    12  H    2.358700   0.000000
    13  H    2.571910   1.797883   0.000000
    14  H    3.063279   1.779958   1.808771   0.000000
    15  H    3.659391   4.273937   3.875941   3.054244   0.000000
    16  H    3.637163   3.661757   2.670248   2.223570   1.789225
    17  H    5.477679   6.011877   4.900176   4.577136   2.561255
    18  H    4.733878   5.635324   4.247886   4.601936   3.114022
    19  H    4.936297   6.150153   5.186800   5.079369   2.510085
                   16         17         18         19
    16  H    0.000000
    17  H    2.385870   0.000000
    18  H    2.534780   1.795484   0.000000
    19  H    3.069368   1.782240   1.810564   0.000000
 Stoichiometry    C4H10BF3O
 Framework group  C1[X(C4H10BF3O)]
 Deg. of freedom    51
 Full point group                 C1      NOp   1
 Largest Abelian subgroup         C1      NOp   1
 Largest concise Abelian subgroup C1      NOp   1
                         Standard orientation:                         
 ---------------------------------------------------------------------
 Center     Atomic      Atomic             Coordinates (Angstroms)
 Number     Number       Type             X           Y           Z
 ---------------------------------------------------------------------
      1          5           0       -0.876547   -0.566638   -0.025366
      2          9           0       -1.904806   -0.016820   -1.032990
      3          9           0       -1.405118   -0.344947    1.404853
      4          9           0       -0.863288   -2.088216   -0.270846
      5          8           0        0.429692    0.067932   -0.230796
      6          6           0        1.515920   -0.750378    0.201807
      7          6           0        2.907813   -0.273618   -0.249354
      8          6           0        0.518835    1.384751    0.310329
      9          6           0       -0.564093    2.364063   -0.171842
     10          1           0        1.502103   -0.879264    1.310660
     11          1           0        1.414300   -1.773469   -0.235941
     12          1           0        3.666489   -1.081209   -0.126912
     13          1           0        2.901514    0.020716   -1.323974
     14          1           0        3.275052    0.587669    0.352537
     15          1           0        0.522743    1.362271    1.426408
     16          1           0        1.482760    1.855429   -0.000649
     17          1           0       -0.323820    3.407651    0.138085
     18          1           0       -0.645056    2.358385   -1.283045
     19          1           0       -1.562840    2.132486    0.261230
 ---------------------------------------------------------------------
 Rotational constants (GHZ):           1.7576319           1.3302101           0.9590643
 Standard basis: Aug-CC-pVDZ (5D, 7F)
 There are   315 symmetry adapted cartesian basis functions of A   symmetry.
 There are   297 symmetry adapted basis functions of A   symmetry.
   297 basis functions,   497 primitive gaussians,   315 cartesian basis functions
    37 alpha electrons       37 beta electrons
       nuclear repulsion energy       514.0244593470 Hartrees.
 NAtoms=   19 NActive=   19 NUniq=   19 SFac= 1.00D+00 NAtFMM=   60 NAOKFM=F Big=F
 Integral buffers will be    131072 words long.
 Raffenetti 2 integral format.
 Two-electron integral symmetry is turned on.
 Nuclear repulsion after empirical dispersion term =      514.0122201598 Hartrees.
 Force PCM accuracy= 1.00D-12.
 ------------------------------------------------------------------------------
 Polarizable Continuum Model (PCM)
 =================================
 Model                : C-PCM.
 Atomic radii         : UFF (Universal Force Field).
 Polarization charges : Total charges.
 Charge compensation  : None.
 Solution method      : On-the-fly selection.
 Cavity type          : Scaled VdW (van der Waals Surface) (Alpha=1.100).
 Cavity algorithm     : GePol (No added spheres)
                        Default sphere list used, NSphG=   19.
                        Lebedev-Laikov grids with approx.  5.0 points / Ang**2.
                        Smoothing algorithm: York/Karplus (Gamma=1.0000).
                        Polarization charges: spherical gaussians, with
                                              point-specific exponents (IZeta= 3).
                        Self-potential: point-specific (ISelfS= 7).
                        Self-field    : sphere-specific E.n sum rule (ISelfD= 2).
 1st derivatives      : Analytical E(r).r(x)/FMM algorithm (CHGder, D1EAlg=3).
                        Cavity 1st derivative terms included.
 Solvent              : DiMethylSulfoxide, Eps=  46.826000 Eps(inf)=   2.007889
 ------------------------------------------------------------------------------
 Spheres list:
 ISph  on   Nord     Re0    Alpha      Xe            Ye            Ze
    1   B      1    2.0415  1.100     -0.876547     -0.566638     -0.025366
    2   F      2    1.6820  1.100     -1.904806     -0.016820     -1.032990
    3   F      3    1.6820  1.100     -1.405118     -0.344947      1.404853
    4   F      4    1.6820  1.100     -0.863288     -2.088216     -0.270846
    5   O      5    1.7500  1.100      0.429692      0.067932     -0.230796
    6   C      6    1.9255  1.100      1.515920     -0.750378      0.201807
    7   C      7    1.9255  1.100      2.907813     -0.273618     -0.249354
    8   C      8    1.9255  1.100      0.518835      1.384751      0.310329
    9   C      9    1.9255  1.100     -0.564093      2.364063     -0.171842
   10   H     10    1.4430  1.100      1.502103     -0.879264      1.310660
   11   H     11    1.4430  1.100      1.414300     -1.773469     -0.235941
   12   H     12    1.4430  1.100      3.666489     -1.081209     -0.126912
   13   H     13    1.4430  1.100      2.901514      0.020716     -1.323974
   14   H     14    1.4430  1.100      3.275052      0.587669      0.352537
   15   H     15    1.4430  1.100      0.522743      1.362271      1.426408
   16   H     16    1.4430  1.100      1.482760      1.855429     -0.000649
   17   H     17    1.4430  1.100     -0.323820      3.407651      0.138085
   18   H     18    1.4430  1.100     -0.645056      2.358385     -1.283045
   19   H     19    1.4430  1.100     -1.562840      2.132486      0.261230
 ------------------------------------------------------------------------------
 One-electron integrals computed using PRISM.
 NBasis=   297 RedAO= T EigKep=  3.04D-05  NBF=   297
 NBsUse=   297 1.00D-06 EigRej= -1.00D+00 NBFU=   297
 ExpMin= 2.38D-02 ExpMax= 1.47D+04 ExpMxC= 5.03D+02 IAcc=3 IRadAn=         5 AccDes= 0.00D+00
 Harris functional with IExCor= 4639 and IRadAn=       5 diagonalized for initial guess.
 HarFok:  IExCor= 4639 AccDes= 0.00D+00 IRadAn=         5 IDoV= 1 UseB2=F ITyADJ=14
 ICtDFT=  3500011 ScaDFX=  1.000000  1.000000  1.000000  1.000000
 FoFCou: FMM=F IPFlag=           0 FMFlag=      100000 FMFlg1=           0
         NFxFlg=           0 DoJE=T BraDBF=F KetDBF=T FulRan=T
         wScrn=  0.000000 ICntrl=       500 IOpCl=  0 I1Cent=   200000004 NGrid=           0
         NMat0=    1 NMatS0=      1 NMatT0=    0 NMatD0=    1 NMtDS0=    0 NMtDT0=    0
 Petite list used in FoFCou.
 Requested convergence on RMS density matrix=1.00D-08 within 128 cycles.
 Requested convergence on MAX density matrix=1.00D-06.
 Requested convergence on             energy=1.00D-06.
 No special actions if energy rises.
 Inv3:  Mode=1 IEnd=     6976875.
 Iteration    1 A*A^-1 deviation from unit magnitude is 3.11D-15 for   1508.
 Iteration    1 A*A^-1 deviation from orthogonality  is 3.27D-15 for   1508    972.
 Iteration    1 A^-1*A deviation from unit magnitude is 3.11D-15 for   1508.
 Iteration    1 A^-1*A deviation from orthogonality  is 1.51D-15 for   1515   1182.
 Error on total polarization charges =  0.01128
 SCF Done:  E(RwB97XD) =  -558.100133278     A.U. after   12 cycles
            NFock= 12  Conv=0.76D-08     -V/T= 2.0075

 **********************************************************************

            Population analysis using the SCF Density.

 **********************************************************************

 Orbital symmetries:
       Occupied  (A) (A) (A) (A) (A) (A) (A) (A) (A) (A) (A) (A)
                 (A) (A) (A) (A) (A) (A) (A) (A) (A) (A) (A) (A)
                 (A) (A) (A) (A) (A) (A) (A) (A) (A) (A) (A) (A)
                 (A)
       Virtual   (A) (A) (A) (A) (A) (A) (A) (A) (A) (A) (A) (A)
                 (A) (A) (A) (A) (A) (A) (A) (A) (A) (A) (A) (A)
                 (A) (A) (A) (A) (A) (A) (A) (A) (A) (A) (A) (A)
                 (A) (A) (A) (A) (A) (A) (A) (A) (A) (A) (A) (A)
                 (A) (A) (A) (A) (A) (A) (A) (A) (A) (A) (A) (A)
                 (A) (A) (A) (A) (A) (A) (A) (A) (A) (A) (A) (A)
                 (A) (A) (A) (A) (A) (A) (A) (A) (A) (A) (A) (A)
                 (A) (A) (A) (A) (A) (A) (A) (A) (A) (A) (A) (A)
                 (A) (A) (A) (A) (A) (A) (A) (A) (A) (A) (A) (A)
                 (A) (A) (A) (A) (A) (A) (A) (A) (A) (A) (A) (A)
                 (A) (A) (A) (A) (A) (A) (A) (A) (A) (A) (A) (A)
                 (A) (A) (A) (A) (A) (A) (A) (A) (A) (A) (A) (A)
                 (A) (A) (A) (A) (A) (A) (A) (A) (A) (A) (A) (A)
                 (A) (A) (A) (A) (A) (A) (A) (A) (A) (A) (A) (A)
                 (A) (A) (A) (A) (A) (A) (A) (A) (A) (A) (A) (A)
                 (A) (A) (A) (A) (A) (A) (A) (A) (A) (A) (A) (A)
                 (A) (A) (A) (A) (A) (A) (A) (A) (A) (A) (A) (A)
                 (A) (A) (A) (A) (A) (A) (A) (A) (A) (A) (A) (A)
                 (A) (A) (A) (A) (A) (A) (A) (A) (A) (A) (A) (A)
                 (A) (A) (A) (A) (A) (A) (A) (A) (A) (A) (A) (A)
                 (A) (A) (A) (A) (A) (A) (A) (A) (A) (A) (A) (A)
                 (A) (A) (A) (A) (A) (A) (A) (A)
 The electronic state is 1-A.
 Alpha  occ. eigenvalues --  -24.81069 -24.80866 -24.80381 -19.42226 -10.39258
 Alpha  occ. eigenvalues --  -10.39256 -10.31650 -10.31206  -7.04712  -1.30003
 Alpha  occ. eigenvalues --   -1.26306  -1.24658  -1.24194  -0.91770  -0.87720
 Alpha  occ. eigenvalues --   -0.78437  -0.76526  -0.69631  -0.64616  -0.63225
 Alpha  occ. eigenvalues --   -0.61640  -0.56612  -0.56481  -0.54993  -0.51340
 Alpha  occ. eigenvalues --   -0.50966  -0.50379  -0.49440  -0.49214  -0.48551
 Alpha  occ. eigenvalues --   -0.47489  -0.47066  -0.46238  -0.46073  -0.45600
 Alpha  occ. eigenvalues --   -0.43952  -0.43542
 Alpha virt. eigenvalues --    0.03697   0.04720   0.04857   0.05090   0.06692
 Alpha virt. eigenvalues --    0.06760   0.07068   0.07428   0.07581   0.09249
 Alpha virt. eigenvalues --    0.09282   0.09714   0.11078   0.11186   0.13700
 Alpha virt. eigenvalues --    0.13879   0.14292   0.14701   0.14749   0.15381
 Alpha virt. eigenvalues --    0.15752   0.16840   0.17629   0.17739   0.18232
 Alpha virt. eigenvalues --    0.18296   0.18697   0.19291   0.20119   0.20995
 Alpha virt. eigenvalues --    0.21852   0.22276   0.22672   0.22981   0.24234
 Alpha virt. eigenvalues --    0.24670   0.25213   0.25668   0.26750   0.27002
 Alpha virt. eigenvalues --    0.27817   0.28082   0.28732   0.29523   0.29672
 Alpha virt. eigenvalues --    0.31350   0.32068   0.32329   0.33098   0.33317
 Alpha virt. eigenvalues --    0.34422   0.35284   0.36044   0.36506   0.37240
 Alpha virt. eigenvalues --    0.38316   0.38426   0.39460   0.39944   0.40715
 Alpha virt. eigenvalues --    0.41103   0.41929   0.42341   0.42528   0.43222
 Alpha virt. eigenvalues --    0.43709   0.44649   0.45118   0.46064   0.46647
 Alpha virt. eigenvalues --    0.46862   0.48015   0.48908   0.50687   0.51624
 Alpha virt. eigenvalues --    0.52023   0.53233   0.53264   0.53998   0.54799
 Alpha virt. eigenvalues --    0.55879   0.56503   0.57284   0.57932   0.58433
 Alpha virt. eigenvalues --    0.59121   0.60121   0.60601   0.60922   0.62064
 Alpha virt. eigenvalues --    0.63625   0.63895   0.64473   0.65942   0.66471
 Alpha virt. eigenvalues --    0.67269   0.68049   0.69799   0.70192   0.70608
 Alpha virt. eigenvalues --    0.71759   0.72195   0.73348   0.74334   0.75221
 Alpha virt. eigenvalues --    0.76007   0.76683   0.77541   0.78186   0.78737
 Alpha virt. eigenvalues --    0.79245   0.80884   0.81081   0.82367   0.83408
 Alpha virt. eigenvalues --    0.84109   0.86260   0.86603   0.88609   0.89245
 Alpha virt. eigenvalues --    0.92067   0.93983   0.95795   0.96474   0.97714
 Alpha virt. eigenvalues --    0.99171   1.01385   1.03862   1.05343   1.06214
 Alpha virt. eigenvalues --    1.07565   1.10033   1.11048   1.13304   1.14578
 Alpha virt. eigenvalues --    1.19908   1.20038   1.20976   1.23221   1.23999
 Alpha virt. eigenvalues --    1.30007   1.30986   1.32673   1.33358   1.34564
 Alpha virt. eigenvalues --    1.36748   1.38113   1.39028   1.40217   1.41802
 Alpha virt. eigenvalues --    1.43267   1.44637   1.45452   1.47684   1.48243
 Alpha virt. eigenvalues --    1.48869   1.49668   1.52219   1.54309   1.54990
 Alpha virt. eigenvalues --    1.56611   1.57574   1.59455   1.61325   1.62357
 Alpha virt. eigenvalues --    1.63622   1.65701   1.67025   1.67508   1.68163
 Alpha virt. eigenvalues --    1.69783   1.70469   1.72453   1.73673   1.75524
 Alpha virt. eigenvalues --    1.76300   1.78162   1.78779   1.80739   1.82930
 Alpha virt. eigenvalues --    1.84245   1.85468   1.87023   1.87528   1.90016
 Alpha virt. eigenvalues --    1.91792   1.92444   1.95507   1.95972   1.96674
 Alpha virt. eigenvalues --    1.97172   1.99405   2.01320   2.03140   2.04579
 Alpha virt. eigenvalues --    2.06951   2.07459   2.08669   2.10225   2.12086
 Alpha virt. eigenvalues --    2.13915   2.15470   2.17566   2.19626   2.21049
 Alpha virt. eigenvalues --    2.22018   2.23456   2.26731   2.27707   2.28349
 Alpha virt. eigenvalues --    2.31961   2.33386   2.35673   2.39426   2.42292
 Alpha virt. eigenvalues --    2.44746   2.46806   2.48514   2.52218   2.52762
 Alpha virt. eigenvalues --    2.56964   2.58431   2.59753   2.61278   2.66325
 Alpha virt. eigenvalues --    2.68410   2.71997   2.76202   2.79299   2.80435
 Alpha virt. eigenvalues --    2.84934   2.86868   2.88448   2.95393   2.98116
 Alpha virt. eigenvalues --    3.03104   3.08168   3.22782   3.29146   3.39029
 Alpha virt. eigenvalues --    3.58045   3.67409   3.68159   3.83393   3.92280
 Alpha virt. eigenvalues --    4.63900   4.64118   4.65502   4.66427   4.70296
 Alpha virt. eigenvalues --    4.72539   4.74154   4.75784   4.77788   4.78653
 Alpha virt. eigenvalues --    4.79768   4.82422   4.85969   4.91476   4.92047
          Condensed to atoms (all electrons):
               1          2          3          4          5          6
     1  B    3.471339   0.044697   0.089800   0.156687  -0.228175  -0.098239
     2  F    0.044697   9.657224  -0.108089  -0.100625   0.133842   0.058996
     3  F    0.089800  -0.108089   9.790296  -0.147945  -0.024183  -0.042791
     4  F    0.156687  -0.100625  -0.147945   9.870418  -0.155374  -0.060152
     5  O   -0.228175   0.133842  -0.024183  -0.155374   9.845446   0.048642
     6  C   -0.098239   0.058996  -0.042791  -0.060152   0.048642   5.142769
     7  C    0.034063   0.006402  -0.018150   0.010798  -0.171273   0.287100
     8  C   -0.001737  -0.114898   0.025128   0.023956  -0.026035  -0.132850
     9  C    0.004147   0.017717  -0.018153   0.009620  -0.106132  -0.100218
    10  H   -0.068925   0.003436   0.028152  -0.007974   0.105878  -0.165567
    11  H    0.036234  -0.001221   0.015760  -0.006946  -0.309994   0.183676
    12  H    0.002692   0.001867  -0.001556  -0.001663   0.091379   0.068176
    13  H   -0.004884  -0.000161   0.000085  -0.001868  -0.098812  -0.124658
    14  H    0.015459  -0.001701   0.001275   0.003470  -0.095387   0.007781
    15  H   -0.083378   0.003116   0.012382   0.005575   0.103449   0.071806
    16  H    0.086986   0.002573  -0.003177  -0.002944  -0.303000  -0.148669
    17  H    0.007613   0.004800   0.001246  -0.000026   0.071229   0.006102
    18  H   -0.014283   0.000582   0.001863   0.004692  -0.048713   0.001951
    19  H    0.044553  -0.018588   0.029111   0.005267  -0.087002  -0.035190
               7          8          9         10         11         12
     1  B    0.034063  -0.001737   0.004147  -0.068925   0.036234   0.002692
     2  F    0.006402  -0.114898   0.017717   0.003436  -0.001221   0.001867
     3  F   -0.018150   0.025128  -0.018153   0.028152   0.015760  -0.001556
     4  F    0.010798   0.023956   0.009620  -0.007974  -0.006946  -0.001663
     5  O   -0.171273  -0.026035  -0.106132   0.105878  -0.309994   0.091379
     6  C    0.287100  -0.132850  -0.100218  -0.165567   0.183676   0.068176
     7  C    4.721464  -0.031918   0.012633  -0.114910  -0.147980   0.316963
     8  C   -0.031918   4.966428   0.169592   0.040968   0.009496  -0.029253
     9  C    0.012633   0.169592   4.803021   0.048983  -0.027080   0.011696
    10  H   -0.114910   0.040968   0.048983   1.652853  -0.223218  -0.062614
    11  H   -0.147980   0.009496  -0.027080  -0.223218   1.946102  -0.158900
    12  H    0.316963  -0.029253   0.011696  -0.062614  -0.158900   1.492597
    13  H    0.362080   0.023364   0.000640   0.104957  -0.089230  -0.235890
    14  H    0.273282   0.032922  -0.018075  -0.129295   0.122806  -0.308272
    15  H   -0.023879   0.008993  -0.092745  -0.016323  -0.001583  -0.000873
    16  H    0.062349   0.108854  -0.158311   0.016547   0.022443  -0.010176
    17  H    0.004201   0.046589   0.267776   0.001213  -0.002253   0.001621
    18  H   -0.015110  -0.124150   0.389760  -0.000702  -0.000463  -0.000682
    19  H    0.009691   0.041099   0.283974   0.001176  -0.002272   0.000320
              13         14         15         16         17         18
     1  B   -0.004884   0.015459  -0.083378   0.086986   0.007613  -0.014283
     2  F   -0.000161  -0.001701   0.003116   0.002573   0.004800   0.000582
     3  F    0.000085   0.001275   0.012382  -0.003177   0.001246   0.001863
     4  F   -0.001868   0.003470   0.005575  -0.002944  -0.000026   0.004692
     5  O   -0.098812  -0.095387   0.103449  -0.303000   0.071229  -0.048713
     6  C   -0.124658   0.007781   0.071806  -0.148669   0.006102   0.001951
     7  C    0.362080   0.273282  -0.023879   0.062349   0.004201  -0.015110
     8  C    0.023364   0.032922   0.008993   0.108854   0.046589  -0.124150
     9  C    0.000640  -0.018075  -0.092745  -0.158311   0.267776   0.389760
    10  H    0.104957  -0.129295  -0.016323   0.016547   0.001213  -0.000702
    11  H   -0.089230   0.122806  -0.001583   0.022443  -0.002253  -0.000463
    12  H   -0.235890  -0.308272  -0.000873  -0.010176   0.001621  -0.000682
    13  H    1.390694  -0.228249  -0.002244  -0.001683  -0.002093   0.001841
    14  H   -0.228249   1.385604  -0.014358   0.013523  -0.002451  -0.000234
    15  H   -0.002244  -0.014358   1.543783  -0.304830  -0.069728   0.107938
    16  H   -0.001683   0.013523  -0.304830   2.188677  -0.095306  -0.121452
    17  H   -0.002093  -0.002451  -0.069728  -0.095306   1.439947  -0.228802
    18  H    0.001841  -0.000234   0.107938  -0.121452  -0.228802   1.387264
    19  H    0.000881   0.001948  -0.134939   0.102250  -0.278883  -0.243514
              19
     1  B    0.044553
     2  F   -0.018588
     3  F    0.029111
     4  F    0.005267
     5  O   -0.087002
     6  C   -0.035190
     7  C    0.009691
     8  C    0.041099
     9  C    0.283974
    10  H    0.001176
    11  H   -0.002272
    12  H    0.000320
    13  H    0.000881
    14  H    0.001948
    15  H   -0.134939
    16  H    0.102250
    17  H   -0.278883
    18  H   -0.243514
    19  H    1.382178
 Mulliken charges:
               1
     1  B    1.505351
     2  F   -0.589970
     3  F   -0.631053
     4  F   -0.604964
     5  O   -0.745784
     6  C    1.031336
     7  C    0.422196
     8  C    0.963454
     9  C    0.501156
    10  H   -0.214635
    11  H   -0.365378
    12  H   -0.177432
    13  H   -0.094769
    14  H   -0.060047
    15  H   -0.112162
    16  H   -0.454655
    17  H   -0.172794
    18  H   -0.097787
    19  H   -0.102060
 Sum of Mulliken charges =  -0.00000
 Mulliken charges with hydrogens summed into heavy atoms:
               1
     1  B    1.505351
     2  F   -0.589970
     3  F   -0.631053
     4  F   -0.604964
     5  O   -0.745784
     6  C    0.451323
     7  C    0.089947
     8  C    0.396636
     9  C    0.128514
 Electronic spatial extent (au):  <R**2>=           1311.1119
 Charge=             -0.0000 electrons
 Dipole moment (field-independent basis, Debye):
    X=              9.0863    Y=              4.4668    Z=              0.6347  Tot=             10.1448
 Quadrupole moment (field-independent basis, Debye-Ang):
   XX=            -53.7683   YY=            -51.7782   ZZ=            -56.9515
   XY=             -5.0893   XZ=              0.0288   YZ=              0.3631
 Traceless Quadrupole moment (field-independent basis, Debye-Ang):
   XX=              0.3977   YY=              2.3878   ZZ=             -2.7855
   XY=             -5.0893   XZ=              0.0288   YZ=              0.3631
 Octapole moment (field-independent basis, Debye-Ang**2):
  XXX=             21.0700  YYY=             16.5955  ZZZ=             -1.6596  XYY=              6.1604
  XXY=             -4.9130  XXZ=              2.4695  XZZ=              5.1921  YZZ=             -0.9940
  YYZ=              2.9453  XYZ=              0.0255
 Hexadecapole moment (field-independent basis, Debye-Ang**3):
 XXXX=           -770.4278 YYYY=           -568.2741 ZZZZ=           -190.4305 XXXY=             -8.7936
 XXXZ=             -7.4309 YYYX=             -7.6163 YYYZ=              1.9386 ZZZX=              4.9238
 ZZZY=              0.8098 XXYY=           -222.9884 XXZZ=           -177.2859 YYZZ=           -128.3477
 XXYZ=              1.5922 YYXZ=              0.6631 ZZXY=              1.1457
 N-N= 5.140122201598D+02 E-N=-2.343362373104D+03  KE= 5.539490678116D+02
 D1PCM: C-PCM CHGder 1st derivatives, ID1Alg=3 FixD1E=F DoIter=F DoCFld=F I1PDM=0.
 Calling FoFJK, ICntrl=      2127 FMM=F ISym2X=0 I1Cent= 0 IOpClX= 0 NMat=1 NMatS=1 NMatT=0.
 ***** Axes restored to original set *****
 -------------------------------------------------------------------
 Center     Atomic                   Forces (Hartrees/Bohr)
 Number     Number              X              Y              Z
 -------------------------------------------------------------------
      1        5          -0.095870736    0.054538184    0.001123143
      2        9           0.008093329   -0.054304219    0.038619816
      3        9           0.014882839   -0.020461328   -0.062012663
      4        9           0.058367442    0.029825106    0.017649459
      5        8          -0.008185936    0.004052391   -0.006454557
      6        6          -0.010547773   -0.075599277    0.003351336
      7        6           0.014499974    0.007947087   -0.000221925
      8        6           0.064090900    0.030393657    0.026479618
      9        6          -0.010719059    0.009754926   -0.005513105
     10        1           0.002888800    0.010187762   -0.010368001
     11        1           0.007847235    0.019632823    0.005968167
     12        1          -0.004453496    0.013946232    0.001386524
     13        1          -0.003869120   -0.002276901    0.009366179
     14        1          -0.007465309   -0.000300642   -0.007086288
     15        1          -0.007055162   -0.003194706   -0.013993841
     16        1          -0.020043451   -0.002504206   -0.001560306
     17        1          -0.008649357   -0.011950650   -0.002084697
     18        1          -0.000561710   -0.002426208    0.011236669
     19        1           0.006750590   -0.007260032   -0.005885528
 -------------------------------------------------------------------
 Cartesian Forces:  Max     0.095870736 RMS     0.026577173

 GradGradGradGradGradGradGradGradGradGradGradGradGradGradGradGradGradGrad
 Berny optimization.
 FormGI is forming the generalized inverse of G from B-inverse, IUseBI=4.
 Internal  Forces:  Max     0.067308481 RMS     0.014828742
 Search for a local minimum.
 Step number   1 out of a maximum of   97
 All quantities printed in internal units (Hartrees-Bohrs-Radians)
 Mixed Optimization -- RFO/linear search
 Second derivative matrix not updated -- first step.
 ITU=  0
     Eigenvalues ---    0.00251   0.00268   0.01333   0.01339   0.01342
     Eigenvalues ---    0.02840   0.03984   0.03993   0.05267   0.05280
     Eigenvalues ---    0.05449   0.05478   0.05624   0.05636   0.09809
     Eigenvalues ---    0.09828   0.10871   0.11337   0.13172   0.13184
     Eigenvalues ---    0.16000   0.16000   0.16000   0.16000   0.16000
     Eigenvalues ---    0.16000   0.18004   0.18380   0.21989   0.21998
     Eigenvalues ---    0.25000   0.25000   0.25000   0.28403   0.28424
     Eigenvalues ---    0.28448   0.28617   0.28731   0.31825   0.31883
     Eigenvalues ---    0.31931   0.31941   0.32093   0.32097   0.32158
     Eigenvalues ---    0.32163   0.32276   0.32289   0.36141   0.41406
     Eigenvalues ---    0.41503
 RFO step:  Lambda=-5.85631025D-02 EMin= 2.51369611D-03
 Linear search not attempted -- first point.
 Maximum step size (   0.300) exceeded in Quadratic search.
    -- Step size scaled by   0.721
 Iteration  1 RMS(Cart)=  0.03449227 RMS(Int)=  0.00079373
 Iteration  2 RMS(Cart)=  0.00080318 RMS(Int)=  0.00035467
 Iteration  3 RMS(Cart)=  0.00000134 RMS(Int)=  0.00035466
 Iteration  4 RMS(Cart)=  0.00000000 RMS(Int)=  0.00035466
 Variable       Old X    -DE/DX   Delta X   Delta X   Delta X     New X
                                 (Linear)    (Quad)   (Total)
    R1        2.91222  -0.06693   0.00000  -0.14084  -0.14084   2.77138
    R2        2.91169  -0.06671   0.00000  -0.14029  -0.14029   2.77140
    R3        2.91265  -0.06731   0.00000  -0.14173  -0.14173   2.77093
    R4        2.77162   0.01662   0.00000   0.02855   0.02855   2.80017
    R5        2.69686   0.02641   0.00000   0.04031   0.04031   2.73717
    R6        2.69561   0.02790   0.00000   0.04249   0.04249   2.73810
    R7        2.90810  -0.01243   0.00000  -0.02601  -0.02601   2.88209
    R8        2.10970  -0.01211   0.00000  -0.02313  -0.02313   2.08657
    R9        2.11165  -0.01693   0.00000  -0.03241  -0.03241   2.07924
   R10        2.10667  -0.01269   0.00000  -0.02411  -0.02411   2.08256
   R11        2.10556  -0.01034   0.00000  -0.01962  -0.01962   2.08595
   R12        2.10342  -0.01021   0.00000  -0.01931  -0.01931   2.08411
   R13        2.90568  -0.01286   0.00000  -0.02681  -0.02681   2.87887
   R14        2.10952  -0.01292   0.00000  -0.02466  -0.02466   2.08487
   R15        2.11058  -0.01566   0.00000  -0.02993  -0.02993   2.08065
   R16        2.10674  -0.01218   0.00000  -0.02316  -0.02316   2.08358
   R17        2.10546  -0.01148   0.00000  -0.02179  -0.02179   2.08367
   R18        2.10318  -0.01135   0.00000  -0.02147  -0.02147   2.08171
    A1        1.90360   0.00687   0.00000   0.01642   0.01633   1.91993
    A2        1.82742   0.01124   0.00000   0.02923   0.02915   1.85657
    A3        1.92656  -0.00437   0.00000  -0.00844  -0.00853   1.91803
    A4        1.86798   0.01007   0.00000   0.02045   0.02002   1.88800
    A5        1.95334  -0.00795   0.00000  -0.02015  -0.02043   1.93292
    A6        1.97921  -0.01368   0.00000  -0.03222  -0.03249   1.94672
    A7        1.96853  -0.00070   0.00000   0.00334   0.00312   1.97165
    A8        1.98442   0.00459   0.00000   0.01933   0.01924   2.00366
    A9        1.94633  -0.00071   0.00000   0.00344   0.00323   1.94956
   A10        2.00635  -0.01016   0.00000  -0.02923  -0.02902   1.97733
   A11        1.93677  -0.00167   0.00000  -0.01897  -0.01881   1.91796
   A12        1.91455  -0.00698   0.00000  -0.03670  -0.03620   1.87835
   A13        1.91575   0.00680   0.00000   0.02513   0.02432   1.94006
   A14        1.82456   0.01284   0.00000   0.05173   0.05098   1.87555
   A15        1.85695   0.00054   0.00000   0.01458   0.01295   1.86991
   A16        1.93789  -0.01096   0.00000  -0.03807  -0.03812   1.89977
   A17        1.93850   0.00016   0.00000   0.00044   0.00032   1.93882
   A18        1.96017   0.00273   0.00000   0.01102   0.01104   1.97121
   A19        1.87669   0.00411   0.00000   0.00974   0.00954   1.88623
   A20        1.85108   0.00453   0.00000   0.01515   0.01524   1.86632
   A21        1.89546  -0.00016   0.00000   0.00292   0.00287   1.89832
   A22        2.00974  -0.00449   0.00000  -0.01400  -0.01380   1.99594
   A23        1.94003  -0.00445   0.00000  -0.02612  -0.02606   1.91397
   A24        1.91489  -0.00750   0.00000  -0.03713  -0.03698   1.87792
   A25        1.90584   0.00631   0.00000   0.02619   0.02569   1.93152
   A26        1.82567   0.00974   0.00000   0.04132   0.04083   1.86650
   A27        1.85860   0.00154   0.00000   0.01559   0.01406   1.87266
   A28        1.93610  -0.01240   0.00000  -0.04249  -0.04256   1.89354
   A29        1.93980   0.00087   0.00000   0.00290   0.00281   1.94261
   A30        1.95786   0.00166   0.00000   0.00704   0.00703   1.96489
   A31        1.87307   0.00482   0.00000   0.01295   0.01280   1.88588
   A32        1.85460   0.00574   0.00000   0.01889   0.01891   1.87350
   A33        1.89844  -0.00022   0.00000   0.00215   0.00212   1.90056
    D1       -2.68510   0.00062   0.00000   0.01093   0.01098  -2.67413
    D2        1.35998  -0.00179   0.00000  -0.01390  -0.01394   1.34604
    D3        1.47436   0.00037   0.00000   0.00969   0.00987   1.48423
    D4       -0.76374  -0.00205   0.00000  -0.01514  -0.01505  -0.77879
    D5       -0.64101   0.00312   0.00000   0.02155   0.02146  -0.61955
    D6       -2.87911   0.00071   0.00000  -0.00328  -0.00346  -2.88257
    D7        2.92996  -0.00113   0.00000  -0.01046  -0.01039   2.91957
    D8       -1.16644  -0.00139   0.00000  -0.01555  -0.01542  -1.18186
    D9        0.88039  -0.00603   0.00000  -0.03163  -0.03171   0.84868
   D10       -1.09539   0.00398   0.00000   0.02208   0.02207  -1.07332
   D11        1.09139   0.00372   0.00000   0.01699   0.01704   1.10843
   D12        3.13822  -0.00091   0.00000   0.00090   0.00075   3.13897
   D13       -0.95528   0.00194   0.00000   0.01503   0.01506  -0.94021
   D14        1.22346   0.00322   0.00000   0.01758   0.01754   1.24100
   D15       -3.00870  -0.00225   0.00000  -0.00218  -0.00204  -3.01074
   D16        3.07847  -0.00040   0.00000  -0.00929  -0.00934   3.06912
   D17       -1.02598   0.00088   0.00000  -0.00674  -0.00686  -1.03285
   D18        1.02504  -0.00459   0.00000  -0.02649  -0.02644   0.99860
   D19       -2.87012   0.00088   0.00000   0.00196   0.00198  -2.86814
   D20       -0.78278  -0.00109   0.00000  -0.01067  -0.01053  -0.79330
   D21        1.34374   0.00075   0.00000   0.00122   0.00136   1.34510
   D22        1.21538   0.00540   0.00000   0.02943   0.02988   1.24526
   D23       -2.98046   0.00343   0.00000   0.01681   0.01737  -2.96309
   D24       -0.85394   0.00526   0.00000   0.02870   0.02926  -0.82468
   D25       -0.77027  -0.00474   0.00000  -0.02466  -0.02536  -0.79563
   D26        1.31708  -0.00671   0.00000  -0.03729  -0.03787   1.27921
   D27       -2.83959  -0.00487   0.00000  -0.02539  -0.02599  -2.86557
   D28       -2.95794   0.00064   0.00000   0.00146   0.00144  -2.95650
   D29       -0.87547  -0.00089   0.00000  -0.00833  -0.00827  -0.88375
   D30        1.25421   0.00064   0.00000   0.00156   0.00159   1.25580
   D31        1.12880   0.00483   0.00000   0.02562   0.02598   1.15478
   D32       -3.07192   0.00330   0.00000   0.01583   0.01627  -3.05565
   D33       -0.94225   0.00483   0.00000   0.02571   0.02614  -0.91611
   D34       -0.85494  -0.00451   0.00000  -0.02411  -0.02459  -0.87952
   D35        1.22753  -0.00604   0.00000  -0.03390  -0.03430   1.19323
   D36       -2.92598  -0.00451   0.00000  -0.02401  -0.02443  -2.95041
         Item               Value     Threshold  Converged?
 Maximum Force            0.067308     0.000450     NO 
 RMS     Force            0.014829     0.000300     NO 
 Maximum Displacement     0.132449     0.001800     NO 
 RMS     Displacement     0.034424     0.001200     NO 
 Predicted change in Energy=-3.005182D-02
 GradGradGradGradGradGradGradGradGradGradGradGradGradGradGradGradGradGrad

                          Input orientation:                          
 ---------------------------------------------------------------------
 Center     Atomic      Atomic             Coordinates (Angstroms)
 Number     Number       Type             X           Y           Z
 ---------------------------------------------------------------------
      1          5           0       -1.694708    0.665790   -0.070531
      2          9           0       -1.740633    1.847728   -0.937530
      3          9           0       -1.896062    1.060894    1.327379
      4          9           0       -2.819385   -0.185166   -0.471838
      5          8           0       -0.398098   -0.031833   -0.237308
      6          6           0       -0.476745   -1.448343    0.054786
      7          6           0        0.751907   -2.227566   -0.402679
      8          6           0        0.720019    0.593525    0.439575
      9          6           0        0.919511    2.064299    0.096257
     10          1           0       -0.666469   -1.599836    1.131929
     11          1           0       -1.344734   -1.852530   -0.487299
     12          1           0        0.509550   -3.302607   -0.409424
     13          1           0        1.048369   -1.936943   -1.425469
     14          1           0        1.617658   -2.097682    0.268080
     15          1           0        0.616581    0.458667    1.529669
     16          1           0        1.634704    0.064774    0.129665
     17          1           0        1.890820    2.389941    0.503937
     18          1           0        0.936665    2.222205   -0.994876
     19          1           0        0.144587    2.710666    0.538091
 ---------------------------------------------------------------------
                    Distance matrix (angstroms):
                    1          2          3          4          5
     1  B    0.000000
     2  F    1.466551   0.000000
     3  F    1.466562   2.402724   0.000000
     4  F    1.466312   2.348028   2.375368   0.000000
     5  O    1.481787   2.413599   2.426148   2.437447   0.000000
     6  C    2.443092   3.666904   3.151226   2.713100   1.448449
     7  C    3.803651   4.806958   4.562763   4.114645   2.484171
     8  C    2.469076   3.086138   2.801875   3.736898   1.448940
     9  C    2.969476   2.862165   3.232636   4.400247   2.498225
    10  H    2.763376   4.161992   2.937615   3.034535   2.098919
    11  H    2.576454   3.748513   3.476357   2.225969   2.067257
    12  H    4.552118   5.645190   5.276703   4.561155   3.398737
    13  H    4.016784   4.726558   5.023432   4.351742   2.670850
    14  H    4.327032   5.319574   4.841997   4.888000   2.930259
    15  H    2.818794   3.684158   2.591712   4.028202   2.095798
    16  H    3.389142   3.963676   3.859155   4.501465   2.067918
    17  H    4.019791   3.944524   4.096937   5.456129   3.413733
    18  H    3.193895   2.703969   3.842636   4.491873   2.726938
    19  H    2.816903   2.544833   2.740251   4.265083   2.901215
                    6          7          8          9         10
     6  C    0.000000
     7  C    1.525139   0.000000
     8  C    2.397818   2.944310   0.000000
     9  C    3.780199   4.324019   1.523431   0.000000
    10  H    1.104166   2.181939   2.685616   4.124783   0.000000
    11  H    1.100285   2.131600   3.332489   4.561677   1.773639
    12  H    2.150945   1.102042   3.993112   5.406243   2.580352
    13  H    2.180793   1.103835   3.160612   4.282779   3.097514
    14  H    2.203102   1.102865   2.842140   4.223626   2.492252
    15  H    2.647137   3.311817   1.103264   2.173589   2.458017
    16  H    2.598721   2.513473   1.101032   2.123845   3.011786
    17  H    4.532055   4.841534   2.145234   1.102581   4.780420
    18  H    4.070927   4.492806   2.181097   1.102633   4.658469
    19  H    4.232847   5.063598   2.196159   1.101596   4.426158
                   11         12         13         14         15
    11  H    0.000000
    12  H    2.355240   0.000000
    13  H    2.571815   1.785417   0.000000
    14  H    3.066996   1.771655   1.793889   0.000000
    15  H    3.640955   4.233051   3.828607   3.021371   0.000000
    16  H    3.596352   3.591079   2.601749   2.166948   1.775314
    17  H    5.426778   5.928511   4.811887   4.502111   2.530934
    18  H    4.697434   5.572139   4.182870   4.551948   3.096102
    19  H    4.908386   6.098396   5.125686   5.036174   2.505495
                   16         17         18         19
    16  H    0.000000
    17  H    2.368982   0.000000
    18  H    2.531078   1.784653   0.000000
    19  H    3.063985   1.775770   1.793312   0.000000
 Stoichiometry    C4H10BF3O
 Framework group  C1[X(C4H10BF3O)]
 Deg. of freedom    51
 Full point group                 C1      NOp   1
 Largest Abelian subgroup         C1      NOp   1
 Largest concise Abelian subgroup C1      NOp   1
                         Standard orientation:                         
 ---------------------------------------------------------------------
 Center     Atomic      Atomic             Coordinates (Angstroms)
 Number     Number       Type             X           Y           Z
 ---------------------------------------------------------------------
      1          5           0       -0.913455   -0.572431   -0.025746
      2          9           0       -1.869343   -0.025580   -0.994254
      3          9           0       -1.402012   -0.353682    1.339634
      4          9           0       -0.861804   -2.017847   -0.266947
      5          8           0        0.413719    0.058585   -0.215791
      6          6           0        1.508461   -0.787765    0.212273
      7          6           0        2.872881   -0.290922   -0.254153
      8          6           0        0.531638    1.399379    0.320674
      9          6           0       -0.535050    2.369217   -0.171699
     10          1           0        1.482377   -0.909530    1.309394
     11          1           0        1.351478   -1.783698   -0.228296
     12          1           0        3.605684   -1.106555   -0.143522
     13          1           0        2.846047    0.003401   -1.317687
     14          1           0        3.246816    0.559624    0.340033
     15          1           0        0.541767    1.358545    1.423135
     16          1           0        1.504566    1.802193   -0.000920
     17          1           0       -0.249296    3.388829    0.135581
     18          1           0       -0.614066    2.353269   -1.271382
     19          1           0       -1.526998    2.161927    0.260254
 ---------------------------------------------------------------------
 Rotational constants (GHZ):           1.8127528           1.3713934           0.9780979
 Standard basis: Aug-CC-pVDZ (5D, 7F)
 There are   315 symmetry adapted cartesian basis functions of A   symmetry.
 There are   297 symmetry adapted basis functions of A   symmetry.
   297 basis functions,   497 primitive gaussians,   315 cartesian basis functions
    37 alpha electrons       37 beta electrons
       nuclear repulsion energy       521.2858672994 Hartrees.
 NAtoms=   19 NActive=   19 NUniq=   19 SFac= 1.00D+00 NAtFMM=   60 NAOKFM=F Big=F
 Integral buffers will be    131072 words long.
 Raffenetti 2 integral format.
 Two-electron integral symmetry is turned on.
 Nuclear repulsion after empirical dispersion term =      521.2736612007 Hartrees.
 Force PCM accuracy= 1.00D-12.
 ------------------------------------------------------------------------------
 Polarizable Continuum Model (PCM)
 =================================
 Model                : C-PCM.
 Atomic radii         : UFF (Universal Force Field).
 Polarization charges : Total charges.
 Charge compensation  : None.
 Solution method      : On-the-fly selection.
 Cavity type          : Scaled VdW (van der Waals Surface) (Alpha=1.100).
 Cavity algorithm     : GePol (No added spheres)
                        Default sphere list used, NSphG=   19.
                        Lebedev-Laikov grids with approx.  5.0 points / Ang**2.
                        Smoothing algorithm: York/Karplus (Gamma=1.0000).
                        Polarization charges: spherical gaussians, with
                                              point-specific exponents (IZeta= 3).
                        Self-potential: point-specific (ISelfS= 7).
                        Self-field    : sphere-specific E.n sum rule (ISelfD= 2).
 1st derivatives      : Analytical E(r).r(x)/FMM algorithm (CHGder, D1EAlg=3).
                        Cavity 1st derivative terms included.
 Solvent              : DiMethylSulfoxide, Eps=  46.826000 Eps(inf)=   2.007889
 ------------------------------------------------------------------------------
 Spheres list:
 ISph  on   Nord     Re0    Alpha      Xe            Ye            Ze
    1   B      1    2.0415  1.100     -0.913455     -0.572431     -0.025746
    2   F      2    1.6820  1.100     -1.869343     -0.025580     -0.994254
    3   F      3    1.6820  1.100     -1.402012     -0.353682      1.339634
    4   F      4    1.6820  1.100     -0.861804     -2.017847     -0.266947
    5   O      5    1.7500  1.100      0.413719      0.058585     -0.215791
    6   C      6    1.9255  1.100      1.508461     -0.787765      0.212273
    7   C      7    1.9255  1.100      2.872881     -0.290922     -0.254153
    8   C      8    1.9255  1.100      0.531638      1.399379      0.320674
    9   C      9    1.9255  1.100     -0.535050      2.369217     -0.171699
   10   H     10    1.4430  1.100      1.482377     -0.909530      1.309394
   11   H     11    1.4430  1.100      1.351478     -1.783698     -0.228296
   12   H     12    1.4430  1.100      3.605684     -1.106555     -0.143522
   13   H     13    1.4430  1.100      2.846047      0.003401     -1.317687
   14   H     14    1.4430  1.100      3.246816      0.559624      0.340033
   15   H     15    1.4430  1.100      0.541767      1.358545      1.423135
   16   H     16    1.4430  1.100      1.504566      1.802193     -0.000920
   17   H     17    1.4430  1.100     -0.249296      3.388829      0.135581
   18   H     18    1.4430  1.100     -0.614066      2.353269     -1.271382
   19   H     19    1.4430  1.100     -1.526998      2.161927      0.260254
 ------------------------------------------------------------------------------
 One-electron integrals computed using PRISM.
 NBasis=   297 RedAO= T EigKep=  2.99D-05  NBF=   297
 NBsUse=   297 1.00D-06 EigRej= -1.00D+00 NBFU=   297
 Initial guess from the checkpoint file:  "/inspire/hdd/project/materialscienceresearch/lipenghui-253107030018/g16/00-B-DFT-Shift/04-output/BF3OEt2_DMSO-d6/BF3OEt2_DMSO-d6.chk"
 B after Tr=     0.000000   -0.000000    0.000000
         Rot=    0.999989   -0.001219    0.000726    0.004482 Ang=  -0.54 deg.
 ExpMin= 2.38D-02 ExpMax= 1.47D+04 ExpMxC= 5.03D+02 IAcc=3 IRadAn=         5 AccDes= 0.00D+00
 Harris functional with IExCor= 4639 and IRadAn=       5 diagonalized for initial guess.
 HarFok:  IExCor= 4639 AccDes= 0.00D+00 IRadAn=         5 IDoV= 1 UseB2=F ITyADJ=14
 ICtDFT=  3500011 ScaDFX=  1.000000  1.000000  1.000000  1.000000
 FoFCou: FMM=F IPFlag=           0 FMFlag=      100000 FMFlg1=           0
         NFxFlg=           0 DoJE=T BraDBF=F KetDBF=T FulRan=T
         wScrn=  0.000000 ICntrl=       500 IOpCl=  0 I1Cent=   200000004 NGrid=           0
         NMat0=    1 NMatS0=      1 NMatT0=    0 NMatD0=    1 NMtDS0=    0 NMtDT0=    0
 Petite list used in FoFCou.
 Requested convergence on RMS density matrix=1.00D-08 within 128 cycles.
 Requested convergence on MAX density matrix=1.00D-06.
 Requested convergence on             energy=1.00D-06.
 No special actions if energy rises.
 Inv3:  Mode=1 IEnd=     6867507.
 Iteration    1 A*A^-1 deviation from unit magnitude is 3.77D-15 for   1499.
 Iteration    1 A*A^-1 deviation from orthogonality  is 1.76D-15 for   1478    791.
 Iteration    1 A^-1*A deviation from unit magnitude is 3.89D-15 for   1484.
 Iteration    1 A^-1*A deviation from orthogonality  is 1.44D-15 for   1513   1487.
 Error on total polarization charges =  0.01110
 SCF Done:  E(RwB97XD) =  -558.133767649     A.U. after   11 cycles
            NFock= 11  Conv=0.40D-08     -V/T= 2.0067
 D1PCM: C-PCM CHGder 1st derivatives, ID1Alg=3 FixD1E=F DoIter=F DoCFld=F I1PDM=0.
 Calling FoFJK, ICntrl=      2127 FMM=F ISym2X=0 I1Cent= 0 IOpClX= 0 NMat=1 NMatS=1 NMatT=0.
 ***** Axes restored to original set *****
 -------------------------------------------------------------------
 Center     Atomic                   Forces (Hartrees/Bohr)
 Number     Number              X              Y              Z
 -------------------------------------------------------------------
      1        5          -0.068062277    0.038215654    0.000111351
      2        9           0.007270007   -0.031392203    0.022680465
      3        9           0.010668077   -0.011812007   -0.034552824
      4        9           0.034063549    0.015964154    0.009814834
      5        8           0.001470641   -0.001808213   -0.001575181
      6        6          -0.002636315   -0.042568813    0.000030982
      7        6           0.007078625    0.005697475    0.000665086
      8        6           0.035614779    0.016906720    0.012743048
      9        6          -0.007402978    0.003837262   -0.002924767
     10        1           0.002162160    0.006750755   -0.003367389
     11        1           0.003179674    0.010701304    0.001384451
     12        1          -0.002275232    0.004840704    0.000570901
     13        1          -0.002253026   -0.001305129    0.003499845
     14        1          -0.003507212   -0.000195022   -0.002834465
     15        1          -0.005633427   -0.001873509   -0.005596985
     16        1          -0.009686769   -0.002093793   -0.002248427
     17        1          -0.002793050   -0.005192797   -0.000429032
     18        1           0.000307510   -0.001258115    0.004469158
     19        1           0.002435264   -0.003414428   -0.002441050
 -------------------------------------------------------------------
 Cartesian Forces:  Max     0.068062277 RMS     0.016122093

 GradGradGradGradGradGradGradGradGradGradGradGradGradGradGradGradGradGrad
 Berny optimization.
 Using GEDIIS/GDIIS optimizer.
 FormGI is forming the generalized inverse of G from B-inverse, IUseBI=4.
 Internal  Forces:  Max     0.038936120 RMS     0.008595802
 Search for a local minimum.
 Step number   2 out of a maximum of   97
 All quantities printed in internal units (Hartrees-Bohrs-Radians)
 Mixed Optimization -- RFO/linear search
 Update second derivatives using D2CorX and points    1    2
 DE= -3.36D-02 DEPred=-3.01D-02 R= 1.12D+00
 TightC=F SS=  1.41D+00  RLast= 3.21D-01 DXNew= 5.0454D-01 9.6341D-01
 Trust test= 1.12D+00 RLast= 3.21D-01 DXMaxT set to 5.05D-01
 ITU=  1  0
 Use linear search instead of GDIIS.
     Eigenvalues ---    0.00251   0.00268   0.01333   0.01339   0.01342
     Eigenvalues ---    0.02734   0.04068   0.04146   0.05220   0.05254
     Eigenvalues ---    0.05520   0.05524   0.05674   0.05723   0.09696
     Eigenvalues ---    0.09837   0.11348   0.11575   0.13024   0.13117
     Eigenvalues ---    0.15912   0.16000   0.16000   0.16000   0.16000
     Eigenvalues ---    0.16123   0.18102   0.18498   0.19145   0.22024
     Eigenvalues ---    0.22176   0.25000   0.25010   0.26664   0.28416
     Eigenvalues ---    0.28449   0.28637   0.28745   0.31837   0.31895
     Eigenvalues ---    0.31935   0.31994   0.32095   0.32140   0.32160
     Eigenvalues ---    0.32254   0.32281   0.32701   0.37057   0.41058
     Eigenvalues ---    0.41535
 RFO step:  Lambda=-3.89181799D-03 EMin= 2.51379371D-03
 Quartic linear search produced a step of  1.00103.
 Iteration  1 RMS(Cart)=  0.03481839 RMS(Int)=  0.00132222
 Iteration  2 RMS(Cart)=  0.00137624 RMS(Int)=  0.00076923
 Iteration  3 RMS(Cart)=  0.00000448 RMS(Int)=  0.00076923
 Iteration  4 RMS(Cart)=  0.00000001 RMS(Int)=  0.00076923
 Variable       Old X    -DE/DX   Delta X   Delta X   Delta X     New X
                                 (Linear)    (Quad)   (Total)
    R1        2.77138  -0.03894  -0.14098  -0.02490  -0.16588   2.60550
    R2        2.77140  -0.03759  -0.14043  -0.01633  -0.15676   2.61464
    R3        2.77093  -0.03807  -0.14187  -0.01751  -0.15938   2.61155
    R4        2.80017   0.01900   0.02858   0.05706   0.08564   2.88582
    R5        2.73717   0.01563   0.04035   0.01037   0.05072   2.78790
    R6        2.73810   0.01454   0.04253   0.00157   0.04410   2.78220
    R7        2.88209  -0.00595  -0.02603   0.00418  -0.02185   2.86024
    R8        2.08657  -0.00458  -0.02315   0.01078  -0.01237   2.07420
    R9        2.07924  -0.00712  -0.03245   0.01064  -0.02180   2.05743
   R10        2.08256  -0.00423  -0.02414   0.01472  -0.00942   2.07314
   R11        2.08595  -0.00420  -0.01964   0.00734  -0.01230   2.07365
   R12        2.08411  -0.00449  -0.01933   0.00507  -0.01425   2.06986
   R13        2.87887  -0.00649  -0.02684   0.00203  -0.02482   2.85405
   R14        2.08487  -0.00477  -0.02468   0.01218  -0.01251   2.07236
   R15        2.08065  -0.00641  -0.02996   0.01091  -0.01904   2.06160
   R16        2.08358  -0.00416  -0.02318   0.01353  -0.00965   2.07393
   R17        2.08367  -0.00459  -0.02181   0.00857  -0.01324   2.07044
   R18        2.08171  -0.00469  -0.02149   0.00750  -0.01399   2.06772
    A1        1.91993   0.00672   0.01635   0.01752   0.03215   1.95209
    A2        1.85657   0.01069   0.02918   0.03998   0.06796   1.92453
    A3        1.91803  -0.00668  -0.00854  -0.03589  -0.04579   1.87223
    A4        1.88800   0.00931   0.02004   0.03618   0.05420   1.94220
    A5        1.93292  -0.00767  -0.02045  -0.02735  -0.04956   1.88335
    A6        1.94672  -0.01123  -0.03252  -0.02630  -0.06032   1.88640
    A7        1.97165   0.00153   0.00313   0.01592   0.01884   1.99049
    A8        2.00366   0.00123   0.01926  -0.01913  -0.00001   2.00365
    A9        1.94956  -0.00073   0.00323  -0.00795  -0.00501   1.94455
   A10        1.97733  -0.00278  -0.02905   0.02435  -0.00424   1.97309
   A11        1.91796  -0.00261  -0.01883  -0.01258  -0.03124   1.88671
   A12        1.87835  -0.00473  -0.03623  -0.00303  -0.03868   1.83967
   A13        1.94006   0.00315   0.02434  -0.00297   0.02005   1.96011
   A14        1.87555   0.00606   0.05104  -0.01573   0.03412   1.90966
   A15        1.86991   0.00107   0.01297   0.00928   0.01918   1.88909
   A16        1.89977  -0.00485  -0.03816   0.01797  -0.02030   1.87947
   A17        1.93882  -0.00039   0.00032  -0.00527  -0.00512   1.93370
   A18        1.97121   0.00105   0.01105  -0.00764   0.00344   1.97465
   A19        1.88623   0.00171   0.00955  -0.00406   0.00517   1.89140
   A20        1.86632   0.00209   0.01526  -0.00652   0.00883   1.87516
   A21        1.89832   0.00053   0.00287   0.00553   0.00836   1.90668
   A22        1.99594  -0.00288  -0.01381  -0.00608  -0.01954   1.97640
   A23        1.91397  -0.00312  -0.02609  -0.00972  -0.03566   1.87831
   A24        1.87792  -0.00403  -0.03701   0.01128  -0.02524   1.85268
   A25        1.93152   0.00377   0.02571  -0.00283   0.02138   1.95290
   A26        1.86650   0.00540   0.04087  -0.00196   0.03783   1.90433
   A27        1.87266   0.00110   0.01408   0.01131   0.02244   1.89510
   A28        1.89354  -0.00595  -0.04260   0.01518  -0.02757   1.86597
   A29        1.94261   0.00016   0.00281  -0.00431  -0.00163   1.94098
   A30        1.96489   0.00030   0.00703  -0.00905  -0.00205   1.96283
   A31        1.88588   0.00223   0.01282  -0.00306   0.00949   1.89537
   A32        1.87350   0.00304   0.01893  -0.00161   0.01728   1.89079
   A33        1.90056   0.00039   0.00212   0.00315   0.00524   1.90580
    D1       -2.67413  -0.00034   0.01099  -0.03832  -0.02704  -2.70117
    D2        1.34604  -0.00188  -0.01395  -0.02415  -0.03796   1.30808
    D3        1.48423   0.00075   0.00988  -0.01827  -0.00820   1.47603
    D4       -0.77879  -0.00079  -0.01506  -0.00409  -0.01911  -0.79790
    D5       -0.61955   0.00174   0.02148  -0.02782  -0.00661  -0.62615
    D6       -2.88257   0.00019  -0.00346  -0.01364  -0.01752  -2.90009
    D7        2.91957  -0.00066  -0.01040  -0.00550  -0.01587   2.90370
    D8       -1.18186  -0.00061  -0.01544  -0.00112  -0.01662  -1.19848
    D9        0.84868  -0.00338  -0.03174   0.00151  -0.03012   0.81856
   D10       -1.07332   0.00178   0.02209  -0.02539  -0.00333  -1.07665
   D11        1.10843   0.00183   0.01706  -0.02102  -0.00408   1.10436
   D12        3.13897  -0.00094   0.00075  -0.01839  -0.01758   3.12139
   D13       -0.94021   0.00182   0.01508   0.00916   0.02408  -0.91613
   D14        1.24100   0.00217   0.01756  -0.00699   0.01065   1.25165
   D15       -3.01074  -0.00042  -0.00204   0.00755   0.00565  -3.00509
   D16        3.06912  -0.00080  -0.00935   0.01134   0.00179   3.07092
   D17       -1.03285  -0.00045  -0.00687  -0.00481  -0.01164  -1.04449
   D18        0.99860  -0.00304  -0.02647   0.00973  -0.01664   0.98195
   D19       -2.86814   0.00037   0.00199  -0.00375  -0.00176  -2.86990
   D20       -0.79330  -0.00082  -0.01054  -0.00061  -0.01096  -0.80426
   D21        1.34510   0.00034   0.00136  -0.00288  -0.00137   1.34374
   D22        1.24526   0.00349   0.02991  -0.00325   0.02737   1.27263
   D23       -2.96309   0.00230   0.01739  -0.00012   0.01817  -2.94492
   D24       -0.82468   0.00346   0.02929  -0.00238   0.02776  -0.79692
   D25       -0.79563  -0.00314  -0.02539  -0.00346  -0.02990  -0.82553
   D26        1.27921  -0.00432  -0.03791  -0.00033  -0.03910   1.24011
   D27       -2.86557  -0.00316  -0.02601  -0.00259  -0.02951  -2.89508
   D28       -2.95650   0.00001   0.00144  -0.02661  -0.02520  -2.98170
   D29       -0.88375  -0.00089  -0.00828  -0.02340  -0.03158  -0.91533
   D30        1.25580  -0.00004   0.00160  -0.02908  -0.02745   1.22835
   D31        1.15478   0.00335   0.02601  -0.00663   0.02016   1.17494
   D32       -3.05565   0.00245   0.01629  -0.00342   0.01377  -3.04188
   D33       -0.91611   0.00330   0.02617  -0.00910   0.01790  -0.89820
   D34       -0.87952  -0.00305  -0.02461  -0.01749  -0.04304  -0.92256
   D35        1.19323  -0.00396  -0.03433  -0.01428  -0.04942   1.14381
   D36       -2.95041  -0.00310  -0.02446  -0.01996  -0.04529  -2.99570
         Item               Value     Threshold  Converged?
 Maximum Force            0.038936     0.000450     NO 
 RMS     Force            0.008596     0.000300     NO 
 Maximum Displacement     0.143614     0.001800     NO 
 RMS     Displacement     0.034906     0.001200     NO 
 Predicted change in Energy=-1.747190D-02
 GradGradGradGradGradGradGradGradGradGradGradGradGradGradGradGradGradGrad

                          Input orientation:                          
 ---------------------------------------------------------------------
 Center     Atomic      Atomic             Coordinates (Angstroms)
 Number     Number       Type             X           Y           Z
 ---------------------------------------------------------------------
      1          5           0       -1.734523    0.701372   -0.071303
      2          9           0       -1.691843    1.813982   -0.884495
      3          9           0       -1.873723    1.043282    1.262148
      4          9           0       -2.743388   -0.150802   -0.478532
      5          8           0       -0.403184   -0.029172   -0.232241
      6          6           0       -0.469793   -1.472673    0.064994
      7          6           0        0.751160   -2.232032   -0.407826
      8          6           0        0.736833    0.607636    0.447786
      9          6           0        0.901776    2.066860    0.094995
     10          1           0       -0.642852   -1.591370    1.142367
     11          1           0       -1.349392   -1.836497   -0.463503
     12          1           0        0.501027   -3.300191   -0.405152
     13          1           0        1.017913   -1.941898   -1.431933
     14          1           0        1.621098   -2.096987    0.243867
     15          1           0        0.604521    0.460135    1.526382
     16          1           0        1.624928    0.060384    0.128438
     17          1           0        1.861155    2.391115    0.517960
     18          1           0        0.931922    2.211235   -0.990662
     19          1           0        0.109903    2.691602    0.519126
 ---------------------------------------------------------------------
                    Distance matrix (angstroms):
                    1          2          3          4          5
     1  B    0.000000
     2  F    1.378769   0.000000
     3  F    1.383608   2.288042   0.000000
     4  F    1.381971   2.265156   2.283007   0.000000
     5  O    1.527108   2.341643   2.354961   2.356269   0.000000
     6  C    2.518847   3.632773   3.119973   2.685516   1.475291
     7  C    3.859628   4.750338   4.517357   4.067971   2.493178
     8  C    2.527022   3.021375   2.769111   3.680384   1.472277
     9  C    2.973597   2.783918   3.180150   4.305133   2.490653
    10  H    2.814499   4.099387   2.910461   3.019073   2.094624
    11  H    2.596714   3.690597   3.397929   2.187468   2.053098
    12  H    4.595829   5.585089   5.223513   4.522197   3.398097
    13  H    4.051430   4.663593   4.952871   4.273684   2.667826
    14  H    4.380678   5.248282   4.807491   4.833036   2.932620
    15  H    2.842871   3.594234   2.559604   3.949863   2.085101
    16  H    3.425882   3.886143   3.806829   4.415336   2.061880
    17  H    4.016386   3.863127   4.039775   5.353144   3.398209
    18  H    3.199192   2.655790   3.782976   4.398795   2.716088
    19  H    2.776964   2.446764   2.683992   4.149199   2.868872
                    6          7          8          9         10
     6  C    0.000000
     7  C    1.513576   0.000000
     8  C    2.435193   2.965804   0.000000
     9  C    3.796103   4.330819   1.510299   0.000000
    10  H    1.097621   2.181013   2.687303   4.106764   0.000000
    11  H    1.088747   2.138193   3.340144   4.540470   1.771469
    12  H    2.122110   1.097058   4.006772   5.405181   2.573586
    13  H    2.161996   1.097328   3.180011   4.291286   3.083509
    14  H    2.189427   1.095323   2.852805   4.228146   2.487654
    15  H    2.650576   3.318196   1.096646   2.172279   2.431476
    16  H    2.596564   2.511219   1.090954   2.133076   2.983147
    17  H    4.535125   4.843826   2.109460   1.097474   4.745536
    18  H    4.080489   4.484974   2.163035   1.095629   4.635679
    19  H    4.228886   5.051003   2.177394   1.094190   4.393053
                   11         12         13         14         15
    11  H    0.000000
    12  H    2.360054   0.000000
    13  H    2.559902   1.779441   0.000000
    14  H    3.064643   1.767338   1.787789   0.000000
    15  H    3.612745   4.228662   3.833051   3.035976   0.000000
    16  H    3.577028   3.583481   2.610049   2.160461   1.776311
    17  H    5.398479   5.923938   4.825778   4.502867   2.514902
    18  H    4.676154   5.559164   4.177394   4.534292   3.083675
    19  H    4.857858   6.075266   5.108859   5.028923   2.497731
                   16         17         18         19
    16  H    0.000000
    17  H    2.374834   0.000000
    18  H    2.521666   1.780946   0.000000
    19  H    3.061249   1.776845   1.784917   0.000000
 Stoichiometry    C4H10BF3O
 Framework group  C1[X(C4H10BF3O)]
 Deg. of freedom    51
 Full point group                 C1      NOp   1
 Largest Abelian subgroup         C1      NOp   1
 Largest concise Abelian subgroup C1      NOp   1
                         Standard orientation:                         
 ---------------------------------------------------------------------
 Center     Atomic      Atomic             Coordinates (Angstroms)
 Number     Number       Type             X           Y           Z
 ---------------------------------------------------------------------
      1          5           0       -0.953585   -0.626999   -0.024408
      2          9           0       -1.822461   -0.072220   -0.939985
      3          9           0       -1.367879   -0.407178    1.277287
      4          9           0       -0.788564   -1.975582   -0.277262
      5          8           0        0.398325    0.058785   -0.209066
      6          6           0        1.549439   -0.754359    0.227071
      7          6           0        2.876459   -0.210485   -0.256798
      8          6           0        0.474224    1.428377    0.325777
      9          6           0       -0.633223    2.325507   -0.173943
     10          1           0        1.509386   -0.843380    1.320343
     11          1           0        1.385036   -1.741647   -0.201418
     12          1           0        3.625500   -1.002826   -0.135675
     13          1           0        2.823856    0.056062   -1.319961
     14          1           0        3.220778    0.657112    0.316309
     15          1           0        0.480662    1.357495    1.420111
     16          1           0        1.434265    1.829493   -0.002260
     17          1           0       -0.387502    3.345561    0.147864
     18          1           0       -0.693438    2.309180   -1.267794
     19          1           0       -1.608471    2.058254    0.244052
 ---------------------------------------------------------------------
 Rotational constants (GHZ):           1.8826054           1.4054646           0.9963439
 Standard basis: Aug-CC-pVDZ (5D, 7F)
 There are   315 symmetry adapted cartesian basis functions of A   symmetry.
 There are   297 symmetry adapted basis functions of A   symmetry.
   297 basis functions,   497 primitive gaussians,   315 cartesian basis functions
    37 alpha electrons       37 beta electrons
       nuclear repulsion energy       529.0873128028 Hartrees.
 NAtoms=   19 NActive=   19 NUniq=   19 SFac= 1.00D+00 NAtFMM=   60 NAOKFM=F Big=F
 Integral buffers will be    131072 words long.
 Raffenetti 2 integral format.
 Two-electron integral symmetry is turned on.
 Nuclear repulsion after empirical dispersion term =      529.0751641624 Hartrees.
 Force PCM accuracy= 1.00D-12.
 ------------------------------------------------------------------------------
 Polarizable Continuum Model (PCM)
 =================================
 Model                : C-PCM.
 Atomic radii         : UFF (Universal Force Field).
 Polarization charges : Total charges.
 Charge compensation  : None.
 Solution method      : On-the-fly selection.
 Cavity type          : Scaled VdW (van der Waals Surface) (Alpha=1.100).
 Cavity algorithm     : GePol (No added spheres)
                        Default sphere list used, NSphG=   19.
                        Lebedev-Laikov grids with approx.  5.0 points / Ang**2.
                        Smoothing algorithm: York/Karplus (Gamma=1.0000).
                        Polarization charges: spherical gaussians, with
                                              point-specific exponents (IZeta= 3).
                        Self-potential: point-specific (ISelfS= 7).
                        Self-field    : sphere-specific E.n sum rule (ISelfD= 2).
 1st derivatives      : Analytical E(r).r(x)/FMM algorithm (CHGder, D1EAlg=3).
                        Cavity 1st derivative terms included.
 Solvent              : DiMethylSulfoxide, Eps=  46.826000 Eps(inf)=   2.007889
 ------------------------------------------------------------------------------
 Spheres list:
 ISph  on   Nord     Re0    Alpha      Xe            Ye            Ze
    1   B      1    2.0415  1.100     -0.953585     -0.626999     -0.024408
    2   F      2    1.6820  1.100     -1.822461     -0.072220     -0.939985
    3   F      3    1.6820  1.100     -1.367879     -0.407178      1.277287
    4   F      4    1.6820  1.100     -0.788564     -1.975582     -0.277262
    5   O      5    1.7500  1.100      0.398325      0.058785     -0.209066
    6   C      6    1.9255  1.100      1.549439     -0.754359      0.227071
    7   C      7    1.9255  1.100      2.876459     -0.210485     -0.256798
    8   C      8    1.9255  1.100      0.474224      1.428377      0.325777
    9   C      9    1.9255  1.100     -0.633223      2.325507     -0.173943
   10   H     10    1.4430  1.100      1.509386     -0.843380      1.320343
   11   H     11    1.4430  1.100      1.385036     -1.741647     -0.201418
   12   H     12    1.4430  1.100      3.625500     -1.002826     -0.135675
   13   H     13    1.4430  1.100      2.823856      0.056062     -1.319961
   14   H     14    1.4430  1.100      3.220778      0.657112      0.316309
   15   H     15    1.4430  1.100      0.480662      1.357495      1.420111
   16   H     16    1.4430  1.100      1.434265      1.829493     -0.002260
   17   H     17    1.4430  1.100     -0.387502      3.345561      0.147864
   18   H     18    1.4430  1.100     -0.693438      2.309180     -1.267794
   19   H     19    1.4430  1.100     -1.608471      2.058254      0.244052
 ------------------------------------------------------------------------------
 One-electron integrals computed using PRISM.
 NBasis=   297 RedAO= T EigKep=  2.97D-05  NBF=   297
 NBsUse=   297 1.00D-06 EigRej= -1.00D+00 NBFU=   297
 Initial guess from the checkpoint file:  "/inspire/hdd/project/materialscienceresearch/lipenghui-253107030018/g16/00-B-DFT-Shift/04-output/BF3OEt2_DMSO-d6/BF3OEt2_DMSO-d6.chk"
 B after Tr=    -0.000000    0.000000   -0.000000
         Rot=    0.999873   -0.001632    0.000472   -0.015841 Ang=  -1.83 deg.
 ExpMin= 2.38D-02 ExpMax= 1.47D+04 ExpMxC= 5.03D+02 IAcc=3 IRadAn=         5 AccDes= 0.00D+00
 Harris functional with IExCor= 4639 and IRadAn=       5 diagonalized for initial guess.
 HarFok:  IExCor= 4639 AccDes= 0.00D+00 IRadAn=         5 IDoV= 1 UseB2=F ITyADJ=14
 ICtDFT=  3500011 ScaDFX=  1.000000  1.000000  1.000000  1.000000
 FoFCou: FMM=F IPFlag=           0 FMFlag=      100000 FMFlg1=           0
         NFxFlg=           0 DoJE=T BraDBF=F KetDBF=T FulRan=T
         wScrn=  0.000000 ICntrl=       500 IOpCl=  0 I1Cent=   200000004 NGrid=           0
         NMat0=    1 NMatS0=      1 NMatT0=    0 NMatD0=    1 NMtDS0=    0 NMtDT0=    0
 Petite list used in FoFCou.
 Requested convergence on RMS density matrix=1.00D-08 within 128 cycles.
 Requested convergence on MAX density matrix=1.00D-06.
 Requested convergence on             energy=1.00D-06.
 No special actions if energy rises.
 Inv3:  Mode=1 IEnd=     6750000.
 Iteration    1 A*A^-1 deviation from unit magnitude is 5.11D-15 for   1494.
 Iteration    1 A*A^-1 deviation from orthogonality  is 2.00D-15 for   1487    774.
 Iteration    1 A^-1*A deviation from unit magnitude is 5.33D-15 for   1494.
 Iteration    1 A^-1*A deviation from orthogonality  is 2.85D-15 for   1485    963.
 Error on total polarization charges =  0.01100
 SCF Done:  E(RwB97XD) =  -558.148359721     A.U. after   11 cycles
            NFock= 11  Conv=0.49D-08     -V/T= 2.0058
 D1PCM: C-PCM CHGder 1st derivatives, ID1Alg=3 FixD1E=F DoIter=F DoCFld=F I1PDM=0.
 Calling FoFJK, ICntrl=      2127 FMM=F ISym2X=0 I1Cent= 0 IOpClX= 0 NMat=1 NMatS=1 NMatT=0.
 ***** Axes restored to original set *****
 -------------------------------------------------------------------
 Center     Atomic                   Forces (Hartrees/Bohr)
 Number     Number              X              Y              Z
 -------------------------------------------------------------------
      1        5          -0.014823266    0.007941972   -0.001046275
      2        9           0.001137746    0.007445631   -0.006918894
      3        9          -0.000092341    0.001545118    0.010591558
      4        9          -0.004927666   -0.007566647   -0.002904216
      5        8           0.014274591   -0.010381445    0.002034294
      6        6          -0.001270302   -0.010081417   -0.000300774
      7        6           0.002690045    0.003611726    0.000187903
      8        6           0.008314187    0.002989949    0.002827013
      9        6          -0.001920374    0.001570326   -0.000393989
     10        1           0.001304689    0.002747493    0.000243193
     11        1          -0.001089149    0.003654520   -0.001302200
     12        1          -0.000820469    0.000653919    0.000040986
     13        1          -0.000517104   -0.000690406   -0.000203811
     14        1           0.000187025    0.000169532   -0.000050767
     15        1          -0.002199930   -0.000484587   -0.000614846
     16        1          -0.001803180   -0.002136216   -0.002263804
     17        1           0.000000986   -0.000789729    0.000012294
     18        1           0.000781859   -0.000080022    0.000257899
     19        1           0.000772654   -0.000119718   -0.000195565
 -------------------------------------------------------------------
 Cartesian Forces:  Max     0.014823266 RMS     0.004535628

 GradGradGradGradGradGradGradGradGradGradGradGradGradGradGradGradGradGrad
 Berny optimization.
 Using GEDIIS/GDIIS optimizer.
 FormGI is forming the generalized inverse of G from B-inverse, IUseBI=4.
 Internal  Forces:  Max     0.020753832 RMS     0.003254528
 Search for a local minimum.
 Step number   3 out of a maximum of   97
 All quantities printed in internal units (Hartrees-Bohrs-Radians)
 Mixed Optimization -- RFO/linear search
 Update second derivatives using D2CorX and points    2    3
 DE= -1.46D-02 DEPred=-1.75D-02 R= 8.35D-01
 TightC=F SS=  1.41D+00  RLast= 3.76D-01 DXNew= 8.4853D-01 1.1279D+00
 Trust test= 8.35D-01 RLast= 3.76D-01 DXMaxT set to 8.49D-01
 ITU=  1  1  0
 Use linear search instead of GDIIS.
     Eigenvalues ---    0.00251   0.00269   0.01333   0.01340   0.01344
     Eigenvalues ---    0.02670   0.04198   0.04236   0.05221   0.05287
     Eigenvalues ---    0.05322   0.05375   0.05814   0.05895   0.09768
     Eigenvalues ---    0.09800   0.12303   0.12466   0.12962   0.12981
     Eigenvalues ---    0.15955   0.16000   0.16000   0.16000   0.16001
     Eigenvalues ---    0.16092   0.18114   0.18650   0.20497   0.22123
     Eigenvalues ---    0.22405   0.25000   0.25043   0.28333   0.28418
     Eigenvalues ---    0.28601   0.28735   0.28876   0.31834   0.31892
     Eigenvalues ---    0.31935   0.31988   0.32095   0.32141   0.32160
     Eigenvalues ---    0.32254   0.32281   0.32582   0.40361   0.41515
     Eigenvalues ---    0.43894
 RFO step:  Lambda=-3.70907856D-03 EMin= 2.51346541D-03
 Quartic linear search produced a step of -0.03149.
 Iteration  1 RMS(Cart)=  0.04440820 RMS(Int)=  0.00069495
 Iteration  2 RMS(Cart)=  0.00091503 RMS(Int)=  0.00021328
 Iteration  3 RMS(Cart)=  0.00000041 RMS(Int)=  0.00021328
 Variable       Old X    -DE/DX   Delta X   Delta X   Delta X     New X
                                 (Linear)    (Quad)   (Total)
    R1        2.60550   0.01013   0.00522   0.01388   0.01910   2.62460
    R2        2.61464   0.01059   0.00494   0.01631   0.02125   2.63589
    R3        2.61155   0.00912   0.00502   0.01114   0.01616   2.62771
    R4        2.88582   0.02075  -0.00270   0.06387   0.06117   2.94699
    R5        2.78790  -0.00036  -0.00160   0.00506   0.00346   2.79135
    R6        2.78220   0.00329  -0.00139   0.01289   0.01150   2.79370
    R7        2.86024  -0.00062   0.00069  -0.00493  -0.00424   2.85601
    R8        2.07420  -0.00026   0.00039  -0.00262  -0.00223   2.07197
    R9        2.05743   0.00029   0.00069  -0.00213  -0.00144   2.05599
   R10        2.07314  -0.00045   0.00030  -0.00291  -0.00262   2.07052
   R11        2.07365  -0.00012   0.00039  -0.00209  -0.00170   2.07195
   R12        2.06986   0.00015   0.00045  -0.00147  -0.00102   2.06884
   R13        2.85405   0.00060   0.00078  -0.00117  -0.00039   2.85366
   R14        2.07236  -0.00027   0.00039  -0.00270  -0.00231   2.07005
   R15        2.06160   0.00026   0.00060  -0.00187  -0.00127   2.06033
   R16        2.07393  -0.00023   0.00030  -0.00225  -0.00195   2.07198
   R17        2.07044  -0.00024   0.00042  -0.00260  -0.00218   2.06826
   R18        2.06772  -0.00070   0.00044  -0.00401  -0.00357   2.06415
    A1        1.95209   0.00242  -0.00101   0.01642   0.01543   1.96752
    A2        1.92453   0.00220  -0.00214   0.01443   0.01219   1.93672
    A3        1.87223  -0.00103   0.00144  -0.00759  -0.00618   1.86605
    A4        1.94220   0.00215  -0.00171   0.01125   0.00939   1.95160
    A5        1.88335  -0.00147   0.00156  -0.01066  -0.00916   1.87420
    A6        1.88640  -0.00476   0.00190  -0.02689  -0.02511   1.86129
    A7        1.99049  -0.00065  -0.00059   0.00886   0.00781   1.99830
    A8        2.00365   0.00472   0.00000   0.03524   0.03508   2.03873
    A9        1.94455  -0.00291   0.00016  -0.00424  -0.00474   1.93981
   A10        1.97309  -0.00311   0.00013  -0.02239  -0.02222   1.95087
   A11        1.88671  -0.00046   0.00098  -0.02379  -0.02280   1.86391
   A12        1.83967  -0.00138   0.00122  -0.02585  -0.02431   1.81536
   A13        1.96011   0.00150  -0.00063   0.01339   0.01200   1.97212
   A14        1.90966   0.00301  -0.00107   0.03297   0.03137   1.94103
   A15        1.88909   0.00038  -0.00060   0.02500   0.02353   1.91262
   A16        1.87947  -0.00148   0.00064  -0.01439  -0.01376   1.86572
   A17        1.93370   0.00021   0.00016   0.00092   0.00104   1.93474
   A18        1.97465   0.00040  -0.00011   0.00531   0.00520   1.97984
   A19        1.89140   0.00013  -0.00016  -0.00290  -0.00310   1.88829
   A20        1.87516   0.00062  -0.00028   0.00504   0.00478   1.87994
   A21        1.90668   0.00010  -0.00026   0.00547   0.00518   1.91187
   A22        1.97640   0.00329   0.00062   0.00782   0.00853   1.98493
   A23        1.87831  -0.00222   0.00112  -0.02144  -0.02038   1.85792
   A24        1.85268  -0.00323   0.00079  -0.03396  -0.03321   1.81946
   A25        1.95290   0.00012  -0.00067   0.01260   0.01188   1.96479
   A26        1.90433   0.00070  -0.00119   0.01517   0.01393   1.91825
   A27        1.89510   0.00111  -0.00071   0.01786   0.01660   1.91170
   A28        1.86597  -0.00134   0.00087  -0.01493  -0.01407   1.85190
   A29        1.94098   0.00015   0.00005   0.00155   0.00156   1.94254
   A30        1.96283   0.00077   0.00006   0.00677   0.00682   1.96966
   A31        1.89537   0.00010  -0.00030  -0.00246  -0.00279   1.89258
   A32        1.89079   0.00024  -0.00054   0.00270   0.00218   1.89297
   A33        1.90580   0.00004  -0.00016   0.00568   0.00547   1.91127
    D1       -2.70117   0.00074   0.00085   0.03281   0.03381  -2.66736
    D2        1.30808   0.00105   0.00120  -0.00409  -0.00315   1.30493
    D3        1.47603  -0.00073   0.00026   0.02345   0.02399   1.50003
    D4       -0.79790  -0.00042   0.00060  -0.01344  -0.01297  -0.81087
    D5       -0.62615   0.00023   0.00021   0.03131   0.03170  -0.59445
    D6       -2.90009   0.00054   0.00055  -0.00558  -0.00526  -2.90535
    D7        2.90370  -0.00138   0.00050  -0.03341  -0.03281   2.87089
    D8       -1.19848  -0.00196   0.00052  -0.04950  -0.04868  -1.24716
    D9        0.81856  -0.00243   0.00095  -0.04454  -0.04356   0.77500
   D10       -1.07665   0.00203   0.00010   0.02137   0.02128  -1.05538
   D11        1.10436   0.00144   0.00013   0.00527   0.00541   1.10976
   D12        3.12139   0.00098   0.00055   0.01023   0.01053   3.13192
   D13       -0.91613  -0.00003  -0.00076   0.00076   0.00007  -0.91606
   D14        1.25165   0.00071  -0.00034   0.00643   0.00596   1.25761
   D15       -3.00509  -0.00067  -0.00018  -0.00006  -0.00003  -3.00512
   D16        3.07092  -0.00069  -0.00006  -0.04085  -0.04094   3.02998
   D17       -1.04449   0.00005   0.00037  -0.03519  -0.03504  -1.07953
   D18        0.98195  -0.00133   0.00052  -0.04167  -0.04104   0.94092
   D19       -2.86990  -0.00001   0.00006  -0.03000  -0.02989  -2.89979
   D20       -0.80426  -0.00063   0.00035  -0.04167  -0.04126  -0.84552
   D21        1.34374  -0.00005   0.00004  -0.02992  -0.02980   1.31394
   D22        1.27263   0.00182  -0.00086   0.00828   0.00767   1.28030
   D23       -2.94492   0.00120  -0.00057  -0.00340  -0.00370  -2.94861
   D24       -0.79692   0.00178  -0.00087   0.00836   0.00776  -0.78915
   D25       -0.82553  -0.00167   0.00094  -0.05429  -0.05370  -0.87923
   D26        1.24011  -0.00229   0.00123  -0.06597  -0.06507   1.17504
   D27       -2.89508  -0.00171   0.00093  -0.05421  -0.05361  -2.94869
   D28       -2.98170   0.00046   0.00079  -0.00916  -0.00837  -2.99007
   D29       -0.91533  -0.00015   0.00099  -0.02031  -0.01930  -0.93463
   D30        1.22835   0.00058   0.00086  -0.00681  -0.00592   1.22243
   D31        1.17494   0.00086  -0.00063   0.00376   0.00317   1.17811
   D32       -3.04188   0.00025  -0.00043  -0.00739  -0.00777  -3.04965
   D33       -0.89820   0.00098  -0.00056   0.00610   0.00562  -0.89258
   D34       -0.92256  -0.00107   0.00136  -0.03668  -0.03541  -0.95797
   D35        1.14381  -0.00168   0.00156  -0.04783  -0.04635   1.09746
   D36       -2.99570  -0.00095   0.00143  -0.03433  -0.03296  -3.02866
         Item               Value     Threshold  Converged?
 Maximum Force            0.020754     0.000450     NO 
 RMS     Force            0.003255     0.000300     NO 
 Maximum Displacement     0.140855     0.001800     NO 
 RMS     Displacement     0.044621     0.001200     NO 
 Predicted change in Energy=-1.937250D-03
 GradGradGradGradGradGradGradGradGradGradGradGradGradGradGradGradGradGrad

                          Input orientation:                          
 ---------------------------------------------------------------------
 Center     Atomic      Atomic             Coordinates (Angstroms)
 Number     Number       Type             X           Y           Z
 ---------------------------------------------------------------------
      1          5           0       -1.789489    0.702550   -0.073282
      2          9           0       -1.738657    1.804445   -0.917214
      3          9           0       -1.948260    1.056663    1.266497
      4          9           0       -2.764198   -0.197895   -0.488845
      5          8           0       -0.419475   -0.031242   -0.202055
      6          6           0       -0.472200   -1.480480    0.078684
      7          6           0        0.765047   -2.192987   -0.416976
      8          6           0        0.739844    0.599174    0.464364
      9          6           0        0.938700    2.049658    0.094320
     10          1           0       -0.624799   -1.588534    1.159064
     11          1           0       -1.360262   -1.819233   -0.450750
     12          1           0        0.542538   -3.265716   -0.401416
     13          1           0        0.993314   -1.905706   -1.450185
     14          1           0        1.645141   -2.026207    0.212442
     15          1           0        0.594690    0.455859    1.540629
     16          1           0        1.594366    0.010259    0.130176
     17          1           0        1.903849    2.343540    0.523630
     18          1           0        0.988739    2.179746   -0.991242
     19          1           0        0.164651    2.702087    0.504574
 ---------------------------------------------------------------------
                    Distance matrix (angstroms):
                    1          2          3          4          5
     1  B    0.000000
     2  F    1.388877   0.000000
     3  F    1.394852   2.317694   0.000000
     4  F    1.390522   2.290109   2.306707   0.000000
     5  O    1.559478   2.370958   2.382723   2.368069   0.000000
     6  C    2.554205   3.658751   3.166504   2.687074   1.477121
     7  C    3.876586   4.743231   4.555913   4.054766   2.474354
     8  C    2.587909   3.082921   2.842291   3.717826   1.478363
     9  C    3.047262   2.872554   3.270256   4.370701   2.502522
    10  H    2.850306   4.130850   2.959756   3.037517   2.078452
    11  H    2.585750   3.673121   3.400802   2.145046   2.035643
    12  H    4.614451   5.583586   5.260130   4.511505   3.380390
    13  H    4.054979   4.638205   4.980848   4.237888   2.658461
    14  H    4.395956   5.234511   4.850531   4.824603   2.900746
    15  H    2.889615   3.647490   2.627301   3.978478   2.074306
    16  H    3.459933   3.927489   3.864762   4.407221   2.041483
    17  H    4.085327   3.954049   4.128759   5.410606   3.400594
    18  H    3.277699   2.754091   3.871003   4.471030   2.737580
    19  H    2.854949   2.539650   2.784303   4.239686   2.882987
                    6          7          8          9         10
     6  C    0.000000
     7  C    1.511333   0.000000
     8  C    2.437777   2.928064   0.000000
     9  C    3.801678   4.276869   1.510093   0.000000
    10  H    1.096441   2.186536   2.670379   4.100566   0.000000
    11  H    1.087983   2.158188   3.331151   4.533281   1.784833
    12  H    2.108853   1.095673   3.965587   5.353120   2.571131
    13  H    2.160090   1.096429   3.162936   4.246572   3.086595
    14  H    2.190626   1.094781   2.788485   4.138319   2.498054
    15  H    2.650462   3.298125   1.095425   2.179529   2.410869
    16  H    2.548656   2.416906   1.090280   2.142506   2.922232
    17  H    4.524015   4.770921   2.097912   1.096443   4.717948
    18  H    4.083667   4.415950   2.163087   1.094473   4.628958
    19  H    4.252156   5.017119   2.180529   1.092302   4.411464
                   11         12         13         14         15
    11  H    0.000000
    12  H    2.390690   0.000000
    13  H    2.558451   1.775597   0.000000
    14  H    3.084657   1.768880   1.789895   0.000000
    15  H    3.600482   4.198141   3.831561   3.004693   0.000000
    16  H    3.523399   3.481514   2.555332   2.038759   1.785299
    17  H    5.378895   5.845736   4.772956   4.388446   2.512274
    18  H    4.669236   5.495457   4.111151   4.423772   3.088273
    19  H    4.866245   6.047999   5.073413   4.963260   2.510754
                   16         17         18         19
    16  H    0.000000
    17  H    2.386375   0.000000
    18  H    2.516155   1.777384   0.000000
    19  H    3.070863   1.775874   1.785896   0.000000
 Stoichiometry    C4H10BF3O
 Framework group  C1[X(C4H10BF3O)]
 Deg. of freedom    51
 Full point group                 C1      NOp   1
 Largest Abelian subgroup         C1      NOp   1
 Largest concise Abelian subgroup C1      NOp   1
                         Standard orientation:                         
 ---------------------------------------------------------------------
 Center     Atomic      Atomic             Coordinates (Angstroms)
 Number     Number       Type             X           Y           Z
 ---------------------------------------------------------------------
      1          5           0       -1.025008   -0.582486   -0.025658
      2          9           0       -1.835261    0.031357   -0.972055
      3          9           0       -1.445518   -0.340706    1.282136
      4          9           0       -0.899722   -1.942836   -0.285085
      5          8           0        0.399043    0.034449   -0.178762
      6          6           0        1.500462   -0.855562    0.241526
      7          6           0        2.838197   -0.371585   -0.268728
      8          6           0        0.591868    1.404302    0.342656
      9          6           0       -0.417899    2.399870   -0.176569
     10          1           0        1.456708   -0.918997    1.335256
     11          1           0        1.239681   -1.819476   -0.190413
     12          1           0        3.547098   -1.196383   -0.135812
     13          1           0        2.785518   -0.134451   -1.337910
     14          1           0        3.226449    0.492910    0.279410
     15          1           0        0.580627    1.324838    1.435137
     16          1           0        1.591879    1.680683    0.007540
     17          1           0       -0.071131    3.385817    0.154865
     18          1           0       -0.454320    2.395462   -1.270427
     19          1           0       -1.421078    2.233947    0.222462
 ---------------------------------------------------------------------
 Rotational constants (GHZ):           1.8430496           1.3889884           0.9835058
 Standard basis: Aug-CC-pVDZ (5D, 7F)
 There are   315 symmetry adapted cartesian basis functions of A   symmetry.
 There are   297 symmetry adapted basis functions of A   symmetry.
   297 basis functions,   497 primitive gaussians,   315 cartesian basis functions
    37 alpha electrons       37 beta electrons
       nuclear repulsion energy       525.3847265762 Hartrees.
 NAtoms=   19 NActive=   19 NUniq=   19 SFac= 1.00D+00 NAtFMM=   60 NAOKFM=F Big=F
 Integral buffers will be    131072 words long.
 Raffenetti 2 integral format.
 Two-electron integral symmetry is turned on.
 Nuclear repulsion after empirical dispersion term =      525.3725692666 Hartrees.
 Force PCM accuracy= 1.00D-12.
 ------------------------------------------------------------------------------
 Polarizable Continuum Model (PCM)
 =================================
 Model                : C-PCM.
 Atomic radii         : UFF (Universal Force Field).
 Polarization charges : Total charges.
 Charge compensation  : None.
 Solution method      : On-the-fly selection.
 Cavity type          : Scaled VdW (van der Waals Surface) (Alpha=1.100).
 Cavity algorithm     : GePol (No added spheres)
                        Default sphere list used, NSphG=   19.
                        Lebedev-Laikov grids with approx.  5.0 points / Ang**2.
                        Smoothing algorithm: York/Karplus (Gamma=1.0000).
                        Polarization charges: spherical gaussians, with
                                              point-specific exponents (IZeta= 3).
                        Self-potential: point-specific (ISelfS= 7).
                        Self-field    : sphere-specific E.n sum rule (ISelfD= 2).
 1st derivatives      : Analytical E(r).r(x)/FMM algorithm (CHGder, D1EAlg=3).
                        Cavity 1st derivative terms included.
 Solvent              : DiMethylSulfoxide, Eps=  46.826000 Eps(inf)=   2.007889
 ------------------------------------------------------------------------------
 Spheres list:
 ISph  on   Nord     Re0    Alpha      Xe            Ye            Ze
    1   B      1    2.0415  1.100     -1.025008     -0.582486     -0.025658
    2   F      2    1.6820  1.100     -1.835261      0.031357     -0.972055
    3   F      3    1.6820  1.100     -1.445518     -0.340706      1.282136
    4   F      4    1.6820  1.100     -0.899722     -1.942836     -0.285085
    5   O      5    1.7500  1.100      0.399043      0.034449     -0.178762
    6   C      6    1.9255  1.100      1.500462     -0.855562      0.241526
    7   C      7    1.9255  1.100      2.838197     -0.371585     -0.268728
    8   C      8    1.9255  1.100      0.591868      1.404302      0.342656
    9   C      9    1.9255  1.100     -0.417899      2.399870     -0.176569
   10   H     10    1.4430  1.100      1.456708     -0.918997      1.335256
   11   H     11    1.4430  1.100      1.239681     -1.819476     -0.190413
   12   H     12    1.4430  1.100      3.547098     -1.196383     -0.135812
   13   H     13    1.4430  1.100      2.785518     -0.134451     -1.337910
   14   H     14    1.4430  1.100      3.226449      0.492910      0.279410
   15   H     15    1.4430  1.100      0.580627      1.324838      1.435137
   16   H     16    1.4430  1.100      1.591879      1.680683      0.007540
   17   H     17    1.4430  1.100     -0.071131      3.385817      0.154865
   18   H     18    1.4430  1.100     -0.454320      2.395462     -1.270427
   19   H     19    1.4430  1.100     -1.421078      2.233947      0.222462
 ------------------------------------------------------------------------------
 One-electron integrals computed using PRISM.
 NBasis=   297 RedAO= T EigKep=  3.00D-05  NBF=   297
 NBsUse=   297 1.00D-06 EigRej= -1.00D+00 NBFU=   297
 Initial guess from the checkpoint file:  "/inspire/hdd/project/materialscienceresearch/lipenghui-253107030018/g16/00-B-DFT-Shift/04-output/BF3OEt2_DMSO-d6/BF3OEt2_DMSO-d6.chk"
 B after Tr=    -0.000000   -0.000000   -0.000000
         Rot=    0.999431   -0.001019    0.002704    0.033604 Ang=  -3.87 deg.
 ExpMin= 2.38D-02 ExpMax= 1.47D+04 ExpMxC= 5.03D+02 IAcc=3 IRadAn=         5 AccDes= 0.00D+00
 Harris functional with IExCor= 4639 and IRadAn=       5 diagonalized for initial guess.
 HarFok:  IExCor= 4639 AccDes= 0.00D+00 IRadAn=         5 IDoV= 1 UseB2=F ITyADJ=14
 ICtDFT=  3500011 ScaDFX=  1.000000  1.000000  1.000000  1.000000
 FoFCou: FMM=F IPFlag=           0 FMFlag=      100000 FMFlg1=           0
         NFxFlg=           0 DoJE=T BraDBF=F KetDBF=T FulRan=T
         wScrn=  0.000000 ICntrl=       500 IOpCl=  0 I1Cent=   200000004 NGrid=           0
         NMat0=    1 NMatS0=      1 NMatT0=    0 NMatD0=    1 NMtDS0=    0 NMtDT0=    0
 Petite list used in FoFCou.
 Requested convergence on RMS density matrix=1.00D-08 within 128 cycles.
 Requested convergence on MAX density matrix=1.00D-06.
 Requested convergence on             energy=1.00D-06.
 No special actions if energy rises.
 Inv3:  Mode=1 IEnd=     6750000.
 Iteration    1 A*A^-1 deviation from unit magnitude is 3.77D-15 for   1490.
 Iteration    1 A*A^-1 deviation from orthogonality  is 1.74D-15 for   1498    886.
 Iteration    1 A^-1*A deviation from unit magnitude is 3.77D-15 for   1490.
 Iteration    1 A^-1*A deviation from orthogonality  is 1.53D-15 for   1180    201.
 Error on total polarization charges =  0.01103
 SCF Done:  E(RwB97XD) =  -558.150134406     A.U. after   11 cycles
            NFock= 11  Conv=0.63D-08     -V/T= 2.0060
 D1PCM: C-PCM CHGder 1st derivatives, ID1Alg=3 FixD1E=F DoIter=F DoCFld=F I1PDM=0.
 Calling FoFJK, ICntrl=      2127 FMM=F ISym2X=0 I1Cent= 0 IOpClX= 0 NMat=1 NMatS=1 NMatT=0.
 ***** Axes restored to original set *****
 -------------------------------------------------------------------
 Center     Atomic                   Forces (Hartrees/Bohr)
 Number     Number              X              Y              Z
 -------------------------------------------------------------------
      1        5          -0.007260120    0.004438950   -0.000236675
      2        9           0.001117587   -0.000121796    0.000747224
      3        9           0.000810187    0.000176243   -0.000355757
      4        9          -0.000709948   -0.000151837   -0.000177103
      5        8           0.006752959   -0.001213202    0.000797856
      6        6           0.000689759    0.000204177   -0.000627218
      7        6          -0.000765370   -0.000760906    0.000008438
      8        6           0.000310355   -0.000387682   -0.000724297
      9        6          -0.001407572   -0.001521792   -0.000250653
     10        1           0.000443726   -0.000769930    0.000478749
     11        1           0.000039924   -0.000760582   -0.000260809
     12        1           0.000364348   -0.001037690   -0.000103652
     13        1          -0.000294155   -0.000088845   -0.000456388
     14        1          -0.000286753   -0.000685416    0.000113732
     15        1          -0.000013896    0.000618785    0.000702881
     16        1           0.000489831    0.001289178    0.000349869
     17        1           0.000477393    0.000586464    0.000233677
     18        1           0.000190001   -0.000091349   -0.000590633
     19        1          -0.000948258    0.000277230    0.000350758
 -------------------------------------------------------------------
 Cartesian Forces:  Max     0.007260120 RMS     0.001563606

 GradGradGradGradGradGradGradGradGradGradGradGradGradGradGradGradGradGrad
 Berny optimization.
 Using GEDIIS/GDIIS optimizer.
 FormGI is forming the generalized inverse of G from B-inverse, IUseBI=4.
 Internal  Forces:  Max     0.007345150 RMS     0.001522443
 Search for a local minimum.
 Step number   4 out of a maximum of   97
 All quantities printed in internal units (Hartrees-Bohrs-Radians)
 Mixed Optimization -- RFO/linear search
 Update second derivatives using D2CorX and points    2    3    4
 DE= -1.77D-03 DEPred=-1.94D-03 R= 9.16D-01
 TightC=F SS=  1.41D+00  RLast= 2.14D-01 DXNew= 1.4270D+00 6.4195D-01
 Trust test= 9.16D-01 RLast= 2.14D-01 DXMaxT set to 8.49D-01
 ITU=  1  1  1  0
 Use linear search instead of GDIIS.
     Eigenvalues ---    0.00256   0.00267   0.01275   0.01341   0.01372
     Eigenvalues ---    0.02371   0.04160   0.04439   0.05072   0.05198
     Eigenvalues ---    0.05220   0.05341   0.05892   0.05976   0.09755
     Eigenvalues ---    0.10120   0.12617   0.12653   0.12841   0.13014
     Eigenvalues ---    0.15471   0.16000   0.16000   0.16001   0.16002
     Eigenvalues ---    0.16068   0.17475   0.19200   0.20424   0.22120
     Eigenvalues ---    0.24565   0.25001   0.26837   0.28149   0.28461
     Eigenvalues ---    0.28498   0.28741   0.29287   0.31828   0.31856
     Eigenvalues ---    0.31935   0.31988   0.32094   0.32141   0.32160
     Eigenvalues ---    0.32251   0.32258   0.34137   0.38610   0.41900
     Eigenvalues ---    0.43920
 RFO step:  Lambda=-1.12741582D-03 EMin= 2.55942099D-03
 Quartic linear search produced a step of -0.03547.
 Iteration  1 RMS(Cart)=  0.04577865 RMS(Int)=  0.00076452
 Iteration  2 RMS(Cart)=  0.00106966 RMS(Int)=  0.00007299
 Iteration  3 RMS(Cart)=  0.00000053 RMS(Int)=  0.00007299
 Variable       Old X    -DE/DX   Delta X   Delta X   Delta X     New X
                                 (Linear)    (Quad)   (Total)
    R1        2.62460  -0.00051  -0.00068  -0.00258  -0.00326   2.62134
    R2        2.63589  -0.00040  -0.00075  -0.00114  -0.00189   2.63399
    R3        2.62771   0.00065  -0.00057   0.00044  -0.00014   2.62757
    R4        2.94699   0.00735  -0.00217   0.04626   0.04409   2.99108
    R5        2.79135   0.00367  -0.00012   0.01251   0.01239   2.80374
    R6        2.79370  -0.00036  -0.00041   0.00594   0.00553   2.79923
    R7        2.85601   0.00056   0.00015  -0.00100  -0.00085   2.85515
    R8        2.07197   0.00049   0.00008  -0.00035  -0.00027   2.07170
    R9        2.05599   0.00033   0.00005  -0.00104  -0.00099   2.05500
   R10        2.07052   0.00094   0.00009   0.00092   0.00101   2.07153
   R11        2.07195   0.00034   0.00006  -0.00050  -0.00044   2.07151
   R12        2.06884  -0.00026   0.00004  -0.00212  -0.00208   2.06675
   R13        2.85366  -0.00087   0.00001  -0.00453  -0.00451   2.84915
   R14        2.07005   0.00061   0.00008  -0.00005   0.00003   2.07009
   R15        2.06033  -0.00042   0.00005  -0.00315  -0.00311   2.05722
   R16        2.07198   0.00067   0.00007   0.00036   0.00043   2.07240
   R17        2.06826   0.00059   0.00008  -0.00002   0.00006   2.06831
   R18        2.06415   0.00097   0.00013   0.00061   0.00073   2.06488
    A1        1.96752   0.00018  -0.00055   0.00365   0.00299   1.97051
    A2        1.93672   0.00075  -0.00043   0.01176   0.01131   1.94803
    A3        1.86605  -0.00187   0.00022  -0.01223  -0.01207   1.85398
    A4        1.95160   0.00050  -0.00033   0.00944   0.00909   1.96068
    A5        1.87420  -0.00118   0.00032  -0.01086  -0.01060   1.86360
    A6        1.86129   0.00151   0.00089  -0.00428  -0.00341   1.85788
    A7        1.99830   0.00070  -0.00028   0.01077   0.01039   2.00869
    A8        2.03873  -0.00451  -0.00124  -0.00651  -0.00810   2.03064
    A9        1.93981   0.00402   0.00017   0.02163   0.02176   1.96157
   A10        1.95087   0.00379   0.00079   0.01015   0.01093   1.96180
   A11        1.86391  -0.00077   0.00081  -0.00305  -0.00228   1.86162
   A12        1.81536  -0.00080   0.00086  -0.01357  -0.01271   1.80265
   A13        1.97212  -0.00099  -0.00043   0.00263   0.00221   1.97433
   A14        1.94103  -0.00187  -0.00111  -0.00344  -0.00449   1.93654
   A15        1.91262   0.00071  -0.00083   0.00614   0.00532   1.91794
   A16        1.86572   0.00071   0.00049  -0.00343  -0.00294   1.86277
   A17        1.93474  -0.00033  -0.00004  -0.00103  -0.00108   1.93366
   A18        1.97984   0.00022  -0.00018   0.00406   0.00387   1.98372
   A19        1.88829  -0.00029   0.00011  -0.00339  -0.00328   1.88501
   A20        1.87994  -0.00062  -0.00017  -0.00273  -0.00290   1.87704
   A21        1.91187   0.00029  -0.00018   0.00581   0.00561   1.91748
   A22        1.98493  -0.00490  -0.00030  -0.02084  -0.02123   1.96370
   A23        1.85792   0.00179   0.00072  -0.00635  -0.00579   1.85213
   A24        1.81946   0.00267   0.00118   0.00708   0.00834   1.82781
   A25        1.96479   0.00054  -0.00042  -0.00029  -0.00093   1.96386
   A26        1.91825   0.00047  -0.00049   0.00986   0.00940   1.92766
   A27        1.91170  -0.00033  -0.00059   0.01156   0.01097   1.92267
   A28        1.85190   0.00073   0.00050  -0.00172  -0.00122   1.85069
   A29        1.94254  -0.00020  -0.00006  -0.00102  -0.00108   1.94146
   A30        1.96966  -0.00058  -0.00024  -0.00139  -0.00163   1.96803
   A31        1.89258  -0.00016   0.00010  -0.00040  -0.00030   1.89227
   A32        1.89297  -0.00005  -0.00008   0.00213   0.00206   1.89503
   A33        1.91127   0.00028  -0.00019   0.00237   0.00218   1.91345
    D1       -2.66736   0.00021  -0.00120   0.00818   0.00695  -2.66041
    D2        1.30493  -0.00196   0.00011  -0.03029  -0.03006   1.27487
    D3        1.50003   0.00168  -0.00085   0.01652   0.01555   1.51558
    D4       -0.81087  -0.00049   0.00046  -0.02195  -0.02146  -0.83232
    D5       -0.59445   0.00090  -0.00112   0.01345   0.01225  -0.58220
    D6       -2.90535  -0.00126   0.00019  -0.02502  -0.02476  -2.93010
    D7        2.87089  -0.00013   0.00116  -0.06259  -0.06159   2.80930
    D8       -1.24716   0.00051   0.00173  -0.05496  -0.05340  -1.30056
    D9        0.77500   0.00061   0.00154  -0.05553  -0.05411   0.72089
   D10       -1.05538  -0.00198  -0.00075  -0.03914  -0.03976  -1.09513
   D11        1.10976  -0.00135  -0.00019  -0.03152  -0.03157   1.07819
   D12        3.13192  -0.00124  -0.00037  -0.03208  -0.03228   3.09965
   D13       -0.91606   0.00095  -0.00000   0.03583   0.03574  -0.88033
   D14        1.25761  -0.00029  -0.00021   0.01701   0.01685   1.27446
   D15       -3.00512   0.00130   0.00000   0.03052   0.03049  -2.97463
   D16        3.02998   0.00017   0.00145   0.00293   0.00434   3.03431
   D17       -1.07953  -0.00107   0.00124  -0.01590  -0.01455  -1.09409
   D18        0.94092   0.00052   0.00146  -0.00239  -0.00091   0.94001
   D19       -2.89979   0.00031   0.00106   0.01054   0.01161  -2.88818
   D20       -0.84552   0.00019   0.00146   0.00390   0.00537  -0.84014
   D21        1.31394   0.00048   0.00106   0.01382   0.01489   1.32883
   D22        1.28030  -0.00075  -0.00027   0.00525   0.00495   1.28525
   D23       -2.94861  -0.00086   0.00013  -0.00140  -0.00129  -2.94990
   D24       -0.78915  -0.00058  -0.00028   0.00852   0.00822  -0.78093
   D25       -0.87923   0.00050   0.00190  -0.00219  -0.00027  -0.87950
   D26        1.17504   0.00039   0.00231  -0.00883  -0.00651   1.16853
   D27       -2.94869   0.00067   0.00190   0.00109   0.00300  -2.94568
   D28       -2.99007  -0.00064   0.00030  -0.04073  -0.04039  -3.03045
   D29       -0.93463  -0.00051   0.00068  -0.04277  -0.04205  -0.97668
   D30        1.22243  -0.00072   0.00021  -0.04146  -0.04121   1.18122
   D31        1.17811   0.00027  -0.00011  -0.01641  -0.01654   1.16157
   D32       -3.04965   0.00040   0.00028  -0.01845  -0.01819  -3.06784
   D33       -0.89258   0.00018  -0.00020  -0.01714  -0.01736  -0.90994
   D34       -0.95797  -0.00002   0.00126  -0.03820  -0.03697  -0.99494
   D35        1.09746   0.00011   0.00164  -0.04024  -0.03862   1.05884
   D36       -3.02866  -0.00010   0.00117  -0.03893  -0.03779  -3.06645
         Item               Value     Threshold  Converged?
 Maximum Force            0.007345     0.000450     NO 
 RMS     Force            0.001522     0.000300     NO 
 Maximum Displacement     0.136355     0.001800     NO 
 RMS     Displacement     0.045619     0.001200     NO 
 Predicted change in Energy=-5.847752D-04
 GradGradGradGradGradGradGradGradGradGradGradGradGradGradGradGradGradGrad

                          Input orientation:                          
 ---------------------------------------------------------------------
 Center     Atomic      Atomic             Coordinates (Angstroms)
 Number     Number       Type             X           Y           Z
 ---------------------------------------------------------------------
      1          5           0       -1.779026    0.720430   -0.080216
      2          9           0       -1.682231    1.813882   -0.928265
      3          9           0       -1.948524    1.082854    1.254974
      4          9           0       -2.748989   -0.177751   -0.511253
      5          8           0       -0.392609   -0.037241   -0.175485
      6          6           0       -0.451995   -1.494456    0.097077
      7          6           0        0.752809   -2.230474   -0.440964
      8          6           0        0.759766    0.614537    0.488918
      9          6           0        0.909082    2.062577    0.096419
     10          1           0       -0.576656   -1.606803    1.180454
     11          1           0       -1.359288   -1.807524   -0.414172
     12          1           0        0.501303   -3.297391   -0.430718
     13          1           0        0.954899   -1.939973   -1.478468
     14          1           0        1.654154   -2.098363    0.164228
     15          1           0        0.602975    0.485625    1.565390
     16          1           0        1.626609    0.041306    0.164705
     17          1           0        1.847213    2.404257    0.550123
     18          1           0        0.989896    2.172695   -0.989528
     19          1           0        0.094151    2.687794    0.469195
 ---------------------------------------------------------------------
                    Distance matrix (angstroms):
                    1          2          3          4          5
     1  B    0.000000
     2  F    1.387153   0.000000
     3  F    1.393849   2.317725   0.000000
     4  F    1.390450   2.297493   2.312883   0.000000
     5  O    1.582812   2.378331   2.392007   2.384326   0.000000
     6  C    2.588081   3.675583   3.197320   2.716608   1.483675
     7  C    3.904889   4.745913   4.599081   4.059705   2.488520
     8  C    2.603957   3.067602   2.853244   3.733554   1.481288
     9  C    3.009732   2.797629   3.235432   4.332415   2.485472
    10  H    2.907060   4.167742   3.020237   3.102111   2.082299
    11  H    2.584232   3.671943   3.389326   2.144027   2.031094
    12  H    4.633102   5.580365   5.294313   4.505889   3.390103
    13  H    4.062905   4.620455   5.003905   4.214229   2.670942
    14  H    4.448827   5.256487   4.928403   4.851050   2.924528
    15  H    2.904666   3.633834   2.638786   3.998522   2.072492
    16  H    3.481314   3.909608   3.880089   4.432919   2.049181
    17  H    4.047495   3.871841   4.080508   5.377580   3.391788
    18  H    3.256201   2.696805   3.854848   4.442140   2.730898
    19  H    2.771492   2.423252   2.714002   4.154043   2.842247
                    6          7          8          9         10
     6  C    0.000000
     7  C    1.510881   0.000000
     8  C    2.463688   2.993128   0.000000
     9  C    3.808546   4.329375   1.507704   0.000000
    10  H    1.096298   2.187565   2.683021   4.104498   0.000000
    11  H    1.087459   2.154196   3.342506   4.514852   1.787634
    12  H    2.106636   1.096209   4.026874   5.401242   2.572150
    13  H    2.158744   1.096196   3.230203   4.301486   3.086508
    14  H    2.192048   1.093678   2.874923   4.227665   2.500172
    15  H    2.681348   3.380103   1.095443   2.176777   2.432685
    16  H    2.585292   2.508255   1.088635   2.145937   2.932982
    17  H    4.548800   4.864227   2.095086   1.096669   4.728749
    18  H    4.087512   4.443537   2.160235   1.094503   4.631146
    19  H    4.234143   5.044956   2.177574   1.092690   4.404479
                   11         12         13         14         15
    11  H    0.000000
    12  H    2.383648   0.000000
    13  H    2.550634   1.773729   0.000000
    14  H    3.082201   1.766549   1.792343   0.000000
    15  H    3.609387   4.278550   3.907998   3.121734   0.000000
    16  H    3.559333   3.573197   2.660203   2.139846   1.790856
    17  H    5.380578   5.939892   4.876858   4.523248   2.502009
    18  H    4.657450   5.520220   4.141778   4.473737   3.086020
    19  H    4.806320   6.066140   5.094164   5.043205   2.511991
                   16         17         18         19
    16  H    0.000000
    17  H    2.404320   0.000000
    18  H    2.506088   1.777396   0.000000
    19  H    3.073279   1.777686   1.787612   0.000000
 Stoichiometry    C4H10BF3O
 Framework group  C1[X(C4H10BF3O)]
 Deg. of freedom    51
 Full point group                 C1      NOp   1
 Largest Abelian subgroup         C1      NOp   1
 Largest concise Abelian subgroup C1      NOp   1
                         Standard orientation:                         
 ---------------------------------------------------------------------
 Center     Atomic      Atomic             Coordinates (Angstroms)
 Number     Number       Type             X           Y           Z
 ---------------------------------------------------------------------
      1          5           0       -1.004237   -0.628208   -0.027054
      2          9           0       -1.812242   -0.031908   -0.984001
      3          9           0       -1.448608   -0.403040    1.274733
      4          9           0       -0.807738   -1.978923   -0.292208
      5          8           0        0.413721    0.063960   -0.151921
      6          6           0        1.562825   -0.775809    0.267175
      7          6           0        2.875808   -0.272275   -0.285357
      8          6           0        0.514637    1.452037    0.355299
      9          6           0       -0.570923    2.345777   -0.188721
     10          1           0        1.542476   -0.812326    1.362676
     11          1           0        1.319051   -1.754166   -0.140206
     12          1           0        3.605185   -1.079435   -0.150547
     13          1           0        2.792853   -0.066399   -1.358846
     14          1           0        3.260820    0.610105    0.233587
     15          1           0        0.489720    1.379107    1.448027
     16          1           0        1.492704    1.797112    0.024490
     17          1           0       -0.330749    3.358642    0.156393
     18          1           0       -0.573758    2.344936   -1.283219
     19          1           0       -1.563676    2.078235    0.181188
 ---------------------------------------------------------------------
 Rotational constants (GHZ):           1.8444158           1.3770309           0.9801453
 Standard basis: Aug-CC-pVDZ (5D, 7F)
 There are   315 symmetry adapted cartesian basis functions of A   symmetry.
 There are   297 symmetry adapted basis functions of A   symmetry.
   297 basis functions,   497 primitive gaussians,   315 cartesian basis functions
    37 alpha electrons       37 beta electrons
       nuclear repulsion energy       524.4063362962 Hartrees.
 NAtoms=   19 NActive=   19 NUniq=   19 SFac= 1.00D+00 NAtFMM=   60 NAOKFM=F Big=F
 Integral buffers will be    131072 words long.
 Raffenetti 2 integral format.
 Two-electron integral symmetry is turned on.
 Nuclear repulsion after empirical dispersion term =      524.3942300098 Hartrees.
 Force PCM accuracy= 1.00D-12.
 ------------------------------------------------------------------------------
 Polarizable Continuum Model (PCM)
 =================================
 Model                : C-PCM.
 Atomic radii         : UFF (Universal Force Field).
 Polarization charges : Total charges.
 Charge compensation  : None.
 Solution method      : On-the-fly selection.
 Cavity type          : Scaled VdW (van der Waals Surface) (Alpha=1.100).
 Cavity algorithm     : GePol (No added spheres)
                        Default sphere list used, NSphG=   19.
                        Lebedev-Laikov grids with approx.  5.0 points / Ang**2.
                        Smoothing algorithm: York/Karplus (Gamma=1.0000).
                        Polarization charges: spherical gaussians, with
                                              point-specific exponents (IZeta= 3).
                        Self-potential: point-specific (ISelfS= 7).
                        Self-field    : sphere-specific E.n sum rule (ISelfD= 2).
 1st derivatives      : Analytical E(r).r(x)/FMM algorithm (CHGder, D1EAlg=3).
                        Cavity 1st derivative terms included.
 Solvent              : DiMethylSulfoxide, Eps=  46.826000 Eps(inf)=   2.007889
 ------------------------------------------------------------------------------
 Spheres list:
 ISph  on   Nord     Re0    Alpha      Xe            Ye            Ze
    1   B      1    2.0415  1.100     -1.004237     -0.628208     -0.027054
    2   F      2    1.6820  1.100     -1.812242     -0.031908     -0.984001
    3   F      3    1.6820  1.100     -1.448608     -0.403040      1.274733
    4   F      4    1.6820  1.100     -0.807738     -1.978923     -0.292208
    5   O      5    1.7500  1.100      0.413721      0.063960     -0.151921
    6   C      6    1.9255  1.100      1.562825     -0.775809      0.267175
    7   C      7    1.9255  1.100      2.875808     -0.272275     -0.285357
    8   C      8    1.9255  1.100      0.514637      1.452037      0.355299
    9   C      9    1.9255  1.100     -0.570923      2.345777     -0.188721
   10   H     10    1.4430  1.100      1.542476     -0.812326      1.362676
   11   H     11    1.4430  1.100      1.319051     -1.754166     -0.140206
   12   H     12    1.4430  1.100      3.605185     -1.079435     -0.150547
   13   H     13    1.4430  1.100      2.792853     -0.066399     -1.358846
   14   H     14    1.4430  1.100      3.260820      0.610105      0.233587
   15   H     15    1.4430  1.100      0.489720      1.379107      1.448027
   16   H     16    1.4430  1.100      1.492704      1.797112      0.024490
   17   H     17    1.4430  1.100     -0.330749      3.358642      0.156393
   18   H     18    1.4430  1.100     -0.573758      2.344936     -1.283219
   19   H     19    1.4430  1.100     -1.563676      2.078235      0.181188
 ------------------------------------------------------------------------------
 One-electron integrals computed using PRISM.
 NBasis=   297 RedAO= T EigKep=  3.17D-05  NBF=   297
 NBsUse=   297 1.00D-06 EigRej= -1.00D+00 NBFU=   297
 Initial guess from the checkpoint file:  "/inspire/hdd/project/materialscienceresearch/lipenghui-253107030018/g16/00-B-DFT-Shift/04-output/BF3OEt2_DMSO-d6/BF3OEt2_DMSO-d6.chk"
 B after Tr=     0.000000    0.000000   -0.000000
         Rot=    0.999711    0.001168    0.002065   -0.023942 Ang=   2.76 deg.
 ExpMin= 2.38D-02 ExpMax= 1.47D+04 ExpMxC= 5.03D+02 IAcc=3 IRadAn=         5 AccDes= 0.00D+00
 Harris functional with IExCor= 4639 and IRadAn=       5 diagonalized for initial guess.
 HarFok:  IExCor= 4639 AccDes= 0.00D+00 IRadAn=         5 IDoV= 1 UseB2=F ITyADJ=14
 ICtDFT=  3500011 ScaDFX=  1.000000  1.000000  1.000000  1.000000
 FoFCou: FMM=F IPFlag=           0 FMFlag=      100000 FMFlg1=           0
         NFxFlg=           0 DoJE=T BraDBF=F KetDBF=T FulRan=T
         wScrn=  0.000000 ICntrl=       500 IOpCl=  0 I1Cent=   200000004 NGrid=           0
         NMat0=    1 NMatS0=      1 NMatT0=    0 NMatD0=    1 NMtDS0=    0 NMtDT0=    0
 Petite list used in FoFCou.
 Requested convergence on RMS density matrix=1.00D-08 within 128 cycles.
 Requested convergence on MAX density matrix=1.00D-06.
 Requested convergence on             energy=1.00D-06.
 No special actions if energy rises.
 Inv3:  Mode=1 IEnd=     6741003.
 Iteration    1 A*A^-1 deviation from unit magnitude is 5.44D-15 for   1482.
 Iteration    1 A*A^-1 deviation from orthogonality  is 3.44D-15 for   1495    750.
 Iteration    1 A^-1*A deviation from unit magnitude is 5.44D-15 for   1482.
 Iteration    1 A^-1*A deviation from orthogonality  is 1.63D-15 for   1484    771.
 Error on total polarization charges =  0.01105
 SCF Done:  E(RwB97XD) =  -558.150487864     A.U. after   11 cycles
            NFock= 11  Conv=0.51D-08     -V/T= 2.0060
 D1PCM: C-PCM CHGder 1st derivatives, ID1Alg=3 FixD1E=F DoIter=F DoCFld=F I1PDM=0.
 Calling FoFJK, ICntrl=      2127 FMM=F ISym2X=0 I1Cent= 0 IOpClX= 0 NMat=1 NMatS=1 NMatT=0.
 ***** Axes restored to original set *****
 -------------------------------------------------------------------
 Center     Atomic                   Forces (Hartrees/Bohr)
 Number     Number              X              Y              Z
 -------------------------------------------------------------------
      1        5          -0.001826997    0.000808980    0.000018201
      2        9          -0.001555281   -0.001195659    0.000072832
      3        9          -0.000092118   -0.000237103   -0.001144871
      4        9           0.000538283    0.001236821    0.000419868
      5        8           0.004243054   -0.002331137    0.000228924
      6        6          -0.000110210    0.005242987   -0.000499339
      7        6          -0.001180337    0.000267695   -0.000373189
      8        6          -0.006074666   -0.002187333   -0.001080703
      9        6           0.001850386   -0.000149727    0.000746246
     10        1           0.000284764   -0.000882295    0.000411471
     11        1          -0.000626445   -0.001456555    0.000241329
     12        1           0.000338261   -0.000859746    0.000000762
     13        1           0.000116551    0.000158770   -0.000401708
     14        1           0.000593112    0.000727597    0.000511006
     15        1           0.001032276    0.000342813    0.000820274
     16        1           0.001646227   -0.000657924   -0.000008061
     17        1           0.000550976    0.000952719    0.000118173
     18        1           0.000026019    0.000100550   -0.000443265
     19        1           0.000246145    0.000118548    0.000362051
 -------------------------------------------------------------------
 Cartesian Forces:  Max     0.006074666 RMS     0.001471088

 GradGradGradGradGradGradGradGradGradGradGradGradGradGradGradGradGradGrad
 Berny optimization.
 Using GEDIIS/GDIIS optimizer.
 FormGI is forming the generalized inverse of G from B-inverse, IUseBI=4.
 Internal  Forces:  Max     0.003793306 RMS     0.001114157
 Search for a local minimum.
 Step number   5 out of a maximum of   97
 All quantities printed in internal units (Hartrees-Bohrs-Radians)
 Mixed Optimization -- RFO/linear search
 Update second derivatives using D2CorX and points    2    3    4    5
 DE= -3.53D-04 DEPred=-5.85D-04 R= 6.04D-01
 TightC=F SS=  1.41D+00  RLast= 1.83D-01 DXNew= 1.4270D+00 5.5040D-01
 Trust test= 6.04D-01 RLast= 1.83D-01 DXMaxT set to 8.49D-01
 ITU=  1  1  1  1  0
 Use linear search instead of GDIIS.
     Eigenvalues ---    0.00252   0.00278   0.01060   0.01344   0.01440
     Eigenvalues ---    0.02343   0.04328   0.04575   0.05150   0.05224
     Eigenvalues ---    0.05287   0.05556   0.05931   0.06004   0.09832
     Eigenvalues ---    0.10518   0.12560   0.12749   0.12868   0.12987
     Eigenvalues ---    0.13756   0.16000   0.16000   0.16000   0.16019
     Eigenvalues ---    0.16085   0.16729   0.19591   0.20705   0.22154
     Eigenvalues ---    0.24803   0.25045   0.27025   0.28329   0.28445
     Eigenvalues ---    0.28561   0.28814   0.31482   0.31838   0.31935
     Eigenvalues ---    0.31988   0.32092   0.32138   0.32157   0.32189
     Eigenvalues ---    0.32255   0.33651   0.35146   0.37946   0.41780
     Eigenvalues ---    0.47709
 RFO step:  Lambda=-3.17395401D-04 EMin= 2.51878799D-03
 Quartic linear search produced a step of -0.27117.
 Iteration  1 RMS(Cart)=  0.02602419 RMS(Int)=  0.00036880
 Iteration  2 RMS(Cart)=  0.00040911 RMS(Int)=  0.00001996
 Iteration  3 RMS(Cart)=  0.00000014 RMS(Int)=  0.00001996
 Variable       Old X    -DE/DX   Delta X   Delta X   Delta X     New X
                                 (Linear)    (Quad)   (Total)
    R1        2.62134  -0.00110   0.00088  -0.00682  -0.00593   2.61541
    R2        2.63399  -0.00115   0.00051  -0.00613  -0.00561   2.62838
    R3        2.62757  -0.00130   0.00004  -0.00547  -0.00543   2.62214
    R4        2.99108   0.00283  -0.01196   0.03064   0.01868   3.00976
    R5        2.80374  -0.00314  -0.00336   0.00196  -0.00140   2.80234
    R6        2.79923  -0.00099  -0.00150   0.00168   0.00018   2.79941
    R7        2.85515  -0.00015   0.00023  -0.00106  -0.00083   2.85432
    R8        2.07170   0.00046   0.00007   0.00078   0.00086   2.07256
    R9        2.05500   0.00083   0.00027   0.00109   0.00136   2.05636
   R10        2.07153   0.00076  -0.00027   0.00221   0.00193   2.07347
   R11        2.07151   0.00044   0.00012   0.00063   0.00075   2.07226
   R12        2.06675   0.00086   0.00057   0.00061   0.00118   2.06793
   R13        2.84915   0.00105   0.00122  -0.00018   0.00104   2.85019
   R14        2.07009   0.00062  -0.00001   0.00130   0.00129   2.07138
   R15        2.05722   0.00166   0.00084   0.00182   0.00267   2.05989
   R16        2.07240   0.00082  -0.00012   0.00200   0.00188   2.07428
   R17        2.06831   0.00045  -0.00001   0.00093   0.00091   2.06922
   R18        2.06488   0.00001  -0.00020   0.00032   0.00013   2.06501
    A1        1.97051  -0.00033  -0.00081   0.00250   0.00172   1.97223
    A2        1.94803  -0.00161  -0.00307   0.00100  -0.00206   1.94598
    A3        1.85398   0.00216   0.00327  -0.00056   0.00273   1.85671
    A4        1.96068  -0.00058  -0.00246   0.00310   0.00064   1.96132
    A5        1.86360   0.00023   0.00287  -0.00525  -0.00236   1.86124
    A6        1.85788   0.00046   0.00092  -0.00164  -0.00071   1.85718
    A7        2.00869   0.00020  -0.00282   0.00494   0.00217   2.01086
    A8        2.03064   0.00295   0.00220   0.00464   0.00694   2.03757
    A9        1.96157  -0.00327  -0.00590  -0.00133  -0.00722   1.95434
   A10        1.96180  -0.00276  -0.00296  -0.00224  -0.00521   1.95660
   A11        1.86162   0.00124   0.00062   0.00189   0.00250   1.86412
   A12        1.80265   0.00192   0.00345   0.00571   0.00915   1.81180
   A13        1.97433   0.00015  -0.00060  -0.00280  -0.00340   1.97093
   A14        1.93654   0.00006   0.00122  -0.00269  -0.00148   1.93506
   A15        1.91794  -0.00043  -0.00144   0.00107  -0.00039   1.91755
   A16        1.86277   0.00093   0.00080   0.00384   0.00464   1.86741
   A17        1.93366   0.00000   0.00029  -0.00124  -0.00095   1.93271
   A18        1.98372  -0.00084  -0.00105  -0.00253  -0.00358   1.98014
   A19        1.88501  -0.00019   0.00089  -0.00084   0.00005   1.88507
   A20        1.87704   0.00001   0.00079  -0.00062   0.00017   1.87721
   A21        1.91748   0.00014  -0.00152   0.00151  -0.00001   1.91747
   A22        1.96370   0.00379   0.00576   0.00283   0.00860   1.97231
   A23        1.85213  -0.00041   0.00157   0.00358   0.00520   1.85732
   A24        1.82781  -0.00109  -0.00226   0.00174  -0.00052   1.82729
   A25        1.96386  -0.00126   0.00025  -0.00404  -0.00378   1.96008
   A26        1.92766  -0.00122  -0.00255  -0.00284  -0.00542   1.92224
   A27        1.92267   0.00025  -0.00298  -0.00064  -0.00364   1.91903
   A28        1.85069   0.00105   0.00033   0.00396   0.00429   1.85498
   A29        1.94146  -0.00002   0.00029  -0.00046  -0.00017   1.94129
   A30        1.96803  -0.00014   0.00044  -0.00198  -0.00153   1.96649
   A31        1.89227  -0.00039   0.00008  -0.00105  -0.00097   1.89130
   A32        1.89503  -0.00058  -0.00056  -0.00189  -0.00244   1.89258
   A33        1.91345   0.00007  -0.00059   0.00143   0.00084   1.91428
    D1       -2.66041   0.00010  -0.00188   0.02361   0.02174  -2.63867
    D2        1.27487   0.00171   0.00815   0.01472   0.02283   1.29771
    D3        1.51558  -0.00076  -0.00422   0.02371   0.01954   1.53511
    D4       -0.83232   0.00085   0.00582   0.01482   0.02063  -0.81169
    D5       -0.58220  -0.00045  -0.00332   0.02367   0.02038  -0.56183
    D6       -2.93010   0.00117   0.00671   0.01478   0.02147  -2.90863
    D7        2.80930  -0.00059   0.01670  -0.04022  -0.02347   2.78583
    D8       -1.30056  -0.00132   0.01448  -0.04386  -0.02935  -1.32991
    D9        0.72089  -0.00044   0.01467  -0.03934  -0.02462   0.69628
   D10       -1.09513   0.00057   0.01078  -0.02914  -0.01840  -1.11353
   D11        1.07819  -0.00015   0.00856  -0.03278  -0.02427   1.05392
   D12        3.09965   0.00073   0.00875  -0.02826  -0.01954   3.08010
   D13       -0.88033  -0.00048  -0.00969   0.00128  -0.00840  -0.88873
   D14        1.27446   0.00002  -0.00457   0.00046  -0.00411   1.27035
   D15       -2.97463  -0.00038  -0.00827   0.00209  -0.00618  -2.98081
   D16        3.03431  -0.00034  -0.00118  -0.01004  -0.01122   3.02310
   D17       -1.09409   0.00016   0.00395  -0.01087  -0.00692  -1.10101
   D18        0.94001  -0.00024   0.00025  -0.00923  -0.00899   0.93102
   D19       -2.88818  -0.00053  -0.00315  -0.03194  -0.03509  -2.92326
   D20       -0.84014  -0.00022  -0.00146  -0.03137  -0.03282  -0.87297
   D21        1.32883  -0.00067  -0.00404  -0.03225  -0.03628   1.29255
   D22        1.28525  -0.00021  -0.00134  -0.03069  -0.03204   1.25321
   D23       -2.94990   0.00010   0.00035  -0.03012  -0.02977  -2.97967
   D24       -0.78093  -0.00035  -0.00223  -0.03100  -0.03323  -0.81416
   D25       -0.87950   0.00020   0.00007  -0.02792  -0.02785  -0.90735
   D26        1.16853   0.00051   0.00177  -0.02735  -0.02559   1.14295
   D27       -2.94568   0.00006  -0.00081  -0.02823  -0.02905  -2.97473
   D28       -3.03045   0.00035   0.01095   0.00419   0.01513  -3.01532
   D29       -0.97668   0.00049   0.01140   0.00502   0.01642  -0.96026
   D30        1.18122   0.00047   0.01118   0.00508   0.01624   1.19746
   D31        1.16157  -0.00093   0.00448   0.00041   0.00491   1.16648
   D32       -3.06784  -0.00079   0.00493   0.00124   0.00620  -3.06164
   D33       -0.90994  -0.00082   0.00471   0.00130   0.00602  -0.90392
   D34       -0.99494   0.00056   0.01002   0.00629   0.01630  -0.97863
   D35        1.05884   0.00070   0.01047   0.00712   0.01759   1.07643
   D36       -3.06645   0.00068   0.01025   0.00717   0.01741  -3.04904
         Item               Value     Threshold  Converged?
 Maximum Force            0.003793     0.000450     NO 
 RMS     Force            0.001114     0.000300     NO 
 Maximum Displacement     0.085145     0.001800     NO 
 RMS     Displacement     0.026064     0.001200     NO 
 Predicted change in Energy=-2.178533D-04
 GradGradGradGradGradGradGradGradGradGradGradGradGradGradGradGradGradGrad

                          Input orientation:                          
 ---------------------------------------------------------------------
 Center     Atomic      Atomic             Coordinates (Angstroms)
 Number     Number       Type             X           Y           Z
 ---------------------------------------------------------------------
      1          5           0       -1.795225    0.720368   -0.093391
      2          9           0       -1.707377    1.794631   -0.961571
      3          9           0       -1.964709    1.105457    1.232327
      4          9           0       -2.757881   -0.189672   -0.506290
      5          8           0       -0.396461   -0.037123   -0.173072
      6          6           0       -0.450181   -1.493447    0.101396
      7          6           0        0.751091   -2.221239   -0.454213
      8          6           0        0.752417    0.611879    0.500253
      9          6           0        0.925320    2.057983    0.108188
     10          1           0       -0.554504   -1.607878    1.187162
     11          1           0       -1.363189   -1.817614   -0.394052
     12          1           0        0.524701   -3.293966   -0.410372
     13          1           0        0.916475   -1.952336   -1.504384
     14          1           0        1.666612   -2.053306    0.121214
     15          1           0        0.589793    0.489445    1.577314
     16          1           0        1.620399    0.031741    0.186809
     17          1           0        1.869640    2.388479    0.559737
     18          1           0        1.005627    2.167304   -0.978365
     19          1           0        0.120991    2.695275    0.483727
 ---------------------------------------------------------------------
                    Distance matrix (angstroms):
                    1          2          3          4          5
     1  B    0.000000
     2  F    1.384014   0.000000
     3  F    1.390879   2.313951   0.000000
     4  F    1.387575   2.290916   2.308521   0.000000
     5  O    1.592697   2.386537   2.395837   2.389688   0.000000
     6  C    2.597704   3.677214   3.213581   2.719300   1.482936
     7  C    3.907297   4.735894   4.613772   4.054979   2.483199
     8  C    2.618142   3.096195   2.856979   3.738691   1.481382
     9  C    3.038292   2.853916   3.243958   4.358384   2.493127
    10  H    2.932565   4.186077   3.058252   3.119929   2.083863
    11  H    2.591989   3.672718   3.398717   2.146615   2.038024
    12  H    4.647302   5.583889   5.315124   4.518981   3.392916
    13  H    4.060489   4.606409   5.014071   4.195720   2.676608
    14  H    4.441131   5.230951   4.939519   4.841800   2.899632
    15  H    2.921112   3.664211   2.650277   4.001191   2.076974
    16  H    3.495599   3.937087   3.885740   4.438327   2.049873
    17  H    4.079266   3.932186   4.098873   5.403446   3.399378
    18  H    3.274382   2.738533   3.851957   4.465667   2.733834
    19  H    2.811620   2.498595   2.727281   4.194157   2.857471
                    6          7          8          9         10
     6  C    0.000000
     7  C    1.510442   0.000000
     8  C    2.457178   2.989576   0.000000
     9  C    3.808505   4.319536   1.508254   0.000000
    10  H    1.096752   2.185155   2.665935   4.097878   0.000000
    11  H    1.088181   2.153303   3.343352   4.528772   1.788350
    12  H    2.110490   1.097232   4.017053   5.391916   2.561190
    13  H    2.157975   1.096594   3.258939   4.322398   3.086559
    14  H    2.189668   1.094302   2.842997   4.177605   2.503599
    15  H    2.681742   3.391302   1.096128   2.175137   2.420826
    16  H    2.573090   2.498504   1.090045   2.143589   2.901596
    17  H    4.545437   4.850645   2.099532   1.097663   4.716038
    18  H    4.084894   4.427057   2.160966   1.094987   4.623366
    19  H    4.244739   5.044687   2.177042   1.092756   4.412283
                   11         12         13         14         15
    11  H    0.000000
    12  H    2.396667   0.000000
    13  H    2.539263   1.774914   0.000000
    14  H    3.082328   1.767988   1.793173   0.000000
    15  H    3.608731   4.274264   3.945361   3.121754   0.000000
    16  H    3.557992   3.552113   2.700408   2.086590   1.790292
    17  H    5.390002   5.919473   4.900184   4.467995   2.505954
    18  H    4.672503   5.511749   4.154044   4.411295   3.085388
    19  H    4.831092   6.069053   5.117193   5.006933   2.506271
                   16         17         18         19
    16  H    0.000000
    17  H    2.399044   0.000000
    18  H    2.509224   1.777974   0.000000
    19  H    3.070961   1.776985   1.788588   0.000000
 Stoichiometry    C4H10BF3O
 Framework group  C1[X(C4H10BF3O)]
 Deg. of freedom    51
 Full point group                 C1      NOp   1
 Largest Abelian subgroup         C1      NOp   1
 Largest concise Abelian subgroup C1      NOp   1
                         Standard orientation:                         
 ---------------------------------------------------------------------
 Center     Atomic      Atomic             Coordinates (Angstroms)
 Number     Number       Type             X           Y           Z
 ---------------------------------------------------------------------
      1          5           0       -1.024388   -0.614436   -0.028263
      2          9           0       -1.809125   -0.028615   -1.006269
      3          9           0       -1.479866   -0.357034    1.260468
      4          9           0       -0.845395   -1.970017   -0.264328
      5          8           0        0.415242    0.056641   -0.145759
      6          6           0        1.548262   -0.800124    0.280053
      7          6           0        2.863412   -0.330928   -0.295855
      8          6           0        0.547872    1.442774    0.359748
      9          6           0       -0.502524    2.374248   -0.191483
     10          1           0        1.542104   -0.812104    1.376722
     11          1           0        1.287062   -1.784977   -0.102017
     12          1           0        3.593003   -1.132150   -0.123637
     13          1           0        2.779902   -0.175387   -1.378146
     14          1           0        3.249338    0.575097    0.181300
     15          1           0        0.514021    1.378229    1.453451
     16          1           0        1.538906    1.761390    0.036431
     17          1           0       -0.226443    3.382323    0.143823
     18          1           0       -0.506406    2.363874   -1.286413
     19          1           0       -1.504138    2.147942    0.182243
 ---------------------------------------------------------------------
 Rotational constants (GHZ):           1.8350089           1.3736701           0.9762193
 Standard basis: Aug-CC-pVDZ (5D, 7F)
 There are   315 symmetry adapted cartesian basis functions of A   symmetry.
 There are   297 symmetry adapted basis functions of A   symmetry.
   297 basis functions,   497 primitive gaussians,   315 cartesian basis functions
    37 alpha electrons       37 beta electrons
       nuclear repulsion energy       523.6854401875 Hartrees.
 NAtoms=   19 NActive=   19 NUniq=   19 SFac= 1.00D+00 NAtFMM=   60 NAOKFM=F Big=F
 Integral buffers will be    131072 words long.
 Raffenetti 2 integral format.
 Two-electron integral symmetry is turned on.
 Nuclear repulsion after empirical dispersion term =      523.6733404298 Hartrees.
 Force PCM accuracy= 1.00D-12.
 ------------------------------------------------------------------------------
 Polarizable Continuum Model (PCM)
 =================================
 Model                : C-PCM.
 Atomic radii         : UFF (Universal Force Field).
 Polarization charges : Total charges.
 Charge compensation  : None.
 Solution method      : On-the-fly selection.
 Cavity type          : Scaled VdW (van der Waals Surface) (Alpha=1.100).
 Cavity algorithm     : GePol (No added spheres)
                        Default sphere list used, NSphG=   19.
                        Lebedev-Laikov grids with approx.  5.0 points / Ang**2.
                        Smoothing algorithm: York/Karplus (Gamma=1.0000).
                        Polarization charges: spherical gaussians, with
                                              point-specific exponents (IZeta= 3).
                        Self-potential: point-specific (ISelfS= 7).
                        Self-field    : sphere-specific E.n sum rule (ISelfD= 2).
 1st derivatives      : Analytical E(r).r(x)/FMM algorithm (CHGder, D1EAlg=3).
                        Cavity 1st derivative terms included.
 Solvent              : DiMethylSulfoxide, Eps=  46.826000 Eps(inf)=   2.007889
 ------------------------------------------------------------------------------
 Spheres list:
 ISph  on   Nord     Re0    Alpha      Xe            Ye            Ze
    1   B      1    2.0415  1.100     -1.024388     -0.614436     -0.028263
    2   F      2    1.6820  1.100     -1.809125     -0.028615     -1.006269
    3   F      3    1.6820  1.100     -1.479866     -0.357034      1.260468
    4   F      4    1.6820  1.100     -0.845395     -1.970017     -0.264328
    5   O      5    1.7500  1.100      0.415242      0.056641     -0.145759
    6   C      6    1.9255  1.100      1.548262     -0.800124      0.280053
    7   C      7    1.9255  1.100      2.863412     -0.330928     -0.295855
    8   C      8    1.9255  1.100      0.547872      1.442774      0.359748
    9   C      9    1.9255  1.100     -0.502524      2.374248     -0.191483
   10   H     10    1.4430  1.100      1.542104     -0.812104      1.376722
   11   H     11    1.4430  1.100      1.287062     -1.784977     -0.102017
   12   H     12    1.4430  1.100      3.593003     -1.132150     -0.123637
   13   H     13    1.4430  1.100      2.779902     -0.175387     -1.378146
   14   H     14    1.4430  1.100      3.249338      0.575097      0.181300
   15   H     15    1.4430  1.100      0.514021      1.378229      1.453451
   16   H     16    1.4430  1.100      1.538906      1.761390      0.036431
   17   H     17    1.4430  1.100     -0.226443      3.382323      0.143823
   18   H     18    1.4430  1.100     -0.506406      2.363874     -1.286413
   19   H     19    1.4430  1.100     -1.504138      2.147942      0.182243
 ------------------------------------------------------------------------------
 One-electron integrals computed using PRISM.
 NBasis=   297 RedAO= T EigKep=  3.13D-05  NBF=   297
 NBsUse=   297 1.00D-06 EigRej= -1.00D+00 NBFU=   297
 Initial guess from the checkpoint file:  "/inspire/hdd/project/materialscienceresearch/lipenghui-253107030018/g16/00-B-DFT-Shift/04-output/BF3OEt2_DMSO-d6/BF3OEt2_DMSO-d6.chk"
 B after Tr=    -0.000000   -0.000000    0.000000
         Rot=    0.999937    0.004100    0.001482    0.010361 Ang=   1.29 deg.
 ExpMin= 2.38D-02 ExpMax= 1.47D+04 ExpMxC= 5.03D+02 IAcc=3 IRadAn=         5 AccDes= 0.00D+00
 Harris functional with IExCor= 4639 and IRadAn=       5 diagonalized for initial guess.
 HarFok:  IExCor= 4639 AccDes= 0.00D+00 IRadAn=         5 IDoV= 1 UseB2=F ITyADJ=14
 ICtDFT=  3500011 ScaDFX=  1.000000  1.000000  1.000000  1.000000
 FoFCou: FMM=F IPFlag=           0 FMFlag=      100000 FMFlg1=           0
         NFxFlg=           0 DoJE=T BraDBF=F KetDBF=T FulRan=T
         wScrn=  0.000000 ICntrl=       500 IOpCl=  0 I1Cent=   200000004 NGrid=           0
         NMat0=    1 NMatS0=      1 NMatT0=    0 NMatD0=    1 NMtDS0=    0 NMtDT0=    0
 Petite list used in FoFCou.
 Requested convergence on RMS density matrix=1.00D-08 within 128 cycles.
 Requested convergence on MAX density matrix=1.00D-06.
 Requested convergence on             energy=1.00D-06.
 No special actions if energy rises.
 Inv3:  Mode=1 IEnd=     6795075.
 Iteration    1 A*A^-1 deviation from unit magnitude is 3.55D-15 for   1486.
 Iteration    1 A*A^-1 deviation from orthogonality  is 2.13D-15 for   1501    749.
 Iteration    1 A^-1*A deviation from unit magnitude is 3.66D-15 for    116.
 Iteration    1 A^-1*A deviation from orthogonality  is 1.67D-15 for   1495   1046.
 Error on total polarization charges =  0.01106
 SCF Done:  E(RwB97XD) =  -558.150736494     A.U. after   10 cycles
            NFock= 10  Conv=0.69D-08     -V/T= 2.0061
 D1PCM: C-PCM CHGder 1st derivatives, ID1Alg=3 FixD1E=F DoIter=F DoCFld=F I1PDM=0.
 Calling FoFJK, ICntrl=      2127 FMM=F ISym2X=0 I1Cent= 0 IOpClX= 0 NMat=1 NMatS=1 NMatT=0.
 ***** Axes restored to original set *****
 -------------------------------------------------------------------
 Center     Atomic                   Forces (Hartrees/Bohr)
 Number     Number              X              Y              Z
 -------------------------------------------------------------------
      1        5          -0.000362564   -0.000055053    0.000371070
      2        9           0.000440222    0.000407092   -0.000531168
      3        9           0.000146740    0.000123912    0.000348052
      4        9          -0.000182035   -0.000296527   -0.000029936
      5        8           0.002987695   -0.001288284    0.000753102
      6        6           0.000093709    0.004445354   -0.000418904
      7        6          -0.000639392   -0.000496105   -0.000559171
      8        6          -0.004094917   -0.002287051   -0.000794735
      9        6           0.000569459   -0.000255107   -0.000126356
     10        1           0.000087954   -0.000525009    0.000153346
     11        1          -0.000418572   -0.000602362    0.000370055
     12        1           0.000240350   -0.000115213    0.000082874
     13        1           0.000200318    0.000157610   -0.000083804
     14        1           0.000335390    0.000078769    0.000086764
     15        1           0.000440260    0.000067781    0.000261507
     16        1           0.000656189   -0.000095550    0.000295978
     17        1          -0.000101213    0.000345849   -0.000035428
     18        1          -0.000042281    0.000131228   -0.000241322
     19        1          -0.000357312    0.000258667    0.000098076
 -------------------------------------------------------------------
 Cartesian Forces:  Max     0.004445354 RMS     0.001015326

 GradGradGradGradGradGradGradGradGradGradGradGradGradGradGradGradGradGrad
 Berny optimization.
 Using GEDIIS/GDIIS optimizer.
 FormGI is forming the generalized inverse of G from B-inverse, IUseBI=4.
 Internal  Forces:  Max     0.003329152 RMS     0.000579744
 Search for a local minimum.
 Step number   6 out of a maximum of   97
 All quantities printed in internal units (Hartrees-Bohrs-Radians)
 Mixed Optimization -- En-DIIS/RFO-DIIS
 Update second derivatives using D2CorX and points    3    4    5    6
 DE= -2.49D-04 DEPred=-2.18D-04 R= 1.14D+00
 TightC=F SS=  1.41D+00  RLast= 1.34D-01 DXNew= 1.4270D+00 4.0238D-01
 Trust test= 1.14D+00 RLast= 1.34D-01 DXMaxT set to 8.49D-01
 ITU=  1  1  1  1  1  0
 Use linear search instead of GDIIS.
     Eigenvalues ---    0.00238   0.00280   0.00731   0.01349   0.01438
     Eigenvalues ---    0.02416   0.04323   0.04557   0.05179   0.05236
     Eigenvalues ---    0.05326   0.05512   0.05911   0.05975   0.09822
     Eigenvalues ---    0.10371   0.12700   0.12769   0.12862   0.12994
     Eigenvalues ---    0.14407   0.15993   0.16000   0.16000   0.16023
     Eigenvalues ---    0.16040   0.16297   0.19704   0.20743   0.22362
     Eigenvalues ---    0.24773   0.25055   0.27603   0.28412   0.28516
     Eigenvalues ---    0.28616   0.28932   0.31800   0.31845   0.31935
     Eigenvalues ---    0.31992   0.32085   0.32127   0.32154   0.32192
     Eigenvalues ---    0.32287   0.33032   0.36015   0.37931   0.43614
     Eigenvalues ---    0.52017
 RFO step:  Lambda=-1.94939505D-04 EMin= 2.38270803D-03
 Quartic linear search produced a step of  0.17227.
 Iteration  1 RMS(Cart)=  0.03227657 RMS(Int)=  0.00049370
 Iteration  2 RMS(Cart)=  0.00058657 RMS(Int)=  0.00000574
 Iteration  3 RMS(Cart)=  0.00000018 RMS(Int)=  0.00000574
 Variable       Old X    -DE/DX   Delta X   Delta X   Delta X     New X
                                 (Linear)    (Quad)   (Total)
    R1        2.61541   0.00068  -0.00102   0.00145   0.00043   2.61584
    R2        2.62838   0.00035  -0.00097   0.00030  -0.00066   2.62772
    R3        2.62214   0.00033  -0.00094   0.00024  -0.00069   2.62144
    R4        3.00976   0.00006   0.00322   0.01441   0.01763   3.02739
    R5        2.80234  -0.00296  -0.00024  -0.00756  -0.00780   2.79454
    R6        2.79941  -0.00333   0.00003  -0.00840  -0.00837   2.79104
    R7        2.85432   0.00047  -0.00014   0.00122   0.00107   2.85540
    R8        2.07256   0.00020   0.00015   0.00065   0.00080   2.07336
    R9        2.05636   0.00036   0.00023   0.00137   0.00160   2.05796
   R10        2.07347   0.00007   0.00033   0.00057   0.00090   2.07437
   R11        2.07226   0.00015   0.00013   0.00049   0.00062   2.07289
   R12        2.06793   0.00034   0.00020   0.00122   0.00143   2.06936
   R13        2.85019   0.00055   0.00018   0.00198   0.00216   2.85234
   R14        2.07138   0.00018   0.00022   0.00074   0.00096   2.07234
   R15        2.05989   0.00049   0.00046   0.00203   0.00249   2.06238
   R16        2.07428   0.00000   0.00032   0.00028   0.00061   2.07489
   R17        2.06922   0.00025   0.00016   0.00094   0.00110   2.07033
   R18        2.06501   0.00045   0.00002   0.00146   0.00148   2.06649
    A1        1.97223   0.00032   0.00030   0.00261   0.00290   1.97513
    A2        1.94598   0.00035  -0.00035   0.00271   0.00235   1.94832
    A3        1.85671  -0.00082   0.00047  -0.00462  -0.00415   1.85255
    A4        1.96132   0.00020   0.00011   0.00279   0.00290   1.96422
    A5        1.86124  -0.00019  -0.00041  -0.00321  -0.00362   1.85762
    A6        1.85718   0.00003  -0.00012  -0.00135  -0.00148   1.85570
    A7        2.01086   0.00072   0.00037   0.00538   0.00576   2.01661
    A8        2.03757  -0.00079   0.00119  -0.00287  -0.00167   2.03590
    A9        1.95434  -0.00005  -0.00124  -0.00146  -0.00270   1.95164
   A10        1.95660  -0.00061  -0.00090  -0.00469  -0.00558   1.95102
   A11        1.86412   0.00045   0.00043   0.00368   0.00409   1.86822
   A12        1.81180   0.00055   0.00158   0.00552   0.00709   1.81889
   A13        1.97093   0.00003  -0.00059  -0.00104  -0.00163   1.96930
   A14        1.93506  -0.00013  -0.00025  -0.00092  -0.00117   1.93390
   A15        1.91755  -0.00023  -0.00007  -0.00191  -0.00200   1.91555
   A16        1.86741   0.00033   0.00080   0.00305   0.00385   1.87127
   A17        1.93271   0.00004  -0.00016  -0.00006  -0.00023   1.93248
   A18        1.98014  -0.00002  -0.00062  -0.00112  -0.00174   1.97840
   A19        1.88507  -0.00002   0.00001   0.00099   0.00099   1.88606
   A20        1.87721  -0.00017   0.00003  -0.00112  -0.00108   1.87613
   A21        1.91747  -0.00014  -0.00000  -0.00153  -0.00154   1.91593
   A22        1.97231  -0.00110   0.00148  -0.00496  -0.00348   1.96883
   A23        1.85732   0.00058   0.00090   0.00400   0.00489   1.86222
   A24        1.82729   0.00064  -0.00009   0.00418   0.00409   1.83138
   A25        1.96008   0.00014  -0.00065  -0.00093  -0.00158   1.95850
   A26        1.92224   0.00009  -0.00093   0.00021  -0.00072   1.92152
   A27        1.91903  -0.00031  -0.00063  -0.00213  -0.00277   1.91626
   A28        1.85498   0.00052   0.00074   0.00451   0.00525   1.86023
   A29        1.94129   0.00008  -0.00003   0.00047   0.00044   1.94173
   A30        1.96649  -0.00013  -0.00026  -0.00167  -0.00194   1.96456
   A31        1.89130  -0.00017  -0.00017  -0.00048  -0.00065   1.89065
   A32        1.89258  -0.00021  -0.00042  -0.00170  -0.00212   1.89046
   A33        1.91428  -0.00009   0.00014  -0.00100  -0.00086   1.91342
    D1       -2.63867  -0.00006   0.00375   0.01478   0.01853  -2.62014
    D2        1.29771   0.00011   0.00393   0.01415   0.01809   1.31579
    D3        1.53511   0.00010   0.00337   0.01582   0.01919   1.55430
    D4       -0.81169   0.00027   0.00355   0.01519   0.01874  -0.79295
    D5       -0.56183  -0.00004   0.00351   0.01493   0.01844  -0.54338
    D6       -2.90863   0.00012   0.00370   0.01430   0.01800  -2.89064
    D7        2.78583  -0.00009  -0.00404  -0.04180  -0.04585   2.73998
    D8       -1.32991  -0.00014  -0.00506  -0.04356  -0.04863  -1.37854
    D9        0.69628   0.00004  -0.00424  -0.04164  -0.04587   0.65041
   D10       -1.11353  -0.00060  -0.00317  -0.04203  -0.04520  -1.15873
   D11        1.05392  -0.00065  -0.00418  -0.04379  -0.04798   1.00593
   D12        3.08010  -0.00047  -0.00337  -0.04187  -0.04522   3.03488
   D13       -0.88873   0.00006  -0.00145  -0.00413  -0.00558  -0.89431
   D14        1.27035  -0.00005  -0.00071  -0.00563  -0.00634   1.26401
   D15       -2.98081   0.00015  -0.00107  -0.00435  -0.00542  -2.98623
   D16        3.02310  -0.00013  -0.00193  -0.00776  -0.00969   3.01341
   D17       -1.10101  -0.00024  -0.00119  -0.00926  -0.01045  -1.11146
   D18        0.93102  -0.00004  -0.00155  -0.00798  -0.00953   0.92149
   D19       -2.92326  -0.00010  -0.00604  -0.01933  -0.02537  -2.94863
   D20       -0.87297   0.00008  -0.00565  -0.01639  -0.02204  -0.89500
   D21        1.29255  -0.00009  -0.00625  -0.01931  -0.02555   1.26699
   D22        1.25321  -0.00026  -0.00552  -0.01993  -0.02545   1.22776
   D23       -2.97967  -0.00007  -0.00513  -0.01699  -0.02212  -3.00179
   D24       -0.81416  -0.00025  -0.00573  -0.01991  -0.02564  -0.83980
   D25       -0.90735   0.00013  -0.00480  -0.01593  -0.02073  -0.92809
   D26        1.14295   0.00031  -0.00441  -0.01299  -0.01740   1.12554
   D27       -2.97473   0.00014  -0.00500  -0.01591  -0.02092  -2.99564
   D28       -3.01532  -0.00010   0.00261  -0.01249  -0.00988  -3.02521
   D29       -0.96026   0.00004   0.00283  -0.01014  -0.00731  -0.96757
   D30        1.19746  -0.00011   0.00280  -0.01234  -0.00954   1.18792
   D31        1.16648  -0.00017   0.00085  -0.01344  -0.01260   1.15389
   D32       -3.06164  -0.00003   0.00107  -0.01109  -0.01002  -3.07166
   D33       -0.90392  -0.00017   0.00104  -0.01329  -0.01225  -0.91617
   D34       -0.97863   0.00007   0.00281  -0.01020  -0.00740  -0.98603
   D35        1.07643   0.00021   0.00303  -0.00785  -0.00482   1.07161
   D36       -3.04904   0.00006   0.00300  -0.01006  -0.00706  -3.05609
         Item               Value     Threshold  Converged?
 Maximum Force            0.003329     0.000450     NO 
 RMS     Force            0.000580     0.000300     NO 
 Maximum Displacement     0.130109     0.001800     NO 
 RMS     Displacement     0.032315     0.001200     NO 
 Predicted change in Energy=-1.057126D-04
 GradGradGradGradGradGradGradGradGradGradGradGradGradGradGradGradGradGrad

                          Input orientation:                          
 ---------------------------------------------------------------------
 Center     Atomic      Atomic             Coordinates (Angstroms)
 Number     Number       Type             X           Y           Z
 ---------------------------------------------------------------------
      1          5           0       -1.795817    0.724020   -0.106696
      2          9           0       -1.696458    1.778849   -0.997531
      3          9           0       -1.967881    1.134827    1.210573
      4          9           0       -2.755136   -0.194626   -0.506873
      5          8           0       -0.389121   -0.040527   -0.162945
      6          6           0       -0.440748   -1.492089    0.114853
      7          6           0        0.742610   -2.219332   -0.480074
      8          6           0        0.746065    0.609602    0.522673
      9          6           0        0.926099    2.052249    0.116924
     10          1           0       -0.508739   -1.608861    1.203673
     11          1           0       -1.369664   -1.820306   -0.349229
     12          1           0        0.532996   -3.294425   -0.407971
     13          1           0        0.860496   -1.966185   -1.540857
     14          1           0        1.680677   -2.030412    0.052363
     15          1           0        0.568050    0.500839    1.599284
     16          1           0        1.621491    0.026301    0.232048
     17          1           0        1.857024    2.396087    0.586740
     18          1           0        1.032191    2.149041   -0.969192
     19          1           0        0.109401    2.690931    0.464652
 ---------------------------------------------------------------------
                    Distance matrix (angstroms):
                    1          2          3          4          5
     1  B    0.000000
     2  F    1.384241   0.000000
     3  F    1.390528   2.316066   0.000000
     4  F    1.387208   2.292630   2.310160   0.000000
     5  O    1.602027   2.390773   2.400103   2.395843   0.000000
     6  C    2.606997   3.676036   3.230082   2.725133   1.478807
     7  C    3.904656   4.711927   4.632000   4.041581   2.475595
     8  C    2.621137   3.105491   2.848609   3.736999   1.476952
     9  C    3.036944   2.862615   3.226896   4.357645   2.487538
    10  H    2.969170   4.211004   3.107566   3.157899   2.083656
    11  H    2.591143   3.671649   3.394651   2.141780   2.040534
    12  H    4.654249   5.572805   5.337822   4.519994   3.390897
    13  H    4.043516   4.567111   5.018602   4.156963   2.677376
    14  H    4.438266   5.197863   4.967108   4.833145   2.879246
    15  H    2.923704   3.674882   2.642723   3.995390   2.077187
    16  H    3.504219   3.948680   3.882002   4.444062   2.050133
    17  H    4.076752   3.939305   4.075518   5.401834   3.397688
    18  H    3.282105   2.753792   3.844534   4.477763   2.732100
    19  H    2.797326   2.496197   2.700548   4.180416   2.846624
                    6          7          8          9         10
     6  C    0.000000
     7  C    1.511011   0.000000
     8  C    2.447846   3.001396   0.000000
     9  C    3.798765   4.316999   1.509395   0.000000
    10  H    1.097172   2.184846   2.638158   4.079647   0.000000
    11  H    1.089028   2.153611   3.337810   4.525982   1.788128
    12  H    2.114222   1.097708   4.019070   5.386740   2.554160
    13  H    2.158559   1.096924   3.302413   4.347454   3.087868
    14  H    2.189552   1.095057   2.839783   4.152310   2.509335
    15  H    2.681972   3.428342   1.096636   2.175423   2.401420
    16  H    2.563606   2.514442   1.091363   2.145062   2.855817
    17  H    4.540964   4.866426   2.104723   1.097985   4.692233
    18  H    4.074621   4.405199   2.162730   1.095569   4.606261
    19  H    4.233519   5.040252   2.177300   1.093538   4.406412
                   11         12         13         14         15
    11  H    0.000000
    12  H    2.407611   0.000000
    13  H    2.532760   1.776206   0.000000
    14  H    3.083828   1.768278   1.793090   0.000000
    15  H    3.597103   4.293521   4.004025   3.168301   0.000000
    16  H    3.562983   3.552699   2.773501   2.065395   1.790044
    17  H    5.391245   5.926586   4.954711   4.462124   2.505726
    18  H    4.680703   5.495042   4.158289   4.351084   3.086919
    19  H    4.816772   6.063447   5.125909   4.992992   2.508835
                   16         17         18         19
    16  H    0.000000
    17  H    2.407731   0.000000
    18  H    2.509239   1.778287   0.000000
    19  H    3.072584   1.776520   1.789160   0.000000
 Stoichiometry    C4H10BF3O
 Framework group  C1[X(C4H10BF3O)]
 Deg. of freedom    51
 Full point group                 C1      NOp   1
 Largest Abelian subgroup         C1      NOp   1
 Largest concise Abelian subgroup C1      NOp   1
                         Standard orientation:                         
 ---------------------------------------------------------------------
 Center     Atomic      Atomic             Coordinates (Angstroms)
 Number     Number       Type             X           Y           Z
 ---------------------------------------------------------------------
      1          5           0       -1.026153   -0.618574   -0.030184
      2          9           0       -1.790045   -0.049447   -1.034519
      3          9           0       -1.503414   -0.338503    1.245492
      4          9           0       -0.835002   -1.976399   -0.240227
      5          8           0        0.421061    0.060915   -0.131954
      6          6           0        1.554096   -0.783643    0.303733
      7          6           0        2.857814   -0.335699   -0.314991
      8          6           0        0.540754    1.443513    0.373500
      9          6           0       -0.505241    2.368561   -0.199608
     10          1           0        1.571954   -0.756922    1.400434
     11          1           0        1.288269   -1.783667   -0.035783
     12          1           0        3.600638   -1.117198   -0.108994
     13          1           0        2.758197   -0.239474   -1.403135
     14          1           0        3.239274    0.600318    0.106330
     15          1           0        0.487817    1.384806    1.467284
     16          1           0        1.536811    1.769103    0.068647
     17          1           0       -0.251045    3.380035    0.143724
     18          1           0       -0.484630    2.361244   -1.294959
     19          1           0       -1.513400    2.130060    0.150476
 ---------------------------------------------------------------------
 Rotational constants (GHZ):           1.8328425           1.3726567           0.9777869
 Standard basis: Aug-CC-pVDZ (5D, 7F)
 There are   315 symmetry adapted cartesian basis functions of A   symmetry.
 There are   297 symmetry adapted basis functions of A   symmetry.
   297 basis functions,   497 primitive gaussians,   315 cartesian basis functions
    37 alpha electrons       37 beta electrons
       nuclear repulsion energy       523.5657596870 Hartrees.
 NAtoms=   19 NActive=   19 NUniq=   19 SFac= 1.00D+00 NAtFMM=   60 NAOKFM=F Big=F
 Integral buffers will be    131072 words long.
 Raffenetti 2 integral format.
 Two-electron integral symmetry is turned on.
 Nuclear repulsion after empirical dispersion term =      523.5536875584 Hartrees.
 Force PCM accuracy= 1.00D-12.
 ------------------------------------------------------------------------------
 Polarizable Continuum Model (PCM)
 =================================
 Model                : C-PCM.
 Atomic radii         : UFF (Universal Force Field).
 Polarization charges : Total charges.
 Charge compensation  : None.
 Solution method      : On-the-fly selection.
 Cavity type          : Scaled VdW (van der Waals Surface) (Alpha=1.100).
 Cavity algorithm     : GePol (No added spheres)
                        Default sphere list used, NSphG=   19.
                        Lebedev-Laikov grids with approx.  5.0 points / Ang**2.
                        Smoothing algorithm: York/Karplus (Gamma=1.0000).
                        Polarization charges: spherical gaussians, with
                                              point-specific exponents (IZeta= 3).
                        Self-potential: point-specific (ISelfS= 7).
                        Self-field    : sphere-specific E.n sum rule (ISelfD= 2).
 1st derivatives      : Analytical E(r).r(x)/FMM algorithm (CHGder, D1EAlg=3).
                        Cavity 1st derivative terms included.
 Solvent              : DiMethylSulfoxide, Eps=  46.826000 Eps(inf)=   2.007889
 ------------------------------------------------------------------------------
 Spheres list:
 ISph  on   Nord     Re0    Alpha      Xe            Ye            Ze
    1   B      1    2.0415  1.100     -1.026153     -0.618574     -0.030184
    2   F      2    1.6820  1.100     -1.790045     -0.049447     -1.034519
    3   F      3    1.6820  1.100     -1.503414     -0.338503      1.245492
    4   F      4    1.6820  1.100     -0.835002     -1.976399     -0.240227
    5   O      5    1.7500  1.100      0.421061      0.060915     -0.131954
    6   C      6    1.9255  1.100      1.554096     -0.783643      0.303733
    7   C      7    1.9255  1.100      2.857814     -0.335699     -0.314991
    8   C      8    1.9255  1.100      0.540754      1.443513      0.373500
    9   C      9    1.9255  1.100     -0.505241      2.368561     -0.199608
   10   H     10    1.4430  1.100      1.571954     -0.756922      1.400434
   11   H     11    1.4430  1.100      1.288269     -1.783667     -0.035783
   12   H     12    1.4430  1.100      3.600638     -1.117198     -0.108994
   13   H     13    1.4430  1.100      2.758197     -0.239474     -1.403135
   14   H     14    1.4430  1.100      3.239274      0.600318      0.106330
   15   H     15    1.4430  1.100      0.487817      1.384806      1.467284
   16   H     16    1.4430  1.100      1.536811      1.769103      0.068647
   17   H     17    1.4430  1.100     -0.251045      3.380035      0.143724
   18   H     18    1.4430  1.100     -0.484630      2.361244     -1.294959
   19   H     19    1.4430  1.100     -1.513400      2.130060      0.150476
 ------------------------------------------------------------------------------
 One-electron integrals computed using PRISM.
 NBasis=   297 RedAO= T EigKep=  3.11D-05  NBF=   297
 NBsUse=   297 1.00D-06 EigRej= -1.00D+00 NBFU=   297
 Initial guess from the checkpoint file:  "/inspire/hdd/project/materialscienceresearch/lipenghui-253107030018/g16/00-B-DFT-Shift/04-output/BF3OEt2_DMSO-d6/BF3OEt2_DMSO-d6.chk"
 B after Tr=    -0.000000    0.000000    0.000000
         Rot=    0.999988    0.004095    0.002285   -0.001217 Ang=   0.56 deg.
 ExpMin= 2.38D-02 ExpMax= 1.47D+04 ExpMxC= 5.03D+02 IAcc=3 IRadAn=         5 AccDes= 0.00D+00
 Harris functional with IExCor= 4639 and IRadAn=       5 diagonalized for initial guess.
 HarFok:  IExCor= 4639 AccDes= 0.00D+00 IRadAn=         5 IDoV= 1 UseB2=F ITyADJ=14
 ICtDFT=  3500011 ScaDFX=  1.000000  1.000000  1.000000  1.000000
 FoFCou: FMM=F IPFlag=           0 FMFlag=      100000 FMFlg1=           0
         NFxFlg=           0 DoJE=T BraDBF=F KetDBF=T FulRan=T
         wScrn=  0.000000 ICntrl=       500 IOpCl=  0 I1Cent=   200000004 NGrid=           0
         NMat0=    1 NMatS0=      1 NMatT0=    0 NMatD0=    1 NMtDS0=    0 NMtDT0=    0
 Petite list used in FoFCou.
 Requested convergence on RMS density matrix=1.00D-08 within 128 cycles.
 Requested convergence on MAX density matrix=1.00D-06.
 Requested convergence on             energy=1.00D-06.
 No special actions if energy rises.
 Inv3:  Mode=1 IEnd=     6777027.
 Iteration    1 A*A^-1 deviation from unit magnitude is 3.44D-15 for   1493.
 Iteration    1 A*A^-1 deviation from orthogonality  is 2.10D-15 for   1303    438.
 Iteration    1 A^-1*A deviation from unit magnitude is 3.22D-15 for   1493.
 Iteration    1 A^-1*A deviation from orthogonality  is 1.56D-15 for   1494   1041.
 Error on total polarization charges =  0.01106
 SCF Done:  E(RwB97XD) =  -558.150894554     A.U. after   10 cycles
            NFock= 10  Conv=0.83D-08     -V/T= 2.0061
 D1PCM: C-PCM CHGder 1st derivatives, ID1Alg=3 FixD1E=F DoIter=F DoCFld=F I1PDM=0.
 Calling FoFJK, ICntrl=      2127 FMM=F ISym2X=0 I1Cent= 0 IOpClX= 0 NMat=1 NMatS=1 NMatT=0.
 ***** Axes restored to original set *****
 -------------------------------------------------------------------
 Center     Atomic                   Forces (Hartrees/Bohr)
 Number     Number              X              Y              Z
 -------------------------------------------------------------------
      1        5           0.000601112   -0.000425008    0.000217769
      2        9           0.000282329   -0.000184911    0.000019609
      3        9          -0.000002947   -0.000066592   -0.000296986
      4        9           0.000244059    0.000143483    0.000165663
      5        8           0.000418317   -0.000490654    0.000761225
      6        6           0.000182785    0.002542856   -0.000678828
      7        6          -0.000209555   -0.000851497   -0.000424193
      8        6          -0.001972534   -0.000867721   -0.000556480
      9        6           0.000442647    0.000099362   -0.000007006
     10        1           0.000044039   -0.000217099   -0.000058370
     11        1          -0.000009128   -0.000146104    0.000537774
     12        1           0.000139728    0.000229560    0.000049721
     13        1           0.000107152    0.000132214    0.000196279
     14        1          -0.000001165   -0.000182556   -0.000182555
     15        1           0.000147866    0.000060634   -0.000092682
     16        1          -0.000071398    0.000285347    0.000450150
     17        1          -0.000246210   -0.000076836   -0.000092029
     18        1          -0.000137907   -0.000014637    0.000080645
     19        1           0.000040811    0.000030160   -0.000089707
 -------------------------------------------------------------------
 Cartesian Forces:  Max     0.002542856 RMS     0.000529387

 GradGradGradGradGradGradGradGradGradGradGradGradGradGradGradGradGradGrad
 Berny optimization.
 Using GEDIIS/GDIIS optimizer.
 FormGI is forming the generalized inverse of G from B-inverse, IUseBI=4.
 Internal  Forces:  Max     0.001740648 RMS     0.000367198
 Search for a local minimum.
 Step number   7 out of a maximum of   97
 All quantities printed in internal units (Hartrees-Bohrs-Radians)
 Mixed Optimization -- En-DIIS/RFO-DIIS
 Swapping is turned off.
 Update second derivatives using D2CorX and points    3    4    5    6    7
 DE= -1.58D-04 DEPred=-1.06D-04 R= 1.50D+00
 TightC=F SS=  1.41D+00  RLast= 1.47D-01 DXNew= 1.4270D+00 4.4223D-01
 Trust test= 1.50D+00 RLast= 1.47D-01 DXMaxT set to 8.49D-01
 ITU=  1  1  1  1  1  1  0
     Eigenvalues ---    0.00191   0.00284   0.00342   0.01404   0.01439
     Eigenvalues ---    0.02384   0.04366   0.04611   0.05177   0.05252
     Eigenvalues ---    0.05327   0.05353   0.05879   0.05945   0.09792
     Eigenvalues ---    0.10222   0.12791   0.12803   0.12917   0.13018
     Eigenvalues ---    0.15523   0.15940   0.16000   0.16009   0.16022
     Eigenvalues ---    0.16131   0.17127   0.19524   0.20788   0.24327
     Eigenvalues ---    0.24756   0.25315   0.28017   0.28389   0.28536
     Eigenvalues ---    0.28657   0.29278   0.31777   0.31838   0.31934
     Eigenvalues ---    0.31977   0.32094   0.32145   0.32157   0.32216
     Eigenvalues ---    0.32307   0.33439   0.37635   0.41461   0.42852
     Eigenvalues ---    0.51578
 En-DIIS/RFO-DIIS/Sim-DIIS IScMMF=       -3 using points:     7    6
 RFO step:  Lambda=-3.20907475D-04.
 DidBck=F Rises=F RFO-DIIS coefs:    3.00000   -2.00000
 Iteration  1 RMS(Cart)=  0.08435446 RMS(Int)=  0.00291479
 Iteration  2 RMS(Cart)=  0.00374637 RMS(Int)=  0.00002427
 Iteration  3 RMS(Cart)=  0.00000538 RMS(Int)=  0.00002398
 Iteration  4 RMS(Cart)=  0.00000000 RMS(Int)=  0.00002398
 Variable       Old X    -DE/DX   Delta X   Delta X   Delta X     New X
                                 (Linear)    (Quad)   (Total)
    R1        2.61584  -0.00014   0.00086  -0.00370  -0.00284   2.61299
    R2        2.62772  -0.00030  -0.00133  -0.00335  -0.00468   2.62304
    R3        2.62144  -0.00031  -0.00139  -0.00357  -0.00496   2.61649
    R4        3.02739  -0.00124   0.03526   0.00283   0.03809   3.06548
    R5        2.79454  -0.00160  -0.01560  -0.00047  -0.01607   2.77847
    R6        2.79104  -0.00174  -0.01674   0.00061  -0.01613   2.77490
    R7        2.85540   0.00050   0.00215   0.00154   0.00369   2.85909
    R8        2.07336  -0.00004   0.00159  -0.00060   0.00099   2.07435
    R9        2.05796  -0.00018   0.00320  -0.00184   0.00137   2.05933
   R10        2.07437  -0.00025   0.00180  -0.00115   0.00065   2.07502
   R11        2.07289  -0.00015   0.00124  -0.00117   0.00008   2.07296
   R12        2.06936  -0.00012   0.00285  -0.00152   0.00133   2.07069
   R13        2.85234   0.00008   0.00431  -0.00111   0.00320   2.85555
   R14        2.07234  -0.00012   0.00192  -0.00094   0.00098   2.07333
   R15        2.06238  -0.00033   0.00498  -0.00289   0.00209   2.06447
   R16        2.07489  -0.00027   0.00122  -0.00108   0.00014   2.07503
   R17        2.07033  -0.00009   0.00220  -0.00113   0.00107   2.07140
   R18        2.06649  -0.00004   0.00295  -0.00178   0.00117   2.06766
    A1        1.97513   0.00016   0.00580   0.00160   0.00734   1.98246
    A2        1.94832   0.00026   0.00469   0.00044   0.00508   1.95340
    A3        1.85255  -0.00062  -0.00831  -0.00132  -0.00968   1.84287
    A4        1.96422  -0.00000   0.00579  -0.00007   0.00569   1.96991
    A5        1.85762   0.00019  -0.00725   0.00112  -0.00617   1.85145
    A6        1.85570  -0.00004  -0.00296  -0.00207  -0.00507   1.85063
    A7        2.01661   0.00024   0.01151   0.00048   0.01200   2.02861
    A8        2.03590  -0.00076  -0.00334   0.00059  -0.00278   2.03312
    A9        1.95164   0.00048  -0.00541   0.00369  -0.00174   1.94990
   A10        1.95102   0.00061  -0.01116   0.00773  -0.00341   1.94760
   A11        1.86822  -0.00010   0.00818  -0.00026   0.00790   1.87612
   A12        1.81889  -0.00008   0.01419  -0.00359   0.01058   1.82947
   A13        1.96930  -0.00005  -0.00326   0.00186  -0.00139   1.96790
   A14        1.93390  -0.00030  -0.00233  -0.00358  -0.00590   1.92800
   A15        1.91555  -0.00008  -0.00401  -0.00254  -0.00665   1.90890
   A16        1.87127   0.00006   0.00771  -0.00056   0.00714   1.87841
   A17        1.93248  -0.00008  -0.00046  -0.00156  -0.00203   1.93045
   A18        1.97840   0.00029  -0.00348   0.00320  -0.00028   1.97812
   A19        1.88606   0.00007   0.00199   0.00045   0.00242   1.88848
   A20        1.87613  -0.00018  -0.00217  -0.00115  -0.00331   1.87281
   A21        1.91593  -0.00017  -0.00308  -0.00048  -0.00357   1.91236
   A22        1.96883  -0.00026  -0.00695   0.00658  -0.00036   1.96847
   A23        1.86222   0.00012   0.00979  -0.00097   0.00881   1.87103
   A24        1.83138   0.00031   0.00819  -0.00061   0.00757   1.83895
   A25        1.95850   0.00009  -0.00316  -0.00010  -0.00328   1.95522
   A26        1.92152  -0.00012  -0.00144  -0.00367  -0.00512   1.91640
   A27        1.91626  -0.00013  -0.00555  -0.00128  -0.00691   1.90935
   A28        1.86023   0.00001   0.01050  -0.00241   0.00809   1.86832
   A29        1.94173  -0.00006   0.00088  -0.00148  -0.00061   1.94112
   A30        1.96456   0.00010  -0.00387   0.00217  -0.00170   1.96286
   A31        1.89065   0.00006  -0.00131   0.00091  -0.00042   1.89023
   A32        1.89046  -0.00003  -0.00424   0.00051  -0.00373   1.88673
   A33        1.91342  -0.00008  -0.00172   0.00026  -0.00147   1.91195
    D1       -2.62014   0.00011   0.03706   0.01079   0.04787  -2.57227
    D2        1.31579  -0.00005   0.03617   0.00358   0.03975   1.35554
    D3        1.55430   0.00015   0.03838   0.00905   0.04742   1.60172
    D4       -0.79295  -0.00001   0.03749   0.00183   0.03930  -0.75365
    D5       -0.54338   0.00008   0.03688   0.00961   0.04651  -0.49687
    D6       -2.89064  -0.00008   0.03599   0.00240   0.03839  -2.85224
    D7        2.73998  -0.00028  -0.09170  -0.04423  -0.13595   2.60403
    D8       -1.37854  -0.00002  -0.09726  -0.03713  -0.13444  -1.51298
    D9        0.65041  -0.00019  -0.09174  -0.04180  -0.13349   0.51691
   D10       -1.15873  -0.00067  -0.09040  -0.03866  -0.12906  -1.28779
   D11        1.00593  -0.00042  -0.09597  -0.03155  -0.12755   0.87838
   D12        3.03488  -0.00058  -0.09044  -0.03622  -0.12660   2.90828
   D13       -0.89431  -0.00013  -0.01116  -0.01773  -0.02891  -0.92322
   D14        1.26401  -0.00009  -0.01268  -0.01433  -0.02704   1.23697
   D15       -2.98623  -0.00004  -0.01083  -0.01650  -0.02732  -3.01354
   D16        3.01341  -0.00020  -0.01938  -0.02335  -0.04272   2.97069
   D17       -1.11146  -0.00017  -0.02090  -0.01995  -0.04085  -1.15231
   D18        0.92149  -0.00012  -0.01905  -0.02211  -0.04113   0.88036
   D19       -2.94863   0.00006  -0.05074   0.01790  -0.03285  -2.98148
   D20       -0.89500   0.00014  -0.04408   0.01725  -0.02683  -0.92183
   D21        1.26699   0.00008  -0.05110   0.01780  -0.03330   1.23369
   D22        1.22776  -0.00021  -0.05091   0.01128  -0.03963   1.18813
   D23       -3.00179  -0.00014  -0.04424   0.01063  -0.03361  -3.03540
   D24       -0.83980  -0.00020  -0.05127   0.01118  -0.04008  -0.87988
   D25       -0.92809   0.00015  -0.04147   0.01594  -0.02553  -0.95362
   D26        1.12554   0.00023  -0.03480   0.01530  -0.01951   1.10603
   D27       -2.99564   0.00017  -0.04183   0.01585  -0.02599  -3.02163
   D28       -3.02521  -0.00004  -0.01977   0.02090   0.00112  -3.02408
   D29       -0.96757   0.00001  -0.01461   0.01975   0.00514  -0.96243
   D30        1.18792  -0.00006  -0.01908   0.02058   0.00150   1.18942
   D31        1.15389  -0.00007  -0.02519   0.01748  -0.00771   1.14618
   D32       -3.07166  -0.00003  -0.02004   0.01633  -0.00369  -3.07535
   D33       -0.91617  -0.00010  -0.02450   0.01716  -0.00733  -0.92351
   D34       -0.98603   0.00012  -0.01480   0.02182   0.00700  -0.97903
   D35        1.07161   0.00017  -0.00965   0.02067   0.01102   1.08263
   D36       -3.05609   0.00009  -0.01412   0.02150   0.00738  -3.04872
         Item               Value     Threshold  Converged?
 Maximum Force            0.001741     0.000450     NO 
 RMS     Force            0.000367     0.000300     NO 
 Maximum Displacement     0.337504     0.001800     NO 
 RMS     Displacement     0.084555     0.001200     NO 
 Predicted change in Energy=-1.800784D-04
 GradGradGradGradGradGradGradGradGradGradGradGradGradGradGradGradGradGrad

                          Input orientation:                          
 ---------------------------------------------------------------------
 Center     Atomic      Atomic             Coordinates (Angstroms)
 Number     Number       Type             X           Y           Z
 ---------------------------------------------------------------------
      1          5           0       -1.798996    0.720318   -0.142036
      2          9           0       -1.674707    1.725556   -1.083317
      3          9           0       -1.993982    1.189853    1.149556
      4          9           0       -2.736834   -0.226491   -0.517656
      5          8           0       -0.368990   -0.045465   -0.130642
      6          6           0       -0.406421   -1.487765    0.152477
      7          6           0        0.714636   -2.222183   -0.549606
      8          6           0        0.725168    0.620991    0.586924
      9          6           0        0.935872    2.048259    0.137586
     10          1           0       -0.377140   -1.610859    1.242859
     11          1           0       -1.373809   -1.820531   -0.223000
     12          1           0        0.531328   -3.298514   -0.432871
     13          1           0        0.716937   -1.989264   -1.621555
     14          1           0        1.703234   -2.012122   -0.126237
     15          1           0        0.497472    0.556254    1.658240
     16          1           0        1.617087    0.028931    0.369127
     17          1           0        1.841930    2.413219    0.639177
     18          1           0        1.095915    2.103700   -0.945385
     19          1           0        0.104838    2.702093    0.418775
 ---------------------------------------------------------------------
                    Distance matrix (angstroms):
                    1          2          3          4          5
     1  B    0.000000
     2  F    1.382737   0.000000
     3  F    1.388053   2.318327   0.000000
     4  F    1.384586   2.293159   2.310294   0.000000
     5  O    1.622181   2.397708   2.409464   2.406083   0.000000
     6  C    2.627096   3.668947   3.268662   2.733261   1.470302
     7  C    3.891371   4.645261   4.676082   3.987035   2.467362
     8  C    2.629193   3.125567   2.834419   3.731458   1.468416
     9  C    3.053051   2.899977   3.216363   4.369508   2.481591
    10  H    3.061698   4.269244   3.235254   3.253313   2.082554
    11  H    2.577451   3.661341   3.366146   2.117929   2.041825
    12  H    4.654676   5.525482   5.387643   4.486134   3.388841
    13  H    3.982553   4.450792   5.013474   4.031686   2.679629
    14  H    4.442082   5.128033   5.054670   4.801655   2.856899
    15  H    2.922615   3.688057   2.620601   3.975921   2.076758
    16  H    3.522631   3.977944   3.872548   4.450646   2.049343
    17  H    4.090544   3.975751   4.058489   5.410306   3.394984
    18  H    3.307511   2.799708   3.843353   4.505853   2.725557
    19  H    2.804732   2.525210   2.688114   4.186718   2.841733
                    6          7          8          9         10
     6  C    0.000000
     7  C    1.512963   0.000000
     8  C    2.432301   3.061935   0.000000
     9  C    3.782253   4.331033   1.511091   0.000000
    10  H    1.097698   2.186005   2.574197   4.041630   0.000000
    11  H    1.089750   2.151649   3.320047   4.520198   1.784952
    12  H    2.121513   1.098051   4.054636   5.392314   2.545892
    13  H    2.158848   1.096965   3.419192   4.409546   3.089508
    14  H    2.191637   1.095761   2.898016   4.140669   2.522576
    15  H    2.694876   3.555482   1.097157   2.175008   2.373577
    16  H    2.538087   2.593453   1.092470   2.143677   2.725667
    17  H    4.528756   4.916396   2.112337   1.098057   4.634858
    18  H    4.044865   4.360651   2.164220   1.096136   4.555903
    19  H    4.229327   5.055502   2.178088   1.094159   4.417348
                   11         12         13         14         15
    11  H    0.000000
    12  H    2.420336   0.000000
    13  H    2.521040   1.778076   0.000000
    14  H    3.084519   1.766972   1.791446   0.000000
    15  H    3.562284   4.385559   4.157509   3.351832   0.000000
    16  H    3.566032   3.590816   2.974255   2.102071   1.787015
    17  H    5.385997   5.957420   5.075270   4.493188   2.508859
    18  H    4.692650   5.455762   4.165715   4.240263   3.087327
    19  H    4.801291   6.075728   5.152323   5.007567   2.508995
                   16         17         18         19
    16  H    0.000000
    17  H    2.410044   0.000000
    18  H    2.510823   1.778532   0.000000
    19  H    3.071670   1.774687   1.789201   0.000000
 Stoichiometry    C4H10BF3O
 Framework group  C1[X(C4H10BF3O)]
 Deg. of freedom    51
 Full point group                 C1      NOp   1
 Largest Abelian subgroup         C1      NOp   1
 Largest concise Abelian subgroup C1      NOp   1
                         Standard orientation:                         
 ---------------------------------------------------------------------
 Center     Atomic      Atomic             Coordinates (Angstroms)
 Number     Number       Type             X           Y           Z
 ---------------------------------------------------------------------
      1          5           0       -1.019421   -0.642946   -0.035065
      2          9           0       -1.735825   -0.126916   -1.099227
      3          9           0       -1.559900   -0.326862    1.203752
      4          9           0       -0.774065   -1.997310   -0.185322
      5          8           0        0.429703    0.083897   -0.091730
      6          6           0        1.575795   -0.715003    0.366548
      7          6           0        2.845938   -0.335833   -0.362852
      8          6           0        0.491488    1.461757    0.412184
      9          6           0       -0.536688    2.365540   -0.227680
     10          1           0        1.655385   -0.584550    1.453557
     11          1           0        1.302813   -1.746551    0.145314
     12          1           0        3.614931   -1.073056   -0.096639
     13          1           0        2.694256   -0.375734   -1.448547
     14          1           0        3.229664    0.651340   -0.081895
     15          1           0        0.375959    1.414092    1.502200
     16          1           0        1.496543    1.814136    0.168904
     17          1           0       -0.329713    3.386014    0.120923
     18          1           0       -0.452166    2.351317   -1.320459
     19          1           0       -1.559273    2.107566    0.063788
 ---------------------------------------------------------------------
 Rotational constants (GHZ):           1.8133180           1.3741467           0.9803677
 Standard basis: Aug-CC-pVDZ (5D, 7F)
 There are   315 symmetry adapted cartesian basis functions of A   symmetry.
 There are   297 symmetry adapted basis functions of A   symmetry.
   297 basis functions,   497 primitive gaussians,   315 cartesian basis functions
    37 alpha electrons       37 beta electrons
       nuclear repulsion energy       523.0602502675 Hartrees.
 NAtoms=   19 NActive=   19 NUniq=   19 SFac= 1.00D+00 NAtFMM=   60 NAOKFM=F Big=F
 Integral buffers will be    131072 words long.
 Raffenetti 2 integral format.
 Two-electron integral symmetry is turned on.
 Nuclear repulsion after empirical dispersion term =      523.0482297597 Hartrees.
 Force PCM accuracy= 1.00D-12.
 ------------------------------------------------------------------------------
 Polarizable Continuum Model (PCM)
 =================================
 Model                : C-PCM.
 Atomic radii         : UFF (Universal Force Field).
 Polarization charges : Total charges.
 Charge compensation  : None.
 Solution method      : On-the-fly selection.
 Cavity type          : Scaled VdW (van der Waals Surface) (Alpha=1.100).
 Cavity algorithm     : GePol (No added spheres)
                        Default sphere list used, NSphG=   19.
                        Lebedev-Laikov grids with approx.  5.0 points / Ang**2.
                        Smoothing algorithm: York/Karplus (Gamma=1.0000).
                        Polarization charges: spherical gaussians, with
                                              point-specific exponents (IZeta= 3).
                        Self-potential: point-specific (ISelfS= 7).
                        Self-field    : sphere-specific E.n sum rule (ISelfD= 2).
 1st derivatives      : Analytical E(r).r(x)/FMM algorithm (CHGder, D1EAlg=3).
                        Cavity 1st derivative terms included.
 Solvent              : DiMethylSulfoxide, Eps=  46.826000 Eps(inf)=   2.007889
 ------------------------------------------------------------------------------
 Spheres list:
 ISph  on   Nord     Re0    Alpha      Xe            Ye            Ze
    1   B      1    2.0415  1.100     -1.019421     -0.642946     -0.035065
    2   F      2    1.6820  1.100     -1.735825     -0.126916     -1.099227
    3   F      3    1.6820  1.100     -1.559900     -0.326862      1.203752
    4   F      4    1.6820  1.100     -0.774065     -1.997310     -0.185322
    5   O      5    1.7500  1.100      0.429703      0.083897     -0.091730
    6   C      6    1.9255  1.100      1.575795     -0.715003      0.366548
    7   C      7    1.9255  1.100      2.845938     -0.335833     -0.362852
    8   C      8    1.9255  1.100      0.491488      1.461757      0.412184
    9   C      9    1.9255  1.100     -0.536688      2.365540     -0.227680
   10   H     10    1.4430  1.100      1.655385     -0.584550      1.453557
   11   H     11    1.4430  1.100      1.302813     -1.746551      0.145314
   12   H     12    1.4430  1.100      3.614931     -1.073056     -0.096639
   13   H     13    1.4430  1.100      2.694256     -0.375734     -1.448547
   14   H     14    1.4430  1.100      3.229664      0.651340     -0.081895
   15   H     15    1.4430  1.100      0.375959      1.414092      1.502200
   16   H     16    1.4430  1.100      1.496543      1.814136      0.168904
   17   H     17    1.4430  1.100     -0.329713      3.386014      0.120923
   18   H     18    1.4430  1.100     -0.452166      2.351317     -1.320459
   19   H     19    1.4430  1.100     -1.559273      2.107566      0.063788
 ------------------------------------------------------------------------------
 One-electron integrals computed using PRISM.
 NBasis=   297 RedAO= T EigKep=  2.90D-05  NBF=   297
 NBsUse=   297 1.00D-06 EigRej= -1.00D+00 NBFU=   297
 Initial guess from the checkpoint file:  "/inspire/hdd/project/materialscienceresearch/lipenghui-253107030018/g16/00-B-DFT-Shift/04-output/BF3OEt2_DMSO-d6/BF3OEt2_DMSO-d6.chk"
 B after Tr=     0.000000   -0.000000    0.000000
         Rot=    0.999890    0.010147    0.006372   -0.008736 Ang=   1.70 deg.
 ExpMin= 2.38D-02 ExpMax= 1.47D+04 ExpMxC= 5.03D+02 IAcc=3 IRadAn=         5 AccDes= 0.00D+00
 Harris functional with IExCor= 4639 and IRadAn=       5 diagonalized for initial guess.
 HarFok:  IExCor= 4639 AccDes= 0.00D+00 IRadAn=         5 IDoV= 1 UseB2=F ITyADJ=14
 ICtDFT=  3500011 ScaDFX=  1.000000  1.000000  1.000000  1.000000
 FoFCou: FMM=F IPFlag=           0 FMFlag=      100000 FMFlg1=           0
         NFxFlg=           0 DoJE=T BraDBF=F KetDBF=T FulRan=T
         wScrn=  0.000000 ICntrl=       500 IOpCl=  0 I1Cent=   200000004 NGrid=           0
         NMat0=    1 NMatS0=      1 NMatT0=    0 NMatD0=    1 NMtDS0=    0 NMtDT0=    0
 Petite list used in FoFCou.
 Requested convergence on RMS density matrix=1.00D-08 within 128 cycles.
 Requested convergence on MAX density matrix=1.00D-06.
 Requested convergence on             energy=1.00D-06.
 No special actions if energy rises.
 Inv3:  Mode=1 IEnd=     6986028.
 Iteration    1 A*A^-1 deviation from unit magnitude is 4.44D-15 for   1506.
 Iteration    1 A*A^-1 deviation from orthogonality  is 1.79D-15 for   1506   1139.
 Iteration    1 A^-1*A deviation from unit magnitude is 4.44D-15 for   1506.
 Iteration    1 A^-1*A deviation from orthogonality  is 1.56D-15 for   1524    896.
 Error on total polarization charges =  0.01111
 SCF Done:  E(RwB97XD) =  -558.151111813     A.U. after   11 cycles
            NFock= 11  Conv=0.39D-08     -V/T= 2.0061
 D1PCM: C-PCM CHGder 1st derivatives, ID1Alg=3 FixD1E=F DoIter=F DoCFld=F I1PDM=0.
 Calling FoFJK, ICntrl=      2127 FMM=F ISym2X=0 I1Cent= 0 IOpClX= 0 NMat=1 NMatS=1 NMatT=0.
 ***** Axes restored to original set *****
 -------------------------------------------------------------------
 Center     Atomic                   Forces (Hartrees/Bohr)
 Number     Number              X              Y              Z
 -------------------------------------------------------------------
      1        5           0.003094796   -0.001569850   -0.000039892
      2        9           0.000389034   -0.000005468    0.000633330
      3        9          -0.000105363    0.000000411   -0.000634442
      4        9          -0.000178061    0.000391433    0.000057952
      5        8          -0.003875481    0.001574254    0.000396686
      6        6           0.000096101   -0.001810113   -0.000834993
      7        6           0.000241751   -0.000236001   -0.000157519
      8        6           0.001890014    0.001166654    0.000740502
      9        6          -0.000289706    0.000257499   -0.000345669
     10        1           0.000166516    0.000426283   -0.000369504
     11        1           0.000406377    0.000296322    0.000737450
     12        1          -0.000222393    0.000503069    0.000037150
     13        1           0.000003233    0.000013374    0.000292511
     14        1          -0.000114806    0.000300659   -0.000225943
     15        1          -0.000433237   -0.000009449   -0.000504814
     16        1          -0.000557378   -0.000362788    0.000283891
     17        1          -0.000280341   -0.000606328   -0.000050888
     18        1          -0.000221859   -0.000115105    0.000276400
     19        1          -0.000009197   -0.000214856   -0.000292209
 -------------------------------------------------------------------
 Cartesian Forces:  Max     0.003875481 RMS     0.000879576

 GradGradGradGradGradGradGradGradGradGradGradGradGradGradGradGradGradGrad
 Berny optimization.
 Using GEDIIS/GDIIS optimizer.
 FormGI is forming the generalized inverse of G from B-inverse, IUseBI=4.
 Internal  Forces:  Max     0.003382881 RMS     0.000564457
 Search for a local minimum.
 Step number   8 out of a maximum of   97
 All quantities printed in internal units (Hartrees-Bohrs-Radians)
 Mixed Optimization -- En-DIIS/RFO-DIIS
 Swapping is turned off.
 Update second derivatives using D2CorX and points    6    7    8
 DE= -2.17D-04 DEPred=-1.80D-04 R= 1.21D+00
 TightC=F SS=  1.41D+00  RLast= 3.67D-01 DXNew= 1.4270D+00 1.1005D+00
 Trust test= 1.21D+00 RLast= 3.67D-01 DXMaxT set to 1.10D+00
 ITU=  1  1  1  1  1  1  1  0
     Eigenvalues ---    0.00087   0.00283   0.00347   0.01436   0.01535
     Eigenvalues ---    0.02441   0.04431   0.04686   0.05164   0.05268
     Eigenvalues ---    0.05388   0.05523   0.05846   0.05908   0.09754
     Eigenvalues ---    0.10318   0.12782   0.12902   0.12944   0.13204
     Eigenvalues ---    0.15553   0.15999   0.16002   0.16021   0.16072
     Eigenvalues ---    0.16173   0.17603   0.20256   0.21122   0.24614
     Eigenvalues ---    0.24956   0.25412   0.28289   0.28445   0.28654
     Eigenvalues ---    0.29095   0.29956   0.31795   0.31876   0.31941
     Eigenvalues ---    0.32015   0.32094   0.32145   0.32157   0.32215
     Eigenvalues ---    0.32331   0.34046   0.37614   0.42185   0.46712
     Eigenvalues ---    0.52996
 En-DIIS/RFO-DIIS/Sim-DIIS IScMMF=       -3 using points:     8    7    6
 RFO step:  Lambda=-3.11332412D-04.
 DidBck=F Rises=F RFO-DIIS coefs:    1.24972    1.15998   -1.40970
 Iteration  1 RMS(Cart)=  0.06799345 RMS(Int)=  0.00210033
 Iteration  2 RMS(Cart)=  0.00260138 RMS(Int)=  0.00004191
 Iteration  3 RMS(Cart)=  0.00000325 RMS(Int)=  0.00004184
 Iteration  4 RMS(Cart)=  0.00000000 RMS(Int)=  0.00004184
 Variable       Old X    -DE/DX   Delta X   Delta X   Delta X     New X
                                 (Linear)    (Quad)   (Total)
    R1        2.61299  -0.00040  -0.00010  -0.00170  -0.00180   2.61120
    R2        2.62304  -0.00058  -0.00210  -0.00134  -0.00344   2.61960
    R3        2.61649  -0.00016  -0.00222  -0.00041  -0.00263   2.61386
    R4        3.06548  -0.00338   0.03436  -0.01077   0.02359   3.08907
    R5        2.77847   0.00038  -0.01501   0.00420  -0.01082   2.76765
    R6        2.77490   0.00017  -0.01583   0.00471  -0.01112   2.76378
    R7        2.85909  -0.00031   0.00244  -0.00084   0.00160   2.86069
    R8        2.07435  -0.00041   0.00137  -0.00102   0.00035   2.07470
    R9        2.05933  -0.00071   0.00260  -0.00214   0.00046   2.05979
   R10        2.07502  -0.00045   0.00143  -0.00106   0.00037   2.07539
   R11        2.07296  -0.00028   0.00090  -0.00085   0.00005   2.07301
   R12        2.07069  -0.00013   0.00234  -0.00100   0.00134   2.07203
   R13        2.85555  -0.00063   0.00384  -0.00239   0.00145   2.85700
   R14        2.07333  -0.00040   0.00160  -0.00106   0.00054   2.07386
   R15        2.06447  -0.00032   0.00403  -0.00192   0.00212   2.06659
   R16        2.07503  -0.00046   0.00089  -0.00091  -0.00002   2.07501
   R17        2.07140  -0.00032   0.00182  -0.00111   0.00071   2.07210
   R18        2.06766  -0.00019   0.00238  -0.00138   0.00100   2.06866
    A1        1.98246  -0.00037   0.00592  -0.00283   0.00298   1.98545
    A2        1.95340   0.00015   0.00458  -0.00085   0.00366   1.95707
    A3        1.84287  -0.00076  -0.00827   0.00033  -0.00801   1.83486
    A4        1.96991  -0.00031   0.00550  -0.00172   0.00374   1.97365
    A5        1.85145   0.00042  -0.00665   0.00273  -0.00399   1.84746
    A6        1.85063   0.00096  -0.00335   0.00323  -0.00017   1.85046
    A7        2.02861   0.00160   0.01111   0.00391   0.01503   2.04365
    A8        2.03312  -0.00113  -0.00305  -0.00014  -0.00325   2.02988
    A9        1.94990  -0.00029  -0.00425   0.00163  -0.00267   1.94723
   A10        1.94760  -0.00068  -0.00872   0.00204  -0.00664   1.94096
   A11        1.87612  -0.00016   0.00774  -0.00459   0.00310   1.87921
   A12        1.82947   0.00032   0.01264  -0.00086   0.01174   1.84121
   A13        1.96790   0.00039  -0.00264   0.00136  -0.00127   1.96663
   A14        1.92800   0.00030  -0.00312   0.00146  -0.00161   1.92639
   A15        1.90890  -0.00019  -0.00449   0.00029  -0.00437   1.90452
   A16        1.87841  -0.00036   0.00722  -0.00210   0.00511   1.88352
   A17        1.93045  -0.00003  -0.00083  -0.00089  -0.00175   1.92870
   A18        1.97812  -0.00004  -0.00252   0.00084  -0.00170   1.97642
   A19        1.88848   0.00017   0.00201   0.00003   0.00201   1.89049
   A20        1.87281   0.00033  -0.00236   0.00213  -0.00022   1.87259
   A21        1.91236  -0.00005  -0.00306   0.00002  -0.00307   1.90930
   A22        1.96847  -0.00111  -0.00499   0.00133  -0.00363   1.96483
   A23        1.87103   0.00002   0.00910  -0.00405   0.00503   1.87606
   A24        1.83895   0.00012   0.00766  -0.00249   0.00515   1.84410
   A25        1.95522   0.00052  -0.00305   0.00170  -0.00135   1.95387
   A26        1.91640   0.00060  -0.00230   0.00168  -0.00062   1.91578
   A27        1.90935  -0.00018  -0.00563   0.00152  -0.00424   1.90512
   A28        1.86832  -0.00063   0.00942  -0.00444   0.00498   1.87330
   A29        1.94112  -0.00010   0.00047  -0.00130  -0.00086   1.94027
   A30        1.96286   0.00006  -0.00315   0.00147  -0.00168   1.96117
   A31        1.89023   0.00034  -0.00103   0.00148   0.00042   1.89064
   A32        1.88673   0.00039  -0.00392   0.00267  -0.00124   1.88550
   A33        1.91195  -0.00004  -0.00158   0.00017  -0.00143   1.91053
    D1       -2.57227  -0.00044   0.03808  -0.01097   0.02714  -2.54513
    D2        1.35554  -0.00054   0.03542  -0.01814   0.01728   1.37282
    D3        1.60172   0.00015   0.03889  -0.00924   0.02964   1.63136
    D4       -0.75365   0.00005   0.03624  -0.01640   0.01978  -0.73387
    D5       -0.49687  -0.00018   0.03761  -0.01024   0.02740  -0.46947
    D6       -2.85224  -0.00027   0.03496  -0.01741   0.01754  -2.83470
    D7        2.60403  -0.00002  -0.09858  -0.00389  -0.10250   2.50152
    D8       -1.51298  -0.00008  -0.10213  -0.00404  -0.10627  -1.61925
    D9        0.51691  -0.00022  -0.09800  -0.00620  -0.10412   0.41279
   D10       -1.28779  -0.00035  -0.09595   0.00211  -0.09383  -1.38162
   D11        0.87838  -0.00041  -0.09949   0.00196  -0.09759   0.78079
   D12        2.90828  -0.00055  -0.09536  -0.00020  -0.09545   2.81283
   D13       -0.92322   0.00027  -0.01508  -0.01029  -0.02541  -0.94863
   D14        1.23697   0.00021  -0.01569  -0.01015  -0.02592   1.21105
   D15       -3.01354   0.00007  -0.01446  -0.01148  -0.02592  -3.03947
   D16        2.97069  -0.00067  -0.02433  -0.01818  -0.04247   2.92821
   D17       -1.15231  -0.00072  -0.02493  -0.01804  -0.04298  -1.19529
   D18        0.88036  -0.00086  -0.02370  -0.01937  -0.04299   0.83738
   D19       -2.98148  -0.00019  -0.04397  -0.00087  -0.04484  -3.02632
   D20       -0.92183  -0.00021  -0.03777  -0.00258  -0.04035  -0.96218
   D21        1.23369  -0.00033  -0.04434  -0.00262  -0.04694   1.18675
   D22        1.18813   0.00024  -0.04578   0.00264  -0.04314   1.14500
   D23       -3.03540   0.00021  -0.03958   0.00093  -0.03865  -3.07405
   D24       -0.87988   0.00010  -0.04615   0.00090  -0.04524  -0.92512
   D25       -0.95362  -0.00002  -0.03560   0.00022  -0.03539  -0.98901
   D26        1.10603  -0.00004  -0.02940  -0.00149  -0.03090   1.07513
   D27       -3.02163  -0.00016  -0.03597  -0.00152  -0.03750  -3.05913
   D28       -3.02408  -0.00005  -0.01365   0.00894  -0.00473  -3.02881
   D29       -0.96243  -0.00008  -0.00902   0.00732  -0.00169  -0.96411
   D30        1.18942  -0.00016  -0.01308   0.00765  -0.00542   1.18400
   D31        1.14618   0.00035  -0.01968   0.01201  -0.00767   1.13851
   D32       -3.07535   0.00032  -0.01504   0.01039  -0.00463  -3.07997
   D33       -0.92351   0.00023  -0.01910   0.01072  -0.00836  -0.93187
   D34       -0.97903  -0.00019  -0.00868   0.00775  -0.00096  -0.97999
   D35        1.08263  -0.00022  -0.00405   0.00614   0.00209   1.08471
   D36       -3.04872  -0.00030  -0.00811   0.00646  -0.00165  -3.05037
         Item               Value     Threshold  Converged?
 Maximum Force            0.003383     0.000450     NO 
 RMS     Force            0.000564     0.000300     NO 
 Maximum Displacement     0.283426     0.001800     NO 
 RMS     Displacement     0.068221     0.001200     NO 
 Predicted change in Energy=-1.371933D-04
 GradGradGradGradGradGradGradGradGradGradGradGradGradGradGradGradGradGrad

                          Input orientation:                          
 ---------------------------------------------------------------------
 Center     Atomic      Atomic             Coordinates (Angstroms)
 Number     Number       Type             X           Y           Z
 ---------------------------------------------------------------------
      1          5           0       -1.798889    0.718178   -0.166880
      2          9           0       -1.644675    1.694160   -1.132804
      3          9           0       -2.016090    1.221809    1.106235
      4          9           0       -2.726157   -0.239191   -0.536812
      5          8           0       -0.357634   -0.050488   -0.103100
      6          6           0       -0.379906   -1.487193    0.180398
      7          6           0        0.691629   -2.216403   -0.601707
      8          6           0        0.706083    0.627193    0.637341
      9          6           0        0.944694    2.038193    0.149630
     10          1           0       -0.272495   -1.614455    1.265580
     11          1           0       -1.369653   -1.828514   -0.122887
     12          1           0        0.551372   -3.294047   -0.443093
     13          1           0        0.591994   -2.009987   -1.674484
     14          1           0        1.708967   -1.968764   -0.276219
     15          1           0        0.436114    0.600891    1.700733
     16          1           0        1.605092    0.024634    0.480348
     17          1           0        1.827820    2.421806    0.677487
     18          1           0        1.152091    2.055280   -0.926952
     19          1           0        0.103183    2.702880    0.369604
 ---------------------------------------------------------------------
                    Distance matrix (angstroms):
                    1          2          3          4          5
     1  B    0.000000
     2  F    1.381785   0.000000
     3  F    1.386233   2.318266   0.000000
     4  F    1.383196   2.294048   2.310480   0.000000
     5  O    1.634665   2.400116   2.414893   2.415288   0.000000
     6  C    2.645331   3.666762   3.297418   2.752598   1.464578
     7  C    3.873437   4.586162   4.697883   3.949030   2.457794
     8  C    2.632476   3.130158   2.825536   3.729548   1.462532
     9  C    3.061023   2.909952   3.216802   4.374109   2.474373
    10  H    3.134166   4.310690   3.333152   3.340722   2.080030
    11  H    2.582986   3.674887   3.351580   2.130113   2.045959
    12  H    4.658108   5.493681   5.420815   4.481420   3.385640
    13  H    3.928368   4.360826   4.997900   3.929394   2.685270
    14  H    4.420030   5.039609   5.095781   4.767563   2.824994
    15  H    2.914957   3.681555   2.598513   3.963875   2.075608
    16  H    3.533694   3.993815   3.864960   4.456897   2.048987
    17  H    4.094915   3.983070   4.049625   5.412406   3.390836
    18  H    3.327737   2.827487   3.855631   4.523010   2.718872
    19  H    2.800845   2.515899   2.688403   4.181212   2.831402
                    6          7          8          9         10
     6  C    0.000000
     7  C    1.513810   0.000000
     8  C    2.420495   3.101853   0.000000
     9  C    3.766146   4.327833   1.511859   0.000000
    10  H    1.097886   2.186010   2.525329   4.008582   0.000000
    11  H    1.089991   2.151420   3.304106   4.514630   1.782531
    12  H    2.126203   1.098247   4.070306   5.379480   2.533644
    13  H    2.158353   1.096989   3.508884   4.454161   3.089946
    14  H    2.191757   1.096469   2.929054   4.101361   2.535522
    15  H    2.708765   3.647420   1.097441   2.174951   2.366272
    16  H    2.513127   2.650944   1.093591   2.144743   2.613146
    17  H    4.516794   4.943709   2.116729   1.098046   4.587873
    18  H    4.015266   4.308723   2.164571   1.096510   4.505952
    19  H    4.222071   5.048669   2.177991   1.094686   4.425301
                   11         12         13         14         15
    11  H    0.000000
    12  H    2.437346   0.000000
    13  H    2.507677   1.779546   0.000000
    14  H    3.085625   1.767554   1.790104   0.000000
    15  H    3.533892   4.447451   4.270020   3.483048   0.000000
    16  H    3.556284   3.602320   3.131988   2.134670   1.785475
    17  H    5.378629   5.962885   5.167187   4.494528   2.509902
    18  H    4.699954   5.404654   4.171200   4.114182   3.087491
    19  H    4.790127   6.068318   5.160266   4.981956   2.510200
                   16         17         18         19
    16  H    0.000000
    17  H    2.415555   0.000000
    18  H    2.511818   1.779094   0.000000
    19  H    3.072620   1.774308   1.789037   0.000000
 Stoichiometry    C4H10BF3O
 Framework group  C1[X(C4H10BF3O)]
 Deg. of freedom    51
 Full point group                 C1      NOp   1
 Largest Abelian subgroup         C1      NOp   1
 Largest concise Abelian subgroup C1      NOp   1
                         Standard orientation:                         
 ---------------------------------------------------------------------
 Center     Atomic      Atomic             Coordinates (Angstroms)
 Number     Number       Type             X           Y           Z
 ---------------------------------------------------------------------
      1          5           0       -1.014936   -0.656634   -0.038303
      2          9           0       -1.693672   -0.162940   -1.135990
      3          9           0       -1.597485   -0.323614    1.174700
      4          9           0       -0.744646   -2.007941   -0.157227
      5          8           0        0.435409    0.097156   -0.058993
      6          6           0        1.591827   -0.668495    0.411607
      7          6           0        2.829125   -0.345168   -0.398439
      8          6           0        0.459278    1.470457    0.443476
      9          6           0       -0.545425    2.360597   -0.252184
     10          1           0        1.718867   -0.456605    1.481335
     11          1           0        1.318484   -1.716048    0.285126
     12          1           0        3.628014   -1.029463   -0.082744
     13          1           0        2.641108   -0.504512   -1.467384
     14          1           0        3.194299    0.676699   -0.241336
     15          1           0        0.289070    1.428297    1.526817
     16          1           0        1.471995    1.836779    0.253337
     17          1           0       -0.375582    3.385587    0.103138
     18          1           0       -0.402859    2.344481   -1.339267
     19          1           0       -1.578597    2.086815   -0.015673
 ---------------------------------------------------------------------
 Rotational constants (GHZ):           1.8012923           1.3767613           0.9842498
 Standard basis: Aug-CC-pVDZ (5D, 7F)
 There are   315 symmetry adapted cartesian basis functions of A   symmetry.
 There are   297 symmetry adapted basis functions of A   symmetry.
   297 basis functions,   497 primitive gaussians,   315 cartesian basis functions
    37 alpha electrons       37 beta electrons
       nuclear repulsion energy       522.9060181611 Hartrees.
 NAtoms=   19 NActive=   19 NUniq=   19 SFac= 1.00D+00 NAtFMM=   60 NAOKFM=F Big=F
 Integral buffers will be    131072 words long.
 Raffenetti 2 integral format.
 Two-electron integral symmetry is turned on.
 Nuclear repulsion after empirical dispersion term =      522.8940106088 Hartrees.
 Force PCM accuracy= 1.00D-12.
 ------------------------------------------------------------------------------
 Polarizable Continuum Model (PCM)
 =================================
 Model                : C-PCM.
 Atomic radii         : UFF (Universal Force Field).
 Polarization charges : Total charges.
 Charge compensation  : None.
 Solution method      : On-the-fly selection.
 Cavity type          : Scaled VdW (van der Waals Surface) (Alpha=1.100).
 Cavity algorithm     : GePol (No added spheres)
                        Default sphere list used, NSphG=   19.
                        Lebedev-Laikov grids with approx.  5.0 points / Ang**2.
                        Smoothing algorithm: York/Karplus (Gamma=1.0000).
                        Polarization charges: spherical gaussians, with
                                              point-specific exponents (IZeta= 3).
                        Self-potential: point-specific (ISelfS= 7).
                        Self-field    : sphere-specific E.n sum rule (ISelfD= 2).
 1st derivatives      : Analytical E(r).r(x)/FMM algorithm (CHGder, D1EAlg=3).
                        Cavity 1st derivative terms included.
 Solvent              : DiMethylSulfoxide, Eps=  46.826000 Eps(inf)=   2.007889
 ------------------------------------------------------------------------------
 Spheres list:
 ISph  on   Nord     Re0    Alpha      Xe            Ye            Ze
    1   B      1    2.0415  1.100     -1.014936     -0.656634     -0.038303
    2   F      2    1.6820  1.100     -1.693672     -0.162940     -1.135990
    3   F      3    1.6820  1.100     -1.597485     -0.323614      1.174700
    4   F      4    1.6820  1.100     -0.744646     -2.007941     -0.157227
    5   O      5    1.7500  1.100      0.435409      0.097156     -0.058993
    6   C      6    1.9255  1.100      1.591827     -0.668495      0.411607
    7   C      7    1.9255  1.100      2.829125     -0.345168     -0.398439
    8   C      8    1.9255  1.100      0.459278      1.470457      0.443476
    9   C      9    1.9255  1.100     -0.545425      2.360597     -0.252184
   10   H     10    1.4430  1.100      1.718867     -0.456605      1.481335
   11   H     11    1.4430  1.100      1.318484     -1.716048      0.285126
   12   H     12    1.4430  1.100      3.628014     -1.029463     -0.082744
   13   H     13    1.4430  1.100      2.641108     -0.504512     -1.467384
   14   H     14    1.4430  1.100      3.194299      0.676699     -0.241336
   15   H     15    1.4430  1.100      0.289070      1.428297      1.526817
   16   H     16    1.4430  1.100      1.471995      1.836779      0.253337
   17   H     17    1.4430  1.100     -0.375582      3.385587      0.103138
   18   H     18    1.4430  1.100     -0.402859      2.344481     -1.339267
   19   H     19    1.4430  1.100     -1.578597      2.086815     -0.015673
 ------------------------------------------------------------------------------
 One-electron integrals computed using PRISM.
 NBasis=   297 RedAO= T EigKep=  2.71D-05  NBF=   297
 NBsUse=   297 1.00D-06 EigRej= -1.00D+00 NBFU=   297
 Initial guess from the checkpoint file:  "/inspire/hdd/project/materialscienceresearch/lipenghui-253107030018/g16/00-B-DFT-Shift/04-output/BF3OEt2_DMSO-d6/BF3OEt2_DMSO-d6.chk"
 B after Tr=     0.000000   -0.000000   -0.000000
         Rot=    0.999962    0.006215    0.004423   -0.004324 Ang=   1.00 deg.
 ExpMin= 2.38D-02 ExpMax= 1.47D+04 ExpMxC= 5.03D+02 IAcc=3 IRadAn=         5 AccDes= 0.00D+00
 Harris functional with IExCor= 4639 and IRadAn=       5 diagonalized for initial guess.
 HarFok:  IExCor= 4639 AccDes= 0.00D+00 IRadAn=         5 IDoV= 1 UseB2=F ITyADJ=14
 ICtDFT=  3500011 ScaDFX=  1.000000  1.000000  1.000000  1.000000
 FoFCou: FMM=F IPFlag=           0 FMFlag=      100000 FMFlg1=           0
         NFxFlg=           0 DoJE=T BraDBF=F KetDBF=T FulRan=T
         wScrn=  0.000000 ICntrl=       500 IOpCl=  0 I1Cent=   200000004 NGrid=           0
         NMat0=    1 NMatS0=      1 NMatT0=    0 NMatD0=    1 NMtDS0=    0 NMtDT0=    0
 Petite list used in FoFCou.
 Requested convergence on RMS density matrix=1.00D-08 within 128 cycles.
 Requested convergence on MAX density matrix=1.00D-06.
 Requested convergence on             energy=1.00D-06.
 No special actions if energy rises.
 Inv3:  Mode=1 IEnd=     6804108.
 Iteration    1 A*A^-1 deviation from unit magnitude is 3.77D-15 for   1474.
 Iteration    1 A*A^-1 deviation from orthogonality  is 2.05D-15 for    818    532.
 Iteration    1 A^-1*A deviation from unit magnitude is 3.77D-15 for   1493.
 Iteration    1 A^-1*A deviation from orthogonality  is 1.93D-15 for   1318    368.
 Error on total polarization charges =  0.01119
 SCF Done:  E(RwB97XD) =  -558.151260464     A.U. after   11 cycles
            NFock= 11  Conv=0.30D-08     -V/T= 2.0061
 D1PCM: C-PCM CHGder 1st derivatives, ID1Alg=3 FixD1E=F DoIter=F DoCFld=F I1PDM=0.
 Calling FoFJK, ICntrl=      2127 FMM=F ISym2X=0 I1Cent= 0 IOpClX= 0 NMat=1 NMatS=1 NMatT=0.
 ***** Axes restored to original set *****
 -------------------------------------------------------------------
 Center     Atomic                   Forces (Hartrees/Bohr)
 Number     Number              X              Y              Z
 -------------------------------------------------------------------
      1        5           0.004329550   -0.002263874   -0.000237443
      2        9           0.000077297    0.000034635    0.000661350
      3        9          -0.000189566   -0.000026474   -0.000590737
      4        9           0.000333235    0.000156059    0.000152663
      5        8          -0.006704091    0.002721355   -0.000184724
      6        6           0.000350813   -0.004409321   -0.000647052
      7        6           0.000400518   -0.000200001   -0.000081135
      8        6           0.004191187    0.002824008    0.001668611
      9        6          -0.000434070    0.000470046   -0.000395202
     10        1           0.000153271    0.000676658   -0.000569973
     11        1           0.000147844    0.000789930    0.000550498
     12        1          -0.000370190    0.000607462    0.000027107
     13        1           0.000024173   -0.000061659    0.000351451
     14        1          -0.000363949    0.000595155   -0.000194300
     15        1          -0.000685608   -0.000047158   -0.000761332
     16        1          -0.001000073   -0.000528285    0.000164517
     17        1          -0.000261666   -0.000821622   -0.000014953
     18        1          -0.000259374   -0.000153231    0.000420896
     19        1           0.000260698   -0.000363686   -0.000320245
 -------------------------------------------------------------------
 Cartesian Forces:  Max     0.006704091 RMS     0.001527346

 GradGradGradGradGradGradGradGradGradGradGradGradGradGradGradGradGradGrad
 Berny optimization.
 Using GEDIIS/GDIIS optimizer.
 FormGI is forming the generalized inverse of G from B-inverse, IUseBI=4.
 Internal  Forces:  Max     0.004998376 RMS     0.000742703
 Search for a local minimum.
 Step number   9 out of a maximum of   97
 All quantities printed in internal units (Hartrees-Bohrs-Radians)
 Mixed Optimization -- En-DIIS/RFO-DIIS
 Swapping is turned off.
 Update second derivatives using D2CorX and points    8    9
 DE= -1.49D-04 DEPred=-1.37D-04 R= 1.08D+00
 TightC=F SS=  1.41D+00  RLast= 2.96D-01 DXNew= 1.8509D+00 8.8778D-01
 Trust test= 1.08D+00 RLast= 2.96D-01 DXMaxT set to 1.10D+00
 ITU=  1  1  1  1  1  1  1  1  0
     Eigenvalues ---    0.00056   0.00285   0.00362   0.01457   0.01505
     Eigenvalues ---    0.02421   0.04442   0.04700   0.05176   0.05286
     Eigenvalues ---    0.05420   0.05623   0.05816   0.05887   0.09704
     Eigenvalues ---    0.10401   0.12774   0.12931   0.12956   0.13369
     Eigenvalues ---    0.15549   0.16000   0.16003   0.16021   0.16112
     Eigenvalues ---    0.16323   0.18079   0.20615   0.21372   0.24532
     Eigenvalues ---    0.25169   0.26439   0.28323   0.28450   0.28703
     Eigenvalues ---    0.29154   0.31371   0.31755   0.31939   0.32005
     Eigenvalues ---    0.32093   0.32132   0.32156   0.32188   0.32216
     Eigenvalues ---    0.32468   0.35620   0.37613   0.41890   0.51391
     Eigenvalues ---    0.57754
 En-DIIS/RFO-DIIS/Sim-DIIS IScMMF=       -3 using points:     9    8    7    6
 RFO step:  Lambda=-3.38424098D-04.
 DidBck=F Rises=F RFO-DIIS coefs:    2.29737   -1.58699    1.39457   -1.10496
 Iteration  1 RMS(Cart)=  0.09845531 RMS(Int)=  0.00453844
 Iteration  2 RMS(Cart)=  0.00565203 RMS(Int)=  0.00006140
 Iteration  3 RMS(Cart)=  0.00001844 RMS(Int)=  0.00005978
 Iteration  4 RMS(Cart)=  0.00000000 RMS(Int)=  0.00005978
 Variable       Old X    -DE/DX   Delta X   Delta X   Delta X     New X
                                 (Linear)    (Quad)   (Total)
    R1        2.61120  -0.00043  -0.00104  -0.00046  -0.00149   2.60970
    R2        2.61960  -0.00052  -0.00384   0.00009  -0.00375   2.61585
    R3        2.61386  -0.00037  -0.00274  -0.00042  -0.00316   2.61070
    R4        3.08907  -0.00500   0.03906  -0.01498   0.02408   3.11315
    R5        2.76765   0.00184  -0.01800   0.00631  -0.01169   2.75596
    R6        2.76378   0.00235  -0.01901   0.00771  -0.01130   2.75249
    R7        2.86069  -0.00072   0.00220  -0.00128   0.00091   2.86160
    R8        2.07470  -0.00063   0.00105  -0.00110  -0.00005   2.07466
    R9        2.05979  -0.00053   0.00196  -0.00045   0.00151   2.06130
   R10        2.07539  -0.00055   0.00128  -0.00085   0.00043   2.07582
   R11        2.07301  -0.00035   0.00072  -0.00065   0.00008   2.07309
   R12        2.07203  -0.00026   0.00293  -0.00120   0.00173   2.07376
   R13        2.85700  -0.00083   0.00334  -0.00204   0.00130   2.85830
   R14        2.07386  -0.00057   0.00147  -0.00104   0.00043   2.07429
   R15        2.06659  -0.00055   0.00489  -0.00231   0.00258   2.06917
   R16        2.07501  -0.00050   0.00061  -0.00066  -0.00005   2.07496
   R17        2.07210  -0.00047   0.00182  -0.00103   0.00080   2.07290
   R18        2.06866  -0.00049   0.00259  -0.00153   0.00105   2.06971
    A1        1.98545  -0.00046   0.00495  -0.00130   0.00352   1.98897
    A2        1.95707   0.00029   0.00587   0.00012   0.00593   1.96299
    A3        1.83486   0.00001  -0.01218   0.00353  -0.00874   1.82612
    A4        1.97365  -0.00013   0.00641  -0.00123   0.00514   1.97879
    A5        1.84746   0.00062  -0.00739   0.00298  -0.00448   1.84298
    A6        1.85046  -0.00027  -0.00038  -0.00371  -0.00414   1.84632
    A7        2.04365   0.00060   0.02239  -0.00396   0.01843   2.06207
    A8        2.02988  -0.00021  -0.00525   0.00355  -0.00188   2.02800
    A9        1.94723  -0.00012  -0.00595   0.00530  -0.00082   1.94641
   A10        1.94096  -0.00070  -0.01380   0.00409  -0.00967   1.93129
   A11        1.87921  -0.00027   0.00625  -0.00340   0.00275   1.88197
   A12        1.84121  -0.00004   0.02001  -0.00601   0.01397   1.85518
   A13        1.96663   0.00045  -0.00304   0.00182  -0.00122   1.96542
   A14        1.92639   0.00066  -0.00167   0.00202   0.00045   1.92684
   A15        1.90452  -0.00015  -0.00596   0.00084  -0.00530   1.89922
   A16        1.88352  -0.00046   0.00882  -0.00128   0.00754   1.89106
   A17        1.92870   0.00009  -0.00193   0.00005  -0.00193   1.92677
   A18        1.97642  -0.00043  -0.00404  -0.00163  -0.00570   1.97073
   A19        1.89049   0.00016   0.00300  -0.00002   0.00296   1.89345
   A20        1.87259   0.00062  -0.00053   0.00284   0.00233   1.87493
   A21        1.90930   0.00006  -0.00464   0.00015  -0.00456   1.90473
   A22        1.96483  -0.00021  -0.00845   0.00385  -0.00457   1.96026
   A23        1.87606  -0.00041   0.00939  -0.00418   0.00518   1.88124
   A24        1.84410  -0.00044   0.00901  -0.00424   0.00476   1.84886
   A25        1.95387   0.00044  -0.00255   0.00187  -0.00066   1.95321
   A26        1.91578   0.00057  -0.00012   0.00062   0.00053   1.91631
   A27        1.90512  -0.00001  -0.00656   0.00166  -0.00500   1.90012
   A28        1.87330  -0.00095   0.00992  -0.00458   0.00533   1.87863
   A29        1.94027  -0.00014  -0.00045  -0.00106  -0.00153   1.93874
   A30        1.96117   0.00019  -0.00383   0.00203  -0.00180   1.95937
   A31        1.89064   0.00045  -0.00006   0.00097   0.00088   1.89152
   A32        1.88550   0.00049  -0.00287   0.00207  -0.00079   1.88471
   A33        1.91053  -0.00002  -0.00237   0.00055  -0.00184   1.90869
    D1       -2.54513  -0.00017   0.04183  -0.00297   0.03894  -2.50620
    D2        1.37282  -0.00046   0.03089  -0.01129   0.01958   1.39241
    D3        1.63136   0.00005   0.04593  -0.00465   0.04128   1.67264
    D4       -0.73387  -0.00024   0.03500  -0.01298   0.02193  -0.71194
    D5       -0.46947   0.00004   0.04245  -0.00288   0.03964  -0.42984
    D6       -2.83470  -0.00026   0.03152  -0.01121   0.02028  -2.81442
    D7        2.50152  -0.00021  -0.14427  -0.00182  -0.14618   2.35535
    D8       -1.61925  -0.00029  -0.15266   0.00078  -0.15203  -1.77128
    D9        0.41279  -0.00060  -0.14711  -0.00282  -0.14986   0.26293
   D10       -1.38162   0.00001  -0.13430   0.00564  -0.12864  -1.51026
   D11        0.78079  -0.00007  -0.14269   0.00823  -0.13449   0.64630
   D12        2.81283  -0.00038  -0.13713   0.00464  -0.13232   2.68051
   D13       -0.94863  -0.00007  -0.03075  -0.01382  -0.04465  -0.99328
   D14        1.21105   0.00006  -0.03280  -0.01189  -0.04482   1.16623
   D15       -3.03947  -0.00036  -0.03170  -0.01403  -0.04576  -3.08522
   D16        2.92821  -0.00066  -0.05344  -0.01776  -0.07112   2.85709
   D17       -1.19529  -0.00053  -0.05548  -0.01584  -0.07129  -1.26658
   D18        0.83738  -0.00095  -0.05438  -0.01797  -0.07223   0.76515
   D19       -3.02632  -0.00016  -0.07669  -0.00071  -0.07740  -3.10372
   D20       -0.96218  -0.00019  -0.06893  -0.00146  -0.07039  -1.03257
   D21        1.18675  -0.00036  -0.07949  -0.00241  -0.08187   1.10489
   D22        1.14500   0.00038  -0.07261  -0.00054  -0.07318   1.07181
   D23       -3.07405   0.00035  -0.06485  -0.00130  -0.06617  -3.14022
   D24       -0.92512   0.00017  -0.07541  -0.00225  -0.07765  -1.00277
   D25       -0.98901  -0.00022  -0.06143  -0.00437  -0.06582  -1.05483
   D26        1.07513  -0.00025  -0.05367  -0.00513  -0.05881   1.01632
   D27       -3.05913  -0.00043  -0.06423  -0.00607  -0.07028  -3.12941
   D28       -3.02881   0.00007  -0.01738   0.01433  -0.00306  -3.03187
   D29       -0.96411  -0.00005  -0.01175   0.01213   0.00038  -0.96373
   D30        1.18400  -0.00004  -0.01801   0.01355  -0.00445   1.17954
   D31        1.13851   0.00043  -0.02164   0.01563  -0.00602   1.13249
   D32       -3.07997   0.00032  -0.01600   0.01342  -0.00258  -3.08255
   D33       -0.93187   0.00032  -0.02226   0.01484  -0.00741  -0.93928
   D34       -0.97999  -0.00024  -0.01145   0.01184   0.00038  -0.97961
   D35        1.08471  -0.00035  -0.00581   0.00964   0.00382   1.08853
   D36       -3.05037  -0.00035  -0.01207   0.01106  -0.00101  -3.05138
         Item               Value     Threshold  Converged?
 Maximum Force            0.004998     0.000450     NO 
 RMS     Force            0.000743     0.000300     NO 
 Maximum Displacement     0.413780     0.001800     NO 
 RMS     Displacement     0.099184     0.001200     NO 
 Predicted change in Energy=-1.803779D-04
 GradGradGradGradGradGradGradGradGradGradGradGradGradGradGradGradGradGrad

                          Input orientation:                          
 ---------------------------------------------------------------------
 Center     Atomic      Atomic             Coordinates (Angstroms)
 Number     Number       Type             X           Y           Z
 ---------------------------------------------------------------------
      1          5           0       -1.797087    0.708164   -0.200724
      2          9           0       -1.604021    1.648653   -1.193373
      3          9           0       -2.052231    1.251587    1.046566
      4          9           0       -2.701532   -0.269366   -0.568175
      5          8           0       -0.343745   -0.055123   -0.062391
      6          6           0       -0.342224   -1.486589    0.216560
      7          6           0        0.652348   -2.203000   -0.672633
      8          6           0        0.677095    0.640693    0.709150
      9          6           0        0.964995    2.022708    0.166058
     10          1           0       -0.126538   -1.620678    1.284641
     11          1           0       -1.354792   -1.838697    0.015190
     12          1           0        0.594553   -3.279007   -0.459282
     13          1           0        0.404176   -2.044084   -1.729342
     14          1           0        1.688460   -1.887978   -0.495183
     15          1           0        0.343712    0.672628    1.754479
     16          1           0        1.577703    0.021401    0.643453
     17          1           0        1.816237    2.430076    0.727382
     18          1           0        1.239029    1.980383   -0.895249
     19          1           0        0.117401    2.704209    0.295287
 ---------------------------------------------------------------------
                    Distance matrix (angstroms):
                    1          2          3          4          5
     1  B    0.000000
     2  F    1.380995   0.000000
     3  F    1.384246   2.318595   0.000000
     4  F    1.381523   2.296562   2.311337   0.000000
     5  O    1.647406   2.402138   2.419959   2.420925   0.000000
     6  C    2.666026   3.661937   3.333262   2.768353   1.458393
     7  C    3.833707   4.494175   4.712172   3.872773   2.444990
     8  C    2.637044   3.136729   2.817137   3.724901   1.456554
     9  C    3.080852   2.930497   3.236290   4.385900   2.466245
    10  H    3.228088   4.360280   3.466248   3.448126   2.076689
    11  H    2.593983   3.699236   3.331668   2.148680   2.051675
    12  H    4.656644   5.445590   5.458875   4.464748   3.381029
    13  H    3.841497   4.237502   4.959943   3.760765   2.700755
    14  H    4.356111   4.882178   5.121193   4.679451   2.770654
    15  H    2.899501   3.665532   2.564543   3.944058   2.074425
    16  H    3.545912   4.018115   3.853865   4.456955   2.048423
    17  H    4.108829   3.999761   4.056570   5.419935   3.386071
    18  H    3.364358   2.877822   3.890267   4.549327   2.709633
    19  H    2.809891   2.508706   2.716953   4.187374   2.820372
                    6          7          8          9         10
     6  C    0.000000
     7  C    1.514293   0.000000
     8  C    2.409768   3.161729   0.000000
     9  C    3.745201   4.319463   1.512547   0.000000
    10  H    1.097860   2.185563   2.467957   3.964458   0.000000
    11  H    1.090791   2.152772   3.279865   4.507174   1.779788
    12  H    2.132388   1.098476   4.090977   5.351304   2.512229
    13  H    2.157417   1.097031   3.637135   4.521709   3.089502
    14  H    2.188919   1.097385   2.977827   4.031638   2.556059
    15  H    2.738233   3.775629   1.097669   2.175267   2.387705
    16  H    2.478385   2.745237   1.094958   2.146752   2.451934
    17  H    4.501128   4.977959   2.121289   1.098019   4.526977
    18  H    3.969430   4.230183   2.164402   1.096931   4.425419
    19  H    4.216662   5.030282   2.177760   1.095244   4.443307
                   11         12         13         14         15
    11  H    0.000000
    12  H    2.469729   0.000000
    13  H    2.485868   1.781665   0.000000
    14  H    3.086145   1.769994   1.787989   0.000000
    15  H    3.495253   4.536417   4.418279   3.664155   0.000000
    16  H    3.529052   3.615979   3.357611   2.225868   1.783594
    17  H    5.365171   5.957710   5.295990   4.489608   2.512346
    18  H    4.705547   5.316634   4.193927   3.914877   3.087535
    19  H    4.783701   6.049456   5.169879   4.917443   2.511529
                   16         17         18         19
    16  H    0.000000
    17  H    2.421912   0.000000
    18  H    2.513944   1.779978   0.000000
    19  H    3.074274   1.774232   1.788672   0.000000
 Stoichiometry    C4H10BF3O
 Framework group  C1[X(C4H10BF3O)]
 Deg. of freedom    51
 Full point group                 C1      NOp   1
 Largest Abelian subgroup         C1      NOp   1
 Largest concise Abelian subgroup C1      NOp   1
                         Standard orientation:                         
 ---------------------------------------------------------------------
 Center     Atomic      Atomic             Coordinates (Angstroms)
 Number     Number       Type             X           Y           Z
 ---------------------------------------------------------------------
      1          5           0       -1.001706   -0.680882   -0.041910
      2          9           0       -1.634858   -0.219986   -1.179381
      3          9           0       -1.642530   -0.338022    1.136195
      4          9           0       -0.682839   -2.022714   -0.122011
      5          8           0        0.437211    0.120755   -0.012893
      6          6           0        1.613350   -0.593969    0.469579
      7          6           0        2.796748   -0.353242   -0.444043
      8          6           0        0.401208    1.488678    0.486145
      9          6           0       -0.562114    2.358274   -0.290781
     10          1           0        1.803783   -0.270114    1.501156
     11          1           0        1.347231   -1.651777    0.476357
     12          1           0        3.647766   -0.937808   -0.068942
     13          1           0        2.567159   -0.687835   -1.463264
     14          1           0        3.107667    0.698797   -0.472302
     15          1           0        0.148252    1.449656    1.553556
     16          1           0        1.419925    1.875141    0.377538
     17          1           0       -0.445763    3.388610    0.070491
     18          1           0       -0.333086    2.339974   -1.363381
     19          1           0       -1.605208    2.061782   -0.137142
 ---------------------------------------------------------------------
 Rotational constants (GHZ):           1.7781965           1.3865172           0.9913953
 Standard basis: Aug-CC-pVDZ (5D, 7F)
 There are   315 symmetry adapted cartesian basis functions of A   symmetry.
 There are   297 symmetry adapted basis functions of A   symmetry.
   297 basis functions,   497 primitive gaussians,   315 cartesian basis functions
    37 alpha electrons       37 beta electrons
       nuclear repulsion energy       522.7864643561 Hartrees.
 NAtoms=   19 NActive=   19 NUniq=   19 SFac= 1.00D+00 NAtFMM=   60 NAOKFM=F Big=F
 Integral buffers will be    131072 words long.
 Raffenetti 2 integral format.
 Two-electron integral symmetry is turned on.
 Nuclear repulsion after empirical dispersion term =      522.7744410088 Hartrees.
 Force PCM accuracy= 1.00D-12.
 ------------------------------------------------------------------------------
 Polarizable Continuum Model (PCM)
 =================================
 Model                : C-PCM.
 Atomic radii         : UFF (Universal Force Field).
 Polarization charges : Total charges.
 Charge compensation  : None.
 Solution method      : On-the-fly selection.
 Cavity type          : Scaled VdW (van der Waals Surface) (Alpha=1.100).
 Cavity algorithm     : GePol (No added spheres)
                        Default sphere list used, NSphG=   19.
                        Lebedev-Laikov grids with approx.  5.0 points / Ang**2.
                        Smoothing algorithm: York/Karplus (Gamma=1.0000).
                        Polarization charges: spherical gaussians, with
                                              point-specific exponents (IZeta= 3).
                        Self-potential: point-specific (ISelfS= 7).
                        Self-field    : sphere-specific E.n sum rule (ISelfD= 2).
 1st derivatives      : Analytical E(r).r(x)/FMM algorithm (CHGder, D1EAlg=3).
                        Cavity 1st derivative terms included.
 Solvent              : DiMethylSulfoxide, Eps=  46.826000 Eps(inf)=   2.007889
 ------------------------------------------------------------------------------
 Spheres list:
 ISph  on   Nord     Re0    Alpha      Xe            Ye            Ze
    1   B      1    2.0415  1.100     -1.001706     -0.680882     -0.041910
    2   F      2    1.6820  1.100     -1.634858     -0.219986     -1.179381
    3   F      3    1.6820  1.100     -1.642530     -0.338022      1.136195
    4   F      4    1.6820  1.100     -0.682839     -2.022714     -0.122011
    5   O      5    1.7500  1.100      0.437211      0.120755     -0.012893
    6   C      6    1.9255  1.100      1.613350     -0.593969      0.469579
    7   C      7    1.9255  1.100      2.796748     -0.353242     -0.444043
    8   C      8    1.9255  1.100      0.401208      1.488678      0.486145
    9   C      9    1.9255  1.100     -0.562114      2.358274     -0.290781
   10   H     10    1.4430  1.100      1.803783     -0.270114      1.501156
   11   H     11    1.4430  1.100      1.347231     -1.651777      0.476357
   12   H     12    1.4430  1.100      3.647766     -0.937808     -0.068942
   13   H     13    1.4430  1.100      2.567159     -0.687835     -1.463264
   14   H     14    1.4430  1.100      3.107667      0.698797     -0.472302
   15   H     15    1.4430  1.100      0.148252      1.449656      1.553556
   16   H     16    1.4430  1.100      1.419925      1.875141      0.377538
   17   H     17    1.4430  1.100     -0.445763      3.388610      0.070491
   18   H     18    1.4430  1.100     -0.333086      2.339974     -1.363381
   19   H     19    1.4430  1.100     -1.605208      2.061782     -0.137142
 ------------------------------------------------------------------------------
 One-electron integrals computed using PRISM.
 NBasis=   297 RedAO= T EigKep=  2.62D-05  NBF=   297
 NBsUse=   297 1.00D-06 EigRej= -1.00D+00 NBFU=   297
 Initial guess from the checkpoint file:  "/inspire/hdd/project/materialscienceresearch/lipenghui-253107030018/g16/00-B-DFT-Shift/04-output/BF3OEt2_DMSO-d6/BF3OEt2_DMSO-d6.chk"
 B after Tr=    -0.000000   -0.000000    0.000000
         Rot=    0.999910    0.008470    0.005998   -0.008508 Ang=   1.54 deg.
 ExpMin= 2.38D-02 ExpMax= 1.47D+04 ExpMxC= 5.03D+02 IAcc=3 IRadAn=         5 AccDes= 0.00D+00
 Harris functional with IExCor= 4639 and IRadAn=       5 diagonalized for initial guess.
 HarFok:  IExCor= 4639 AccDes= 0.00D+00 IRadAn=         5 IDoV= 1 UseB2=F ITyADJ=14
 ICtDFT=  3500011 ScaDFX=  1.000000  1.000000  1.000000  1.000000
 FoFCou: FMM=F IPFlag=           0 FMFlag=      100000 FMFlg1=           0
         NFxFlg=           0 DoJE=T BraDBF=F KetDBF=T FulRan=T
         wScrn=  0.000000 ICntrl=       500 IOpCl=  0 I1Cent=   200000004 NGrid=           0
         NMat0=    1 NMatS0=      1 NMatT0=    0 NMatD0=    1 NMtDS0=    0 NMtDT0=    0
 Petite list used in FoFCou.
 Requested convergence on RMS density matrix=1.00D-08 within 128 cycles.
 Requested convergence on MAX density matrix=1.00D-06.
 Requested convergence on             energy=1.00D-06.
 No special actions if energy rises.
 Inv3:  Mode=1 IEnd=     6949452.
 Iteration    1 A*A^-1 deviation from unit magnitude is 4.44D-15 for   1494.
 Iteration    1 A*A^-1 deviation from orthogonality  is 2.52D-15 for   1081    624.
 Iteration    1 A^-1*A deviation from unit magnitude is 4.22D-15 for   1494.
 Iteration    1 A^-1*A deviation from orthogonality  is 1.59D-15 for   1280    592.
 Error on total polarization charges =  0.01120
 SCF Done:  E(RwB97XD) =  -558.151343624     A.U. after   11 cycles
            NFock= 11  Conv=0.48D-08     -V/T= 2.0061
 D1PCM: C-PCM CHGder 1st derivatives, ID1Alg=3 FixD1E=F DoIter=F DoCFld=F I1PDM=0.
 Calling FoFJK, ICntrl=      2127 FMM=F ISym2X=0 I1Cent= 0 IOpClX= 0 NMat=1 NMatS=1 NMatT=0.
 ***** Axes restored to original set *****
 -------------------------------------------------------------------
 Center     Atomic                   Forces (Hartrees/Bohr)
 Number     Number              X              Y              Z
 -------------------------------------------------------------------
      1        5           0.005952936   -0.003155431   -0.000320733
      2        9          -0.000462831   -0.000025479    0.000828846
      3        9          -0.000291377    0.000107704   -0.000711165
      4        9           0.000473456    0.000153311    0.000154612
      5        8          -0.009223899    0.004159750   -0.000845017
      6        6           0.000097849   -0.007409330   -0.000580373
      7        6           0.000592625   -0.000091132   -0.000062971
      8        6           0.006590486    0.004473717    0.002778867
      9        6          -0.000635355    0.000644190   -0.000486852
     10        1          -0.000032987    0.000977946   -0.000817865
     11        1           0.000139294    0.001272286    0.000559504
     12        1          -0.000537606    0.000704499   -0.000046631
     13        1           0.000175339   -0.000093341    0.000348389
     14        1          -0.000611459    0.000771038    0.000122228
     15        1          -0.000838368   -0.000256914   -0.000954518
     16        1          -0.001268435   -0.000511757   -0.000322474
     17        1          -0.000258306   -0.000974109    0.000040486
     18        1          -0.000301718   -0.000175304    0.000573086
     19        1           0.000440357   -0.000571644   -0.000257421
 -------------------------------------------------------------------
 Cartesian Forces:  Max     0.009223899 RMS     0.002253354

 GradGradGradGradGradGradGradGradGradGradGradGradGradGradGradGradGradGrad
 Berny optimization.
 Using GEDIIS/GDIIS optimizer.
 FormGI is forming the generalized inverse of G from B-inverse, IUseBI=4.
 Internal  Forces:  Max     0.006352918 RMS     0.001077216
 Search for a local minimum.
 Step number  10 out of a maximum of   97
 All quantities printed in internal units (Hartrees-Bohrs-Radians)
 Mixed Optimization -- RFO/linear search
 Update second derivatives using D2CorX and points    9   10
 DE= -8.32D-05 DEPred=-1.80D-04 R= 4.61D-01
 Trust test= 4.61D-01 RLast= 4.41D-01 DXMaxT set to 1.10D+00
 ITU=  0  1  1  1  1  1  1  1  1  0
 Use linear search instead of GDIIS.
     Eigenvalues ---    0.00151   0.00285   0.00378   0.01453   0.01500
     Eigenvalues ---    0.02366   0.04454   0.04716   0.05212   0.05307
     Eigenvalues ---    0.05443   0.05648   0.05775   0.05855   0.09643
     Eigenvalues ---    0.10340   0.12749   0.12913   0.13031   0.13457
     Eigenvalues ---    0.15480   0.16000   0.16007   0.16021   0.16104
     Eigenvalues ---    0.16311   0.17787   0.20823   0.21565   0.24351
     Eigenvalues ---    0.25174   0.26198   0.28322   0.28456   0.28685
     Eigenvalues ---    0.29004   0.31180   0.31740   0.31941   0.31999
     Eigenvalues ---    0.32092   0.32130   0.32157   0.32184   0.32217
     Eigenvalues ---    0.32468   0.35496   0.37620   0.41556   0.49997
     Eigenvalues ---    0.58592
 RFO step:  Lambda=-2.48793486D-04 EMin= 1.51242772D-03
 Quartic linear search produced a step of -0.26371.
 Iteration  1 RMS(Cart)=  0.01407561 RMS(Int)=  0.00008317
 Iteration  2 RMS(Cart)=  0.00011723 RMS(Int)=  0.00000796
 Iteration  3 RMS(Cart)=  0.00000001 RMS(Int)=  0.00000796
 Variable       Old X    -DE/DX   Delta X   Delta X   Delta X     New X
                                 (Linear)    (Quad)   (Total)
    R1        2.60970  -0.00068   0.00039   0.00114   0.00154   2.61124
    R2        2.61585  -0.00054   0.00099   0.00078   0.00177   2.61762
    R3        2.61070  -0.00046   0.00083   0.00157   0.00240   2.61310
    R4        3.11315  -0.00635  -0.00635  -0.01459  -0.02094   3.09221
    R5        2.75596   0.00371   0.00308   0.00227   0.00535   2.76131
    R6        2.75249   0.00459   0.00298   0.00293   0.00590   2.75839
    R7        2.86160  -0.00107  -0.00024  -0.00160  -0.00184   2.85976
    R8        2.07466  -0.00092   0.00001  -0.00120  -0.00119   2.07347
    R9        2.06130  -0.00064  -0.00040  -0.00020  -0.00060   2.06070
   R10        2.07582  -0.00067  -0.00011  -0.00060  -0.00072   2.07510
   R11        2.07309  -0.00039  -0.00002  -0.00008  -0.00010   2.07298
   R12        2.07376  -0.00034  -0.00046   0.00043  -0.00003   2.07373
   R13        2.85830  -0.00108  -0.00034  -0.00137  -0.00171   2.85659
   R14        2.07429  -0.00066  -0.00011  -0.00051  -0.00063   2.07367
   R15        2.06917  -0.00073  -0.00068   0.00021  -0.00047   2.06870
   R16        2.07496  -0.00054   0.00001  -0.00048  -0.00047   2.07449
   R17        2.07290  -0.00062  -0.00021  -0.00038  -0.00059   2.07231
   R18        2.06971  -0.00073  -0.00028  -0.00025  -0.00053   2.06918
    A1        1.98897  -0.00085  -0.00093  -0.00363  -0.00455   1.98441
    A2        1.96299  -0.00001  -0.00156  -0.00022  -0.00178   1.96121
    A3        1.82612   0.00099   0.00230   0.00155   0.00386   1.82998
    A4        1.97879  -0.00018  -0.00135  -0.00076  -0.00212   1.97667
    A5        1.84298   0.00096   0.00118   0.00294   0.00412   1.84710
    A6        1.84632  -0.00072   0.00109   0.00102   0.00211   1.84843
    A7        2.06207  -0.00061  -0.00486   0.00434  -0.00053   2.06155
    A8        2.02800   0.00070   0.00050   0.00171   0.00223   2.03023
    A9        1.94641   0.00030   0.00022   0.00298   0.00322   1.94963
   A10        1.93129  -0.00082   0.00255  -0.00476  -0.00222   1.92907
   A11        1.88197  -0.00030  -0.00073  -0.00351  -0.00423   1.87773
   A12        1.85518  -0.00038  -0.00368   0.00339  -0.00029   1.85488
   A13        1.96542   0.00042   0.00032  -0.00031  -0.00001   1.96541
   A14        1.92684   0.00119  -0.00012   0.00624   0.00611   1.93296
   A15        1.89922  -0.00018   0.00140  -0.00101   0.00039   1.89961
   A16        1.89106  -0.00046  -0.00199   0.00168  -0.00031   1.89075
   A17        1.92677   0.00036   0.00051   0.00098   0.00150   1.92827
   A18        1.97073  -0.00104   0.00150  -0.00640  -0.00489   1.96583
   A19        1.89345   0.00009  -0.00078   0.00121   0.00043   1.89388
   A20        1.87493   0.00089  -0.00062   0.00445   0.00383   1.87876
   A21        1.90473   0.00021   0.00120  -0.00154  -0.00033   1.90441
   A22        1.96026   0.00028   0.00121  -0.00293  -0.00172   1.95854
   A23        1.88124  -0.00069  -0.00137  -0.00220  -0.00356   1.87768
   A24        1.84886  -0.00082  -0.00125  -0.00184  -0.00309   1.84576
   A25        1.95321   0.00042   0.00017   0.00235   0.00252   1.95573
   A26        1.91631   0.00054  -0.00014   0.00328   0.00313   1.91944
   A27        1.90012   0.00019   0.00132   0.00113   0.00244   1.90256
   A28        1.87863  -0.00114  -0.00140  -0.00162  -0.00302   1.87561
   A29        1.93874  -0.00017   0.00040  -0.00108  -0.00068   1.93806
   A30        1.95937   0.00016   0.00048  -0.00034   0.00014   1.95951
   A31        1.89152   0.00052  -0.00023   0.00147   0.00124   1.89276
   A32        1.88471   0.00060   0.00021   0.00238   0.00258   1.88730
   A33        1.90869   0.00005   0.00048  -0.00064  -0.00015   1.90853
    D1       -2.50620   0.00016  -0.01027   0.00230  -0.00798  -2.51417
    D2        1.39241  -0.00048  -0.00516  -0.01059  -0.01575   1.37666
    D3        1.67264   0.00021  -0.01089   0.00431  -0.00658   1.66606
    D4       -0.71194  -0.00043  -0.00578  -0.00858  -0.01435  -0.72629
    D5       -0.42984   0.00029  -0.01045   0.00324  -0.00722  -0.43706
    D6       -2.81442  -0.00035  -0.00535  -0.00965  -0.01499  -2.82941
    D7        2.35535  -0.00013   0.03855  -0.01993   0.01863   2.37398
    D8       -1.77128  -0.00033   0.04009  -0.02569   0.01442  -1.75686
    D9        0.26293  -0.00087   0.03952  -0.02685   0.01267   0.27560
   D10       -1.51026   0.00067   0.03392  -0.00816   0.02575  -1.48451
   D11        0.64630   0.00047   0.03547  -0.01392   0.02155   0.66784
   D12        2.68051  -0.00008   0.03490  -0.01508   0.01980   2.70031
   D13       -0.99328  -0.00015   0.01178  -0.01104   0.00075  -0.99253
   D14        1.16623   0.00007   0.01182  -0.01155   0.00029   1.16653
   D15       -3.08522  -0.00045   0.01207  -0.01221  -0.00013  -3.08535
   D16        2.85709  -0.00035   0.01876  -0.02372  -0.00499   2.85211
   D17       -1.26658  -0.00012   0.01880  -0.02423  -0.00545  -1.27202
   D18        0.76515  -0.00065   0.01905  -0.02490  -0.00587   0.75928
   D19       -3.10372  -0.00014   0.02041  -0.02299  -0.00258  -3.10630
   D20       -1.03257  -0.00010   0.01856  -0.01993  -0.00137  -1.03394
   D21        1.10489  -0.00030   0.02159  -0.02574  -0.00416   1.10073
   D22        1.07181   0.00054   0.01930  -0.01490   0.00441   1.07622
   D23       -3.14022   0.00058   0.01745  -0.01184   0.00562  -3.13461
   D24       -1.00277   0.00038   0.02048  -0.01765   0.00283  -0.99994
   D25       -1.05483  -0.00038   0.01736  -0.01789  -0.00053  -1.05536
   D26        1.01632  -0.00034   0.01551  -0.01483   0.00068   1.01700
   D27       -3.12941  -0.00054   0.01853  -0.02064  -0.00211  -3.13152
   D28       -3.03187   0.00014   0.00081  -0.00054   0.00026  -3.03161
   D29       -0.96373  -0.00001  -0.00010  -0.00036  -0.00046  -0.96419
   D30        1.17954   0.00004   0.00117  -0.00223  -0.00106   1.17848
   D31        1.13249   0.00054   0.00159   0.00272   0.00431   1.13680
   D32       -3.08255   0.00038   0.00068   0.00290   0.00359  -3.07896
   D33       -0.93928   0.00043   0.00195   0.00103   0.00299  -0.93629
   D34       -0.97961  -0.00035  -0.00010  -0.00252  -0.00263  -0.98224
   D35        1.08853  -0.00051  -0.00101  -0.00234  -0.00335   1.08518
   D36       -3.05138  -0.00046   0.00027  -0.00421  -0.00395  -3.05533
         Item               Value     Threshold  Converged?
 Maximum Force            0.006353     0.000450     NO 
 RMS     Force            0.001077     0.000300     NO 
 Maximum Displacement     0.051175     0.001800     NO 
 RMS     Displacement     0.014074     0.001200     NO 
 Predicted change in Energy=-1.396172D-04
 GradGradGradGradGradGradGradGradGradGradGradGradGradGradGradGradGradGrad

                          Input orientation:                          
 ---------------------------------------------------------------------
 Center     Atomic      Atomic             Coordinates (Angstroms)
 Number     Number       Type             X           Y           Z
 ---------------------------------------------------------------------
      1          5           0       -1.794196    0.706313   -0.191592
      2          9           0       -1.603629    1.660578   -1.172641
      3          9           0       -2.055394    1.239090    1.060072
      4          9           0       -2.701841   -0.265200   -0.571670
      5          8           0       -0.351419   -0.054488   -0.060679
      6          6           0       -0.352114   -1.490079    0.211813
      7          6           0        0.658339   -2.197169   -0.665195
      8          6           0        0.679346    0.639811    0.704915
      9          6           0        0.966334    2.019228    0.157281
     10          1           0       -0.149344   -1.624531    1.281730
     11          1           0       -1.362096   -1.841276   -0.002032
     12          1           0        0.602197   -3.274010   -0.457644
     13          1           0        0.427263   -2.034256   -1.725110
     14          1           0        1.688257   -1.873682   -0.468102
     15          1           0        0.349913    0.672157    1.751136
     16          1           0        1.575157    0.014800    0.632335
     17          1           0        1.822930    2.422602    0.712830
     18          1           0        1.232522    1.973393   -0.905556
     19          1           0        0.121315    2.702701    0.290525
 ---------------------------------------------------------------------
                    Distance matrix (angstroms):
                    1          2          3          4          5
     1  B    0.000000
     2  F    1.381808   0.000000
     3  F    1.385185   2.316625   0.000000
     4  F    1.382793   2.296923   2.311572   0.000000
     5  O    1.636326   2.397069   2.415152   2.414539   0.000000
     6  C    2.658284   3.661918   3.327022   2.763221   1.461224
     7  C    3.830070   4.500690   4.706248   3.877120   2.444613
     8  C    2.631835   3.127164   2.822070   3.725740   1.459678
     9  C    3.076683   2.915824   3.248767   4.382406   2.466632
    10  H    3.210770   4.350956   3.447098   3.434838   2.075555
    11  H    2.590918   3.700222   3.331274   2.145558   2.053661
    12  H    4.653650   5.452252   5.452920   4.470191   3.381167
    13  H    3.846724   4.252240   4.963429   3.775086   2.701140
    14  H    4.342847   4.880972   5.102901   4.676634   2.763284
    15  H    2.893538   3.652639   2.566025   3.948071   2.074260
    16  H    3.536890   4.008891   3.855224   4.452049   2.048601
    17  H    4.104538   3.984594   4.069727   5.417359   3.385570
    18  H    3.358014   2.865823   3.900421   4.538942   2.708318
    19  H    2.808413   2.490443   2.733573   4.185932   2.819382
                    6          7          8          9         10
     6  C    0.000000
     7  C    1.513319   0.000000
     8  C    2.417332   3.150571   0.000000
     9  C    3.749202   4.306893   1.511640   0.000000
    10  H    1.097231   2.184212   2.479251   3.973172   0.000000
    11  H    1.090474   2.156062   3.289841   4.511148   1.779267
    12  H    2.131031   1.098097   4.083564   5.341264   2.512174
    13  H    2.157597   1.096976   3.622044   4.501636   3.088921
    14  H    2.184617   1.097370   2.951528   4.008369   2.549660
    15  H    2.745473   3.763883   1.097338   2.175993   2.396743
    16  H    2.481104   2.723407   1.094707   2.148039   2.466379
    17  H    4.504544   4.959588   2.118063   1.097772   4.537929
    18  H    3.969285   4.216758   2.162883   1.096621   4.431572
    19  H    4.220159   5.021008   2.176840   1.094964   4.447547
                   11         12         13         14         15
    11  H    0.000000
    12  H    2.473612   0.000000
    13  H    2.491595   1.781590   0.000000
    14  H    3.085924   1.772161   1.787724   0.000000
    15  H    3.510260   4.529304   4.406239   3.632834   0.000000
    16  H    3.531983   3.598747   3.327738   2.188634   1.784673
    17  H    5.369924   5.942356   5.268304   4.457668   2.512353
    18  H    4.701075   5.304072   4.169097   3.898596   3.087106
    19  H    4.788928   6.042523   5.157049   4.896336   2.511722
                   16         17         18         19
    16  H    0.000000
    17  H    2.421855   0.000000
    18  H    2.513681   1.780321   0.000000
    19  H    3.074948   1.775469   1.788094   0.000000
 Stoichiometry    C4H10BF3O
 Framework group  C1[X(C4H10BF3O)]
 Deg. of freedom    51
 Full point group                 C1      NOp   1
 Largest Abelian subgroup         C1      NOp   1
 Largest concise Abelian subgroup C1      NOp   1
                         Standard orientation:                         
 ---------------------------------------------------------------------
 Center     Atomic      Atomic             Coordinates (Angstroms)
 Number     Number       Type             X           Y           Z
 ---------------------------------------------------------------------
      1          5           0       -1.001567   -0.672184   -0.042384
      2          9           0       -1.643817   -0.192709   -1.168000
      3          9           0       -1.637151   -0.343578    1.143697
      4          9           0       -0.695880   -2.016961   -0.143611
      5          8           0        0.433767    0.112967   -0.012082
      6          6           0        1.607833   -0.616412    0.461997
      7          6           0        2.794619   -0.355444   -0.439982
      8          6           0        0.411241    1.483811    0.488857
      9          6           0       -0.544542    2.360461   -0.287687
     10          1           0        1.791360   -0.310684    1.499670
     11          1           0        1.337364   -1.672728    0.448710
     12          1           0        3.643849   -0.947184   -0.073280
     13          1           0        2.571271   -0.666674   -1.467896
     14          1           0        3.099840    0.698623   -0.441964
     15          1           0        0.158328    1.442720    1.555861
     16          1           0        1.434415    1.857234    0.379070
     17          1           0       -0.416811    3.388799    0.074678
     18          1           0       -0.315460    2.339401   -1.359908
     19          1           0       -1.589737    2.072410   -0.134259
 ---------------------------------------------------------------------
 Rotational constants (GHZ):           1.7819368           1.3881720           0.9924817
 Standard basis: Aug-CC-pVDZ (5D, 7F)
 There are   315 symmetry adapted cartesian basis functions of A   symmetry.
 There are   297 symmetry adapted basis functions of A   symmetry.
   297 basis functions,   497 primitive gaussians,   315 cartesian basis functions
    37 alpha electrons       37 beta electrons
       nuclear repulsion energy       523.0866940318 Hartrees.
 NAtoms=   19 NActive=   19 NUniq=   19 SFac= 1.00D+00 NAtFMM=   60 NAOKFM=F Big=F
 Integral buffers will be    131072 words long.
 Raffenetti 2 integral format.
 Two-electron integral symmetry is turned on.
 Nuclear repulsion after empirical dispersion term =      523.0746694641 Hartrees.
 Force PCM accuracy= 1.00D-12.
 ------------------------------------------------------------------------------
 Polarizable Continuum Model (PCM)
 =================================
 Model                : C-PCM.
 Atomic radii         : UFF (Universal Force Field).
 Polarization charges : Total charges.
 Charge compensation  : None.
 Solution method      : On-the-fly selection.
 Cavity type          : Scaled VdW (van der Waals Surface) (Alpha=1.100).
 Cavity algorithm     : GePol (No added spheres)
                        Default sphere list used, NSphG=   19.
                        Lebedev-Laikov grids with approx.  5.0 points / Ang**2.
                        Smoothing algorithm: York/Karplus (Gamma=1.0000).
                        Polarization charges: spherical gaussians, with
                                              point-specific exponents (IZeta= 3).
                        Self-potential: point-specific (ISelfS= 7).
                        Self-field    : sphere-specific E.n sum rule (ISelfD= 2).
 1st derivatives      : Analytical E(r).r(x)/FMM algorithm (CHGder, D1EAlg=3).
                        Cavity 1st derivative terms included.
 Solvent              : DiMethylSulfoxide, Eps=  46.826000 Eps(inf)=   2.007889
 ------------------------------------------------------------------------------
 Spheres list:
 ISph  on   Nord     Re0    Alpha      Xe            Ye            Ze
    1   B      1    2.0415  1.100     -1.001567     -0.672184     -0.042384
    2   F      2    1.6820  1.100     -1.643817     -0.192709     -1.168000
    3   F      3    1.6820  1.100     -1.637151     -0.343578      1.143697
    4   F      4    1.6820  1.100     -0.695880     -2.016961     -0.143611
    5   O      5    1.7500  1.100      0.433767      0.112967     -0.012082
    6   C      6    1.9255  1.100      1.607833     -0.616412      0.461997
    7   C      7    1.9255  1.100      2.794619     -0.355444     -0.439982
    8   C      8    1.9255  1.100      0.411241      1.483811      0.488857
    9   C      9    1.9255  1.100     -0.544542      2.360461     -0.287687
   10   H     10    1.4430  1.100      1.791360     -0.310684      1.499670
   11   H     11    1.4430  1.100      1.337364     -1.672728      0.448710
   12   H     12    1.4430  1.100      3.643849     -0.947184     -0.073280
   13   H     13    1.4430  1.100      2.571271     -0.666674     -1.467896
   14   H     14    1.4430  1.100      3.099840      0.698623     -0.441964
   15   H     15    1.4430  1.100      0.158328      1.442720      1.555861
   16   H     16    1.4430  1.100      1.434415      1.857234      0.379070
   17   H     17    1.4430  1.100     -0.416811      3.388799      0.074678
   18   H     18    1.4430  1.100     -0.315460      2.339401     -1.359908
   19   H     19    1.4430  1.100     -1.589737      2.072410     -0.134259
 ------------------------------------------------------------------------------
 One-electron integrals computed using PRISM.
 NBasis=   297 RedAO= T EigKep=  2.62D-05  NBF=   297
 NBsUse=   297 1.00D-06 EigRej= -1.00D+00 NBFU=   297
 Initial guess from the checkpoint file:  "/inspire/hdd/project/materialscienceresearch/lipenghui-253107030018/g16/00-B-DFT-Shift/04-output/BF3OEt2_DMSO-d6/BF3OEt2_DMSO-d6.chk"
 B after Tr=    -0.000000    0.000000   -0.000000
         Rot=    0.999990   -0.003428   -0.000627    0.002888 Ang=  -0.52 deg.
 ExpMin= 2.38D-02 ExpMax= 1.47D+04 ExpMxC= 5.03D+02 IAcc=3 IRadAn=         5 AccDes= 0.00D+00
 Harris functional with IExCor= 4639 and IRadAn=       5 diagonalized for initial guess.
 HarFok:  IExCor= 4639 AccDes= 0.00D+00 IRadAn=         5 IDoV= 1 UseB2=F ITyADJ=14
 ICtDFT=  3500011 ScaDFX=  1.000000  1.000000  1.000000  1.000000
 FoFCou: FMM=F IPFlag=           0 FMFlag=      100000 FMFlg1=           0
         NFxFlg=           0 DoJE=T BraDBF=F KetDBF=T FulRan=T
         wScrn=  0.000000 ICntrl=       500 IOpCl=  0 I1Cent=   200000004 NGrid=           0
         NMat0=    1 NMatS0=      1 NMatT0=    0 NMatD0=    1 NMtDS0=    0 NMtDT0=    0
 Petite list used in FoFCou.
 Requested convergence on RMS density matrix=1.00D-08 within 128 cycles.
 Requested convergence on MAX density matrix=1.00D-06.
 Requested convergence on             energy=1.00D-06.
 No special actions if energy rises.
 Inv3:  Mode=1 IEnd=     6903867.
 Iteration    1 A*A^-1 deviation from unit magnitude is 4.66D-15 for   1510.
 Iteration    1 A*A^-1 deviation from orthogonality  is 4.29D-15 for   1514    787.
 Iteration    1 A^-1*A deviation from unit magnitude is 4.66D-15 for   1510.
 Iteration    1 A^-1*A deviation from orthogonality  is 1.59D-15 for   1320    365.
 Error on total polarization charges =  0.01119
 SCF Done:  E(RwB97XD) =  -558.151576435     A.U. after   10 cycles
            NFock= 10  Conv=0.49D-08     -V/T= 2.0061
 D1PCM: C-PCM CHGder 1st derivatives, ID1Alg=3 FixD1E=F DoIter=F DoCFld=F I1PDM=0.
 Calling FoFJK, ICntrl=      2127 FMM=F ISym2X=0 I1Cent= 0 IOpClX= 0 NMat=1 NMatS=1 NMatT=0.
 ***** Axes restored to original set *****
 -------------------------------------------------------------------
 Center     Atomic                   Forces (Hartrees/Bohr)
 Number     Number              X              Y              Z
 -------------------------------------------------------------------
      1        5           0.005046881   -0.002747477   -0.000379040
      2        9          -0.000602876   -0.000022300    0.000446225
      3        9          -0.000269982    0.000095506   -0.000424614
      4        9           0.000446446    0.000305313    0.000144379
      5        8          -0.008112074    0.003270276   -0.000881011
      6        6           0.000533061   -0.005626682   -0.000161149
      7        6           0.000501300    0.000131311   -0.000239711
      8        6           0.005010090    0.003117693    0.002152896
      9        6          -0.000392882    0.000518810   -0.000313944
     10        1           0.000065809    0.000690133   -0.000379033
     11        1           0.000148569    0.001232291    0.000254584
     12        1          -0.000295167    0.000525637    0.000007362
     13        1           0.000067980   -0.000093181    0.000357816
     14        1          -0.000487056    0.000163580   -0.000076748
     15        1          -0.000647958   -0.000158575   -0.000750836
     16        1          -0.001157206   -0.000202509   -0.000109864
     17        1          -0.000159007   -0.000639280    0.000013404
     18        1          -0.000167692   -0.000109814    0.000434664
     19        1           0.000471764   -0.000450731   -0.000095380
 -------------------------------------------------------------------
 Cartesian Forces:  Max     0.008112074 RMS     0.001827451

 GradGradGradGradGradGradGradGradGradGradGradGradGradGradGradGradGradGrad
 Berny optimization.
 Using GEDIIS/GDIIS optimizer.
 FormGI is forming the generalized inverse of G from B-inverse, IUseBI=4.
 Internal  Forces:  Max     0.005158139 RMS     0.000858202
 Search for a local minimum.
 Step number  11 out of a maximum of   97
 All quantities printed in internal units (Hartrees-Bohrs-Radians)
 Mixed Optimization -- En-DIIS/RFO-DIIS
 Update second derivatives using D2CorX and points    9   10   11
 DE= -2.33D-04 DEPred=-1.40D-04 R= 1.67D+00
 TightC=F SS=  1.41D+00  RLast= 6.40D-02 DXNew= 1.8509D+00 1.9205D-01
 Trust test= 1.67D+00 RLast= 6.40D-02 DXMaxT set to 1.10D+00
 ITU=  1  0  1  1  1  1  1  1  1  1  0
 Use linear search instead of GDIIS.
     Eigenvalues ---    0.00118   0.00285   0.00385   0.01238   0.01472
     Eigenvalues ---    0.02236   0.04428   0.04963   0.05186   0.05313
     Eigenvalues ---    0.05341   0.05465   0.05779   0.05859   0.08355
     Eigenvalues ---    0.09658   0.10739   0.12738   0.12907   0.13011
     Eigenvalues ---    0.13478   0.15976   0.16000   0.16011   0.16052
     Eigenvalues ---    0.16492   0.17020   0.20880   0.21581   0.24899
     Eigenvalues ---    0.25389   0.25460   0.28136   0.28385   0.28485
     Eigenvalues ---    0.28764   0.30326   0.31884   0.31977   0.32059
     Eigenvalues ---    0.32111   0.32138   0.32171   0.32195   0.32221
     Eigenvalues ---    0.32711   0.33977   0.37696   0.38837   0.43062
     Eigenvalues ---    0.53588
 RFO step:  Lambda=-6.83259118D-04 EMin= 1.18234989D-03
 Quartic linear search produced a step of  1.83220.
 Iteration  1 RMS(Cart)=  0.09518960 RMS(Int)=  0.00392575
 Iteration  2 RMS(Cart)=  0.00521609 RMS(Int)=  0.00013627
 Iteration  3 RMS(Cart)=  0.00001686 RMS(Int)=  0.00013577
 Iteration  4 RMS(Cart)=  0.00000000 RMS(Int)=  0.00013577
 Variable       Old X    -DE/DX   Delta X   Delta X   Delta X     New X
                                 (Linear)    (Quad)   (Total)
    R1        2.61124  -0.00042   0.00282   0.00481   0.00763   2.61887
    R2        2.61762  -0.00029   0.00325   0.00317   0.00642   2.62404
    R3        2.61310  -0.00055   0.00440   0.00205   0.00645   2.61955
    R4        3.09221  -0.00516  -0.03836  -0.03318  -0.07154   3.02067
    R5        2.76131   0.00288   0.00980   0.00354   0.01334   2.77465
    R6        2.75839   0.00377   0.01082   0.00702   0.01784   2.77623
    R7        2.85976  -0.00051  -0.00337  -0.00118  -0.00455   2.85521
    R8        2.07347  -0.00044  -0.00218  -0.00080  -0.00298   2.07049
    R9        2.06070  -0.00059  -0.00110  -0.00080  -0.00190   2.05880
   R10        2.07510  -0.00050  -0.00131  -0.00116  -0.00248   2.07263
   R11        2.07298  -0.00037  -0.00019  -0.00072  -0.00091   2.07208
   R12        2.07373  -0.00042  -0.00005   0.00073   0.00067   2.07440
   R13        2.85659  -0.00068  -0.00314  -0.00183  -0.00497   2.85162
   R14        2.07367  -0.00053  -0.00115  -0.00126  -0.00241   2.07126
   R15        2.06870  -0.00082  -0.00087  -0.00033  -0.00120   2.06750
   R16        2.07449  -0.00035  -0.00086  -0.00042  -0.00127   2.07322
   R17        2.07231  -0.00046  -0.00107  -0.00025  -0.00133   2.07099
   R18        2.06918  -0.00066  -0.00097  -0.00092  -0.00189   2.06729
    A1        1.98441  -0.00068  -0.00834  -0.00897  -0.01744   1.96698
    A2        1.96121  -0.00028  -0.00327  -0.00304  -0.00640   1.95480
    A3        1.82998   0.00120   0.00706   0.00820   0.01517   1.84515
    A4        1.97667  -0.00021  -0.00388  -0.00133  -0.00530   1.97137
    A5        1.84710   0.00070   0.00754   0.00596   0.01341   1.86051
    A6        1.84843  -0.00051   0.00387   0.00167   0.00545   1.85388
    A7        2.06155  -0.00027  -0.00097   0.02312   0.02171   2.08325
    A8        2.03023   0.00076   0.00409   0.00721   0.01069   2.04092
    A9        1.94963  -0.00024   0.00590  -0.00136   0.00384   1.95347
   A10        1.92907  -0.00008  -0.00406  -0.01351  -0.01757   1.91150
   A11        1.87773  -0.00033  -0.00776  -0.00345  -0.01126   1.86647
   A12        1.85488  -0.00066  -0.00054   0.00033  -0.00006   1.85482
   A13        1.96541   0.00030  -0.00001   0.00513   0.00483   1.97024
   A14        1.93296   0.00068   0.01120   0.01216   0.02330   1.95625
   A15        1.89961   0.00001   0.00072  -0.00125  -0.00072   1.89888
   A16        1.89075  -0.00039  -0.00056   0.00632   0.00576   1.89652
   A17        1.92827   0.00010   0.00274   0.00028   0.00295   1.93121
   A18        1.96583  -0.00022  -0.00896  -0.01040  -0.01940   1.94644
   A19        1.89388   0.00010   0.00079   0.00298   0.00374   1.89762
   A20        1.87876   0.00037   0.00702   0.00630   0.01336   1.89212
   A21        1.90441   0.00005  -0.00060  -0.00475  -0.00545   1.89896
   A22        1.95854   0.00084  -0.00316  -0.00287  -0.00599   1.95255
   A23        1.87768  -0.00073  -0.00652  -0.00579  -0.01229   1.86539
   A24        1.84576  -0.00077  -0.00567  -0.00388  -0.00951   1.83625
   A25        1.95573   0.00017   0.00461   0.00480   0.00929   1.96502
   A26        1.91944   0.00021   0.00574   0.00741   0.01306   1.93249
   A27        1.90256   0.00020   0.00446  -0.00036   0.00387   1.90643
   A28        1.87561  -0.00076  -0.00553   0.00005  -0.00549   1.87012
   A29        1.93806  -0.00009  -0.00124  -0.00209  -0.00334   1.93472
   A30        1.95951   0.00012   0.00025  -0.00298  -0.00274   1.95677
   A31        1.89276   0.00032   0.00227   0.00245   0.00471   1.89747
   A32        1.88730   0.00036   0.00473   0.00315   0.00789   1.89518
   A33        1.90853   0.00006  -0.00028  -0.00023  -0.00052   1.90801
    D1       -2.51417   0.00013  -0.01462   0.04123   0.02676  -2.48741
    D2        1.37666  -0.00010  -0.02885   0.00401  -0.02497   1.35169
    D3        1.66606  -0.00001  -0.01206   0.04468   0.03274   1.69881
    D4       -0.72629  -0.00024  -0.02629   0.00745  -0.01899  -0.74527
    D5       -0.43706   0.00015  -0.01324   0.04242   0.02932  -0.40774
    D6       -2.82941  -0.00009  -0.02747   0.00520  -0.02240  -2.85182
    D7        2.37398  -0.00039   0.03413  -0.16580  -0.13179   2.24218
    D8       -1.75686  -0.00029   0.02643  -0.17017  -0.14370  -1.90056
    D9        0.27560  -0.00077   0.02322  -0.17312  -0.14996   0.12564
   D10       -1.48451   0.00024   0.04718  -0.12734  -0.08018  -1.56469
   D11        0.66784   0.00034   0.03948  -0.13171  -0.09209   0.57575
   D12        2.70031  -0.00014   0.03627  -0.13466  -0.09835   2.60195
   D13       -0.99253  -0.00018   0.00138  -0.05721  -0.05592  -1.04845
   D14        1.16653   0.00007   0.00054  -0.05709  -0.05662   1.10990
   D15       -3.08535  -0.00043  -0.00024  -0.06216  -0.06245   3.13538
   D16        2.85211  -0.00036  -0.00914  -0.10206  -0.11114   2.74097
   D17       -1.27202  -0.00011  -0.00998  -0.10194  -0.11184  -1.38387
   D18        0.75928  -0.00060  -0.01075  -0.10700  -0.11767   0.64161
   D19       -3.10630   0.00008  -0.00473  -0.06736  -0.07208   3.10481
   D20       -1.03394   0.00002  -0.00251  -0.05974  -0.06223  -1.09617
   D21        1.10073   0.00000  -0.00762  -0.07302  -0.08057   1.02016
   D22        1.07622   0.00035   0.00807  -0.05694  -0.04883   1.02738
   D23       -3.13461   0.00029   0.01029  -0.04932  -0.03899   3.10959
   D24       -0.99994   0.00028   0.00518  -0.06261  -0.05732  -1.05726
   D25       -1.05536  -0.00037  -0.00097  -0.06783  -0.06891  -1.12428
   D26        1.01700  -0.00043   0.00124  -0.06021  -0.05907   0.95793
   D27       -3.13152  -0.00044  -0.00386  -0.07349  -0.07740   3.07426
   D28       -3.03161   0.00011   0.00048   0.00735   0.00783  -3.02378
   D29       -0.96419  -0.00002  -0.00084   0.00917   0.00832  -0.95587
   D30        1.17848   0.00008  -0.00194   0.00518   0.00325   1.18173
   D31        1.13680   0.00033   0.00790   0.01346   0.02142   1.15822
   D32       -3.07896   0.00020   0.00657   0.01528   0.02191  -3.05705
   D33       -0.93629   0.00030   0.00548   0.01130   0.01684  -0.91945
   D34       -0.98224  -0.00018  -0.00481   0.00553   0.00065  -0.98158
   D35        1.08518  -0.00031  -0.00614   0.00735   0.00115   1.08633
   D36       -3.05533  -0.00021  -0.00723   0.00337  -0.00393  -3.05925
         Item               Value     Threshold  Converged?
 Maximum Force            0.005158     0.000450     NO 
 RMS     Force            0.000858     0.000300     NO 
 Maximum Displacement     0.322341     0.001800     NO 
 RMS     Displacement     0.096374     0.001200     NO 
 Predicted change in Energy=-5.374709D-04
 GradGradGradGradGradGradGradGradGradGradGradGradGradGradGradGradGradGrad

                          Input orientation:                          
 ---------------------------------------------------------------------
 Center     Atomic      Atomic             Coordinates (Angstroms)
 Number     Number       Type             X           Y           Z
 ---------------------------------------------------------------------
      1          5           0       -1.775390    0.672518   -0.206393
      2          9           0       -1.568809    1.630689   -1.186087
      3          9           0       -2.112980    1.225864    1.021614
      4          9           0       -2.662652   -0.309309   -0.619119
      5          8           0       -0.365774   -0.054517   -0.007623
      6          6           0       -0.330749   -1.500646    0.244056
      7          6           0        0.622699   -2.158935   -0.725707
      8          6           0        0.648691    0.663382    0.775829
      9          6           0        1.003843    1.991330    0.153304
     10          1           0       -0.034915   -1.635535    1.290358
     11          1           0       -1.352701   -1.857058    0.119435
     12          1           0        0.666792   -3.231560   -0.501046
     13          1           0        0.275333   -2.029411   -1.757629
     14          1           0        1.635485   -1.744577   -0.638678
     15          1           0        0.251086    0.767646    1.791896
     16          1           0        1.518526    0.000061    0.795559
     17          1           0        1.845333    2.401931    0.725080
     18          1           0        1.316595    1.862297   -0.889085
     19          1           0        0.173124    2.701811    0.196650
 ---------------------------------------------------------------------
                    Distance matrix (angstroms):
                    1          2          3          4          5
     1  B    0.000000
     2  F    1.385845   0.000000
     3  F    1.388582   2.309534   0.000000
     4  F    1.386204   2.298159   2.313201   0.000000
     5  O    1.598469   2.382433   2.398214   2.390501   0.000000
     6  C    2.648118   3.658327   3.348850   2.757195   1.468284
     7  C    3.746684   4.401807   4.689769   3.771738   2.433373
     8  C    2.615533   3.114820   2.829068   3.722499   1.469120
     9  C    3.097222   2.922768   3.324829   4.396904   2.467233
    10  H    3.255245   4.376508   3.546572   3.508558   2.072158
    11  H    2.585263   3.730344   3.300963   2.157999   2.058962
    12  H    4.614423   5.395244   5.469392   4.431556   3.376872
    13  H    3.729908   4.138097   4.901535   3.589807   2.715465
    14  H    4.202771   4.686105   5.062714   4.531486   2.694360
    15  H    2.847597   3.595169   2.528261   3.932263   2.072374
    16  H    3.507989   4.014661   3.839470   4.424847   2.049065
    17  H    4.119241   3.987949   4.139965   5.429514   3.385260
    18  H    3.382604   2.909881   3.977159   4.541273   2.698428
    19  H    2.842037   2.468520   2.843458   4.215916   2.815933
                    6          7          8          9         10
     6  C    0.000000
     7  C    1.510910   0.000000
     8  C    2.434153   3.196992   0.000000
     9  C    3.739421   4.259417   1.509012   0.000000
    10  H    1.095656   2.184244   2.452972   3.940312   0.000000
    11  H    1.089471   2.169701   3.284667   4.512709   1.776708
    12  H    2.132213   1.096787   4.098940   5.274501   2.499764
    13  H    2.157237   1.096495   3.716037   4.510959   3.088951
    14  H    2.169055   1.097726   2.961901   3.870815   2.554077
    15  H    2.807042   3.878311   1.096063   2.179227   2.471561
    16  H    2.444605   2.788911   1.094073   2.154656   2.309368
    17  H    4.494088   4.939749   2.111180   1.097099   4.489544
    18  H    3.912433   4.083931   2.157645   1.095919   4.337208
    19  H    4.232821   4.967868   2.171821   1.093964   4.477951
                   11         12         13         14         15
    11  H    0.000000
    12  H    2.520438   0.000000
    13  H    2.490697   1.782527   0.000000
    14  H    3.084906   1.780008   1.784151   0.000000
    15  H    3.501189   4.628611   4.519208   3.759722   0.000000
    16  H    3.485682   3.584691   3.490423   2.261521   1.785575
    17  H    5.360337   5.884604   5.316534   4.370057   2.520042
    18  H    4.687841   5.149776   4.121163   3.629591   3.085649
    19  H    4.808055   5.994612   5.119972   4.754644   2.508363
                   16         17         18         19
    16  H    0.000000
    17  H    2.425026   0.000000
    18  H    2.519271   1.782217   0.000000
    19  H    3.077053   1.779172   1.786373   0.000000
 Stoichiometry    C4H10BF3O
 Framework group  C1[X(C4H10BF3O)]
 Deg. of freedom    51
 Full point group                 C1      NOp   1
 Largest Abelian subgroup         C1      NOp   1
 Largest concise Abelian subgroup C1      NOp   1
                         Standard orientation:                         
 ---------------------------------------------------------------------
 Center     Atomic      Atomic             Coordinates (Angstroms)
 Number     Number       Type             X           Y           Z
 ---------------------------------------------------------------------
      1          5           0       -0.968785   -0.676837   -0.046258
      2          9           0       -1.602014   -0.200811   -1.183353
      3          9           0       -1.669347   -0.388801    1.117532
      4          9           0       -0.636979   -2.017968   -0.159546
      5          8           0        0.414401    0.119192    0.044514
      6          6           0        1.618403   -0.580340    0.510232
      7          6           0        2.739959   -0.368812   -0.479826
      8          6           0        0.355904    1.500583    0.541153
      9          6           0       -0.515254    2.374024   -0.327929
     10          1           0        1.850094   -0.188235    1.506743
     11          1           0        1.345059   -1.631031    0.601219
     12          1           0        3.641494   -0.864788   -0.100112
     13          1           0        2.483159   -0.802648   -1.453552
     14          1           0        2.961907    0.697695   -0.615122
     15          1           0        0.002154    1.451502    1.577399
     16          1           0        1.391394    1.853621    0.530218
     17          1           0       -0.407530    3.403146    0.036667
     18          1           0       -0.187488    2.335047   -1.372959
     19          1           0       -1.570541    2.091833   -0.268811
 ---------------------------------------------------------------------
 Rotational constants (GHZ):           1.7574105           1.4115890           1.0054926
 Standard basis: Aug-CC-pVDZ (5D, 7F)
 There are   315 symmetry adapted cartesian basis functions of A   symmetry.
 There are   297 symmetry adapted basis functions of A   symmetry.
   297 basis functions,   497 primitive gaussians,   315 cartesian basis functions
    37 alpha electrons       37 beta electrons
       nuclear repulsion energy       523.8842610611 Hartrees.
 NAtoms=   19 NActive=   19 NUniq=   19 SFac= 1.00D+00 NAtFMM=   60 NAOKFM=F Big=F
 Integral buffers will be    131072 words long.
 Raffenetti 2 integral format.
 Two-electron integral symmetry is turned on.
 Nuclear repulsion after empirical dispersion term =      523.8721981504 Hartrees.
 Force PCM accuracy= 1.00D-12.
 ------------------------------------------------------------------------------
 Polarizable Continuum Model (PCM)
 =================================
 Model                : C-PCM.
 Atomic radii         : UFF (Universal Force Field).
 Polarization charges : Total charges.
 Charge compensation  : None.
 Solution method      : On-the-fly selection.
 Cavity type          : Scaled VdW (van der Waals Surface) (Alpha=1.100).
 Cavity algorithm     : GePol (No added spheres)
                        Default sphere list used, NSphG=   19.
                        Lebedev-Laikov grids with approx.  5.0 points / Ang**2.
                        Smoothing algorithm: York/Karplus (Gamma=1.0000).
                        Polarization charges: spherical gaussians, with
                                              point-specific exponents (IZeta= 3).
                        Self-potential: point-specific (ISelfS= 7).
                        Self-field    : sphere-specific E.n sum rule (ISelfD= 2).
 1st derivatives      : Analytical E(r).r(x)/FMM algorithm (CHGder, D1EAlg=3).
                        Cavity 1st derivative terms included.
 Solvent              : DiMethylSulfoxide, Eps=  46.826000 Eps(inf)=   2.007889
 ------------------------------------------------------------------------------
 Spheres list:
 ISph  on   Nord     Re0    Alpha      Xe            Ye            Ze
    1   B      1    2.0415  1.100     -0.968785     -0.676837     -0.046258
    2   F      2    1.6820  1.100     -1.602014     -0.200811     -1.183353
    3   F      3    1.6820  1.100     -1.669347     -0.388801      1.117532
    4   F      4    1.6820  1.100     -0.636979     -2.017968     -0.159546
    5   O      5    1.7500  1.100      0.414401      0.119192      0.044514
    6   C      6    1.9255  1.100      1.618403     -0.580340      0.510232
    7   C      7    1.9255  1.100      2.739959     -0.368812     -0.479826
    8   C      8    1.9255  1.100      0.355904      1.500583      0.541153
    9   C      9    1.9255  1.100     -0.515254      2.374024     -0.327929
   10   H     10    1.4430  1.100      1.850094     -0.188235      1.506743
   11   H     11    1.4430  1.100      1.345059     -1.631031      0.601219
   12   H     12    1.4430  1.100      3.641494     -0.864788     -0.100112
   13   H     13    1.4430  1.100      2.483159     -0.802648     -1.453552
   14   H     14    1.4430  1.100      2.961907      0.697695     -0.615122
   15   H     15    1.4430  1.100      0.002154      1.451502      1.577399
   16   H     16    1.4430  1.100      1.391394      1.853621      0.530218
   17   H     17    1.4430  1.100     -0.407530      3.403146      0.036667
   18   H     18    1.4430  1.100     -0.187488      2.335047     -1.372959
   19   H     19    1.4430  1.100     -1.570541      2.091833     -0.268811
 ------------------------------------------------------------------------------
 One-electron integrals computed using PRISM.
 NBasis=   297 RedAO= T EigKep=  2.73D-05  NBF=   297
 NBsUse=   297 1.00D-06 EigRej= -1.00D+00 NBFU=   297
 Initial guess from the checkpoint file:  "/inspire/hdd/project/materialscienceresearch/lipenghui-253107030018/g16/00-B-DFT-Shift/04-output/BF3OEt2_DMSO-d6/BF3OEt2_DMSO-d6.chk"
 B after Tr=     0.000000    0.000000   -0.000000
         Rot=    0.999977    0.001311    0.005263   -0.004082 Ang=   0.78 deg.
 ExpMin= 2.38D-02 ExpMax= 1.47D+04 ExpMxC= 5.03D+02 IAcc=3 IRadAn=         5 AccDes= 0.00D+00
 Harris functional with IExCor= 4639 and IRadAn=       5 diagonalized for initial guess.
 HarFok:  IExCor= 4639 AccDes= 0.00D+00 IRadAn=         5 IDoV= 1 UseB2=F ITyADJ=14
 ICtDFT=  3500011 ScaDFX=  1.000000  1.000000  1.000000  1.000000
 FoFCou: FMM=F IPFlag=           0 FMFlag=      100000 FMFlg1=           0
         NFxFlg=           0 DoJE=T BraDBF=F KetDBF=T FulRan=T
         wScrn=  0.000000 ICntrl=       500 IOpCl=  0 I1Cent=   200000004 NGrid=           0
         NMat0=    1 NMatS0=      1 NMatT0=    0 NMatD0=    1 NMtDS0=    0 NMtDT0=    0
 Petite list used in FoFCou.
 Requested convergence on RMS density matrix=1.00D-08 within 128 cycles.
 Requested convergence on MAX density matrix=1.00D-06.
 Requested convergence on             energy=1.00D-06.
 No special actions if energy rises.
 Inv3:  Mode=1 IEnd=     6976875.
 Iteration    1 A*A^-1 deviation from unit magnitude is 3.77D-15 for   1497.
 Iteration    1 A*A^-1 deviation from orthogonality  is 2.33D-15 for   1501   1143.
 Iteration    1 A^-1*A deviation from unit magnitude is 4.22D-15 for   1143.
 Iteration    1 A^-1*A deviation from orthogonality  is 4.68D-15 for   1501   1143.
 Error on total polarization charges =  0.01120
 SCF Done:  E(RwB97XD) =  -558.152097207     A.U. after   11 cycles
            NFock= 11  Conv=0.42D-08     -V/T= 2.0060
 D1PCM: C-PCM CHGder 1st derivatives, ID1Alg=3 FixD1E=F DoIter=F DoCFld=F I1PDM=0.
 Calling FoFJK, ICntrl=      2127 FMM=F ISym2X=0 I1Cent= 0 IOpClX= 0 NMat=1 NMatS=1 NMatT=0.
 ***** Axes restored to original set *****
 -------------------------------------------------------------------
 Center     Atomic                   Forces (Hartrees/Bohr)
 Number     Number              X              Y              Z
 -------------------------------------------------------------------
      1        5           0.001180050   -0.000725924   -0.000754184
      2        9          -0.000375363   -0.000257083   -0.000101658
      3        9          -0.000252042   -0.000117848    0.000305145
      4        9           0.000264953    0.000185650    0.000128177
      5        8          -0.002005735    0.001160400    0.000628620
      6        6           0.000055839   -0.001347697   -0.000003910
      7        6           0.000013128    0.000956624   -0.000206598
      8        6           0.000798167    0.000201684    0.000469260
      9        6          -0.000076717   -0.000202395    0.000103922
     10        1           0.000152125   -0.000003163   -0.000071373
     11        1          -0.000163442    0.000100597   -0.000453903
     12        1           0.000252009   -0.000171957    0.000042409
     13        1          -0.000231409   -0.000062650    0.000197873
     14        1          -0.000062306   -0.000956903    0.000101612
     15        1           0.000068891    0.000189625   -0.000073391
     16        1          -0.000291572    0.000475213   -0.000464379
     17        1           0.000070243    0.000317390   -0.000108128
     18        1           0.000223742    0.000043656    0.000074357
     19        1           0.000379438    0.000214784    0.000186151
 -------------------------------------------------------------------
 Cartesian Forces:  Max     0.002005735 RMS     0.000510582

 GradGradGradGradGradGradGradGradGradGradGradGradGradGradGradGradGradGrad
 Berny optimization.
 Using GEDIIS/GDIIS optimizer.
 FormGI is forming the generalized inverse of G from B-inverse, IUseBI=4.
 Internal  Forces:  Max     0.001511990 RMS     0.000452024
 Search for a local minimum.
 Step number  12 out of a maximum of   97
 All quantities printed in internal units (Hartrees-Bohrs-Radians)
 Mixed Optimization -- En-DIIS/RFO-DIIS
 Swapping is turned off.
 Update second derivatives using D2CorX and points   10   11   12
 DE= -5.21D-04 DEPred=-5.37D-04 R= 9.69D-01
 TightC=F SS=  1.41D+00  RLast= 4.31D-01 DXNew= 1.8509D+00 1.2942D+00
 Trust test= 9.69D-01 RLast= 4.31D-01 DXMaxT set to 1.29D+00
 ITU=  1  1  0  1  1  1  1  1  1  1  1  0
     Eigenvalues ---    0.00156   0.00285   0.00381   0.01196   0.01471
     Eigenvalues ---    0.02006   0.04510   0.04872   0.05069   0.05301
     Eigenvalues ---    0.05419   0.05552   0.05742   0.05892   0.07679
     Eigenvalues ---    0.09633   0.10614   0.12624   0.12841   0.12866
     Eigenvalues ---    0.13316   0.15999   0.16001   0.16028   0.16051
     Eigenvalues ---    0.16550   0.17174   0.21275   0.22071   0.25046
     Eigenvalues ---    0.25294   0.25483   0.27793   0.28356   0.28482
     Eigenvalues ---    0.28762   0.30325   0.31890   0.31973   0.32056
     Eigenvalues ---    0.32111   0.32125   0.32166   0.32189   0.32218
     Eigenvalues ---    0.32808   0.33971   0.37718   0.38366   0.42727
     Eigenvalues ---    0.53411
 En-DIIS/RFO-DIIS/Sim-DIIS IScMMF=       -3 using points:    12   11
 RFO step:  Lambda=-1.49313872D-04.
 DidBck=T Rises=F RFO-DIIS coefs:    0.71149    0.28851
 Iteration  1 RMS(Cart)=  0.03417949 RMS(Int)=  0.00070727
 Iteration  2 RMS(Cart)=  0.00078795 RMS(Int)=  0.00003828
 Iteration  3 RMS(Cart)=  0.00000043 RMS(Int)=  0.00003828
 Variable       Old X    -DE/DX   Delta X   Delta X   Delta X     New X
                                 (Linear)    (Quad)   (Total)
    R1        2.61887  -0.00016  -0.00220   0.00448   0.00228   2.62114
    R2        2.62404   0.00028  -0.00185   0.00607   0.00421   2.62825
    R3        2.61955  -0.00034  -0.00186   0.00414   0.00228   2.62183
    R4        3.02067  -0.00108   0.02064  -0.04446  -0.02382   2.99685
    R5        2.77465   0.00140  -0.00385   0.01250   0.00865   2.78330
    R6        2.77623   0.00151  -0.00515   0.01401   0.00886   2.78509
    R7        2.85521  -0.00001   0.00131  -0.00253  -0.00122   2.85399
    R8        2.07049  -0.00003   0.00086  -0.00117  -0.00031   2.07018
    R9        2.05880   0.00017   0.00055  -0.00068  -0.00013   2.05867
   R10        2.07263   0.00019   0.00071  -0.00045   0.00026   2.07289
   R11        2.07208  -0.00012   0.00026  -0.00061  -0.00035   2.07173
   R12        2.07440  -0.00041  -0.00019  -0.00129  -0.00148   2.07292
   R13        2.85162   0.00037   0.00143  -0.00116   0.00027   2.85189
   R14        2.07126  -0.00007   0.00070  -0.00129  -0.00059   2.07066
   R15        2.06750  -0.00053   0.00035  -0.00245  -0.00211   2.06539
   R16        2.07322   0.00012   0.00037  -0.00009   0.00027   2.07349
   R17        2.07099  -0.00001   0.00038  -0.00069  -0.00030   2.07068
   R18        2.06729  -0.00014   0.00055  -0.00114  -0.00060   2.06669
    A1        1.96698   0.00011   0.00503  -0.00758  -0.00255   1.96443
    A2        1.95480  -0.00028   0.00185  -0.00645  -0.00459   1.95022
    A3        1.84515   0.00066  -0.00438   0.01140   0.00703   1.85218
    A4        1.97137  -0.00016   0.00153  -0.00617  -0.00463   1.96674
    A5        1.86051   0.00012  -0.00387   0.00795   0.00409   1.86459
    A6        1.85388  -0.00039  -0.00157   0.00390   0.00234   1.85622
    A7        2.08325  -0.00138  -0.00626  -0.00043  -0.00660   2.07665
    A8        2.04092   0.00091  -0.00308   0.00952   0.00662   2.04754
    A9        1.95347   0.00059  -0.00111   0.00510   0.00419   1.95766
   A10        1.91150   0.00102   0.00507  -0.00093   0.00414   1.91564
   A11        1.86647  -0.00016   0.00325  -0.00399  -0.00074   1.86573
   A12        1.85482  -0.00055   0.00002  -0.00803  -0.00805   1.84677
   A13        1.97024  -0.00026  -0.00139   0.00253   0.00121   1.97145
   A14        1.95625  -0.00040  -0.00672   0.00524  -0.00147   1.95479
   A15        1.89888   0.00033   0.00021   0.00410   0.00435   1.90323
   A16        1.89652   0.00003  -0.00166  -0.00227  -0.00394   1.89258
   A17        1.93121  -0.00037  -0.00085   0.00028  -0.00057   1.93065
   A18        1.94644   0.00078   0.00560   0.00012   0.00572   1.95216
   A19        1.89762   0.00004  -0.00108  -0.00055  -0.00163   1.89599
   A20        1.89212  -0.00059  -0.00386  -0.00035  -0.00421   1.88791
   A21        1.89896   0.00009   0.00157   0.00272   0.00430   1.90326
   A22        1.95255   0.00121   0.00173   0.00256   0.00428   1.95682
   A23        1.86539  -0.00022   0.00355  -0.00503  -0.00150   1.86389
   A24        1.83625  -0.00042   0.00274  -0.00840  -0.00566   1.83059
   A25        1.96502  -0.00038  -0.00268   0.00343   0.00078   1.96580
   A26        1.93249  -0.00054  -0.00377   0.00147  -0.00227   1.93023
   A27        1.90643   0.00036  -0.00112   0.00511   0.00405   1.91048
   A28        1.87012   0.00032   0.00158  -0.00314  -0.00156   1.86856
   A29        1.93472   0.00001   0.00096  -0.00017   0.00080   1.93551
   A30        1.95677   0.00035   0.00079   0.00211   0.00290   1.95967
   A31        1.89747  -0.00025  -0.00136  -0.00075  -0.00210   1.89537
   A32        1.89518  -0.00042  -0.00228   0.00042  -0.00185   1.89333
   A33        1.90801  -0.00003   0.00015   0.00137   0.00152   1.90953
    D1       -2.48741   0.00048  -0.00772  -0.00351  -0.01128  -2.49869
    D2        1.35169   0.00004   0.00720  -0.02648  -0.01923   1.33247
    D3        1.69881  -0.00003  -0.00945  -0.00450  -0.01399   1.68481
    D4       -0.74527  -0.00047   0.00548  -0.02746  -0.02194  -0.76722
    D5       -0.40774   0.00030  -0.00846  -0.00344  -0.01194  -0.41968
    D6       -2.85182  -0.00014   0.00646  -0.02640  -0.01989  -2.87171
    D7        2.24218  -0.00045   0.03802  -0.00020   0.03786   2.28005
    D8       -1.90056  -0.00025   0.04146  -0.00014   0.04132  -1.85925
    D9        0.12564  -0.00021   0.04327  -0.00121   0.04209   0.16773
   D10       -1.56469   0.00014   0.02313   0.02349   0.04661  -1.51807
   D11        0.57575   0.00034   0.02657   0.02355   0.05007   0.62582
   D12        2.60195   0.00038   0.02838   0.02248   0.05084   2.65280
   D13       -1.04845  -0.00030   0.01613  -0.00523   0.01095  -1.03750
   D14        1.10990  -0.00016   0.01634  -0.00278   0.01360   1.12350
   D15        3.13538  -0.00004   0.01802  -0.00318   0.01488  -3.13293
   D16        2.74097   0.00007   0.03206  -0.02424   0.00779   2.74876
   D17       -1.38387   0.00021   0.03227  -0.02178   0.01044  -1.37342
   D18        0.64161   0.00032   0.03395  -0.02218   0.01173   0.65334
   D19        3.10481   0.00025   0.02079   0.02009   0.04088  -3.13750
   D20       -1.09617   0.00009   0.01796   0.01817   0.03612  -1.06005
   D21        1.02016   0.00048   0.02324   0.02190   0.04514   1.06530
   D22        1.02738  -0.00009   0.01409   0.02414   0.03821   1.06560
   D23        3.10959  -0.00024   0.01125   0.02222   0.03345  -3.14014
   D24       -1.05726   0.00015   0.01654   0.02595   0.04247  -1.01479
   D25       -1.12428  -0.00003   0.01988   0.01274   0.03265  -1.09163
   D26        0.95793  -0.00018   0.01704   0.01082   0.02789   0.98582
   D27        3.07426   0.00021   0.02233   0.01455   0.03691   3.11117
   D28       -3.02378   0.00016  -0.00226   0.00736   0.00510  -3.01868
   D29       -0.95587   0.00006  -0.00240   0.00448   0.00208  -0.95379
   D30        1.18173   0.00027  -0.00094   0.00762   0.00669   1.18842
   D31        1.15822  -0.00015  -0.00618   0.00961   0.00341   1.16163
   D32       -3.05705  -0.00026  -0.00632   0.00673   0.00038  -3.05667
   D33       -0.91945  -0.00005  -0.00486   0.00987   0.00500  -0.91445
   D34       -0.98158   0.00005  -0.00019  -0.00057  -0.00074  -0.98232
   D35        1.08633  -0.00006  -0.00033  -0.00345  -0.00376   1.08257
   D36       -3.05925   0.00015   0.00113  -0.00030   0.00085  -3.05840
         Item               Value     Threshold  Converged?
 Maximum Force            0.001512     0.000450     NO 
 RMS     Force            0.000452     0.000300     NO 
 Maximum Displacement     0.148069     0.001800     NO 
 RMS     Displacement     0.034183     0.001200     NO 
 Predicted change in Energy=-7.673993D-05
 GradGradGradGradGradGradGradGradGradGradGradGradGradGradGradGradGradGrad

                          Input orientation:                          
 ---------------------------------------------------------------------
 Center     Atomic      Atomic             Coordinates (Angstroms)
 Number     Number       Type             X           Y           Z
 ---------------------------------------------------------------------
      1          5           0       -1.776964    0.667895   -0.192771
      2          9           0       -1.586493    1.643431   -1.160220
      3          9           0       -2.118836    1.203221    1.044526
      4          9           0       -2.665421   -0.309749   -0.616761
      5          8           0       -0.375305   -0.051223   -0.010581
      6          6           0       -0.344693   -1.502979    0.235968
      7          6           0        0.636582   -2.160120   -0.705395
      8          6           0        0.657518    0.665345    0.758780
      9          6           0        1.002377    1.998945    0.142226
     10          1           0       -0.083120   -1.641398    1.290728
     11          1           0       -1.363357   -1.853234    0.073374
     12          1           0        0.638994   -3.238846   -0.506417
     13          1           0        0.339759   -1.996940   -1.748066
     14          1           0        1.656488   -1.783252   -0.560323
     15          1           0        0.280793    0.759320    1.783432
     16          1           0        1.525702    0.001472    0.749437
     17          1           0        1.858368    2.399587    0.699640
     18          1           0        1.293415    1.880649   -0.907531
     19          1           0        0.177732    2.713859    0.212369
 ---------------------------------------------------------------------
                    Distance matrix (angstroms):
                    1          2          3          4          5
     1  B    0.000000
     2  F    1.387050   0.000000
     3  F    1.390812   2.310429   0.000000
     4  F    1.387412   2.296594   2.312511   0.000000
     5  O    1.585866   2.379181   2.393070   2.383049   0.000000
     6  C    2.635889   3.659413   3.335396   2.745309   1.472860
     7  C    3.753087   4.428988   4.686857   3.786153   2.440108
     8  C    2.613840   3.110434   2.842377   3.726237   1.473808
     9  C    3.099783   2.919761   3.345041   4.399872   2.474782
    10  H    3.225324   4.365476   3.506653   3.475641   2.075436
    11  H    2.568656   3.714594   3.294815   2.134010   2.056827
    12  H    4.604113   5.405264   5.453716   4.417119   3.381656
    13  H    3.741764   4.160325   4.907575   3.627336   2.704807
    14  H    4.234596   4.755939   5.074213   4.566540   2.725861
    15  H    2.854487   3.596317   2.549754   3.947658   2.075072
    16  H    3.498497   4.003571   3.848888   4.419148   2.047982
    17  H    4.124414   3.987219   4.167540   5.434894   3.391191
    18  H    3.377704   2.900689   3.989098   4.533738   2.705786
    19  H    2.858486   2.478368   2.872062   4.232396   2.828646
                    6          7          8          9         10
     6  C    0.000000
     7  C    1.510266   0.000000
     8  C    2.445278   3.182374   0.000000
     9  C    3.753246   4.260292   1.509157   0.000000
    10  H    1.095490   2.184389   2.480439   3.968559   0.000000
    11  H    1.089400   2.168045   3.301054   4.521141   1.779279
    12  H    2.128852   1.096927   4.104117   5.290296   2.510582
    13  H    2.156123   1.096310   3.670560   4.469827   3.088610
    14  H    2.171948   1.096942   2.955266   3.902108   2.544160
    15  H    2.811382   3.852788   1.095748   2.179658   2.477627
    16  H    2.454669   2.753099   1.092959   2.152318   2.362271
    17  H    4.505384   4.925222   2.110245   1.097244   4.521982
    18  H    3.929367   4.098793   2.158222   1.095758   4.374015
    19  H    4.249142   4.980815   2.173746   1.093647   4.494349
                   11         12         13         14         15
    11  H    0.000000
    12  H    2.503096   0.000000
    13  H    2.497779   1.781451   0.000000
    14  H    3.086411   1.776782   1.786105   0.000000
    15  H    3.528876   4.621369   4.480170   3.721612   0.000000
    16  H    3.499094   3.586514   3.411398   2.217615   1.786974
    17  H    5.371983   5.893503   5.256128   4.373146   2.520679
    18  H    4.686416   5.176716   4.080644   3.698181   3.086108
    19  H    4.822097   6.013661   5.105016   4.796643   2.509798
                   16         17         18         19
    16  H    0.000000
    17  H    2.421591   0.000000
    18  H    2.516110   1.780861   0.000000
    19  H    3.076120   1.777847   1.786943   0.000000
 Stoichiometry    C4H10BF3O
 Framework group  C1[X(C4H10BF3O)]
 Deg. of freedom    51
 Full point group                 C1      NOp   1
 Largest Abelian subgroup         C1      NOp   1
 Largest concise Abelian subgroup C1      NOp   1
                         Standard orientation:                         
 ---------------------------------------------------------------------
 Center     Atomic      Atomic             Coordinates (Angstroms)
 Number     Number       Type             X           Y           Z
 ---------------------------------------------------------------------
      1          5           0       -0.970299   -0.667319   -0.046546
      2          9           0       -1.622078   -0.173848   -1.167072
      3          9           0       -1.658067   -0.398765    1.132102
      4          9           0       -0.652884   -2.010644   -0.186670
      5          8           0        0.408882    0.110826    0.039022
      6          6           0        1.608878   -0.611623    0.494427
      7          6           0        2.747062   -0.368652   -0.468072
      8          6           0        0.373083    1.497998    0.535592
      9          6           0       -0.500539    2.384634   -0.317765
     10          1           0        1.825503   -0.261146    1.509483
     11          1           0        1.325334   -1.662725    0.534168
     12          1           0        3.626487   -0.918740   -0.111333
     13          1           0        2.489542   -0.731642   -1.469979
     14          1           0        3.010194    0.694511   -0.529138
     15          1           0        0.037510    1.452641    1.577704
     16          1           0        1.412199    1.835142    0.501971
     17          1           0       -0.367897    3.411851    0.044419
     18          1           0       -0.192549    2.342076   -1.368487
     19          1           0       -1.559519    2.123179   -0.238600
 ---------------------------------------------------------------------
 Rotational constants (GHZ):           1.7578969           1.4101254           1.0025946
 Standard basis: Aug-CC-pVDZ (5D, 7F)
 There are   315 symmetry adapted cartesian basis functions of A   symmetry.
 There are   297 symmetry adapted basis functions of A   symmetry.
   297 basis functions,   497 primitive gaussians,   315 cartesian basis functions
    37 alpha electrons       37 beta electrons
       nuclear repulsion energy       523.7388930091 Hartrees.
 NAtoms=   19 NActive=   19 NUniq=   19 SFac= 1.00D+00 NAtFMM=   60 NAOKFM=F Big=F
 Integral buffers will be    131072 words long.
 Raffenetti 2 integral format.
 Two-electron integral symmetry is turned on.
 Nuclear repulsion after empirical dispersion term =      523.7268459323 Hartrees.
 Force PCM accuracy= 1.00D-12.
 ------------------------------------------------------------------------------
 Polarizable Continuum Model (PCM)
 =================================
 Model                : C-PCM.
 Atomic radii         : UFF (Universal Force Field).
 Polarization charges : Total charges.
 Charge compensation  : None.
 Solution method      : On-the-fly selection.
 Cavity type          : Scaled VdW (van der Waals Surface) (Alpha=1.100).
 Cavity algorithm     : GePol (No added spheres)
                        Default sphere list used, NSphG=   19.
                        Lebedev-Laikov grids with approx.  5.0 points / Ang**2.
                        Smoothing algorithm: York/Karplus (Gamma=1.0000).
                        Polarization charges: spherical gaussians, with
                                              point-specific exponents (IZeta= 3).
                        Self-potential: point-specific (ISelfS= 7).
                        Self-field    : sphere-specific E.n sum rule (ISelfD= 2).
 1st derivatives      : Analytical E(r).r(x)/FMM algorithm (CHGder, D1EAlg=3).
                        Cavity 1st derivative terms included.
 Solvent              : DiMethylSulfoxide, Eps=  46.826000 Eps(inf)=   2.007889
 ------------------------------------------------------------------------------
 Spheres list:
 ISph  on   Nord     Re0    Alpha      Xe            Ye            Ze
    1   B      1    2.0415  1.100     -0.970299     -0.667319     -0.046546
    2   F      2    1.6820  1.100     -1.622078     -0.173848     -1.167072
    3   F      3    1.6820  1.100     -1.658067     -0.398765      1.132102
    4   F      4    1.6820  1.100     -0.652884     -2.010644     -0.186670
    5   O      5    1.7500  1.100      0.408882      0.110826      0.039022
    6   C      6    1.9255  1.100      1.608878     -0.611623      0.494427
    7   C      7    1.9255  1.100      2.747062     -0.368652     -0.468072
    8   C      8    1.9255  1.100      0.373083      1.497998      0.535592
    9   C      9    1.9255  1.100     -0.500539      2.384634     -0.317765
   10   H     10    1.4430  1.100      1.825503     -0.261146      1.509483
   11   H     11    1.4430  1.100      1.325334     -1.662725      0.534168
   12   H     12    1.4430  1.100      3.626487     -0.918740     -0.111333
   13   H     13    1.4430  1.100      2.489542     -0.731642     -1.469979
   14   H     14    1.4430  1.100      3.010194      0.694511     -0.529138
   15   H     15    1.4430  1.100      0.037510      1.452641      1.577704
   16   H     16    1.4430  1.100      1.412199      1.835142      0.501971
   17   H     17    1.4430  1.100     -0.367897      3.411851      0.044419
   18   H     18    1.4430  1.100     -0.192549      2.342076     -1.368487
   19   H     19    1.4430  1.100     -1.559519      2.123179     -0.238600
 ------------------------------------------------------------------------------
 One-electron integrals computed using PRISM.
 NBasis=   297 RedAO= T EigKep=  2.68D-05  NBF=   297
 NBsUse=   297 1.00D-06 EigRej= -1.00D+00 NBFU=   297
 Initial guess from the checkpoint file:  "/inspire/hdd/project/materialscienceresearch/lipenghui-253107030018/g16/00-B-DFT-Shift/04-output/BF3OEt2_DMSO-d6/BF3OEt2_DMSO-d6.chk"
 B after Tr=    -0.000000   -0.000000    0.000000
         Rot=    0.999981   -0.004793   -0.001595    0.003481 Ang=  -0.70 deg.
 ExpMin= 2.38D-02 ExpMax= 1.47D+04 ExpMxC= 5.03D+02 IAcc=3 IRadAn=         5 AccDes= 0.00D+00
 Harris functional with IExCor= 4639 and IRadAn=       5 diagonalized for initial guess.
 HarFok:  IExCor= 4639 AccDes= 0.00D+00 IRadAn=         5 IDoV= 1 UseB2=F ITyADJ=14
 ICtDFT=  3500011 ScaDFX=  1.000000  1.000000  1.000000  1.000000
 FoFCou: FMM=F IPFlag=           0 FMFlag=      100000 FMFlg1=           0
         NFxFlg=           0 DoJE=T BraDBF=F KetDBF=T FulRan=T
         wScrn=  0.000000 ICntrl=       500 IOpCl=  0 I1Cent=   200000004 NGrid=           0
         NMat0=    1 NMatS0=      1 NMatT0=    0 NMatD0=    1 NMtDS0=    0 NMtDT0=    0
 Petite list used in FoFCou.
 Requested convergence on RMS density matrix=1.00D-08 within 128 cycles.
 Requested convergence on MAX density matrix=1.00D-06.
 Requested convergence on             energy=1.00D-06.
 No special actions if energy rises.
 Inv3:  Mode=1 IEnd=     6976875.
 Iteration    1 A*A^-1 deviation from unit magnitude is 6.33D-15 for   1508.
 Iteration    1 A*A^-1 deviation from orthogonality  is 2.26D-15 for   1508   1024.
 Iteration    1 A^-1*A deviation from unit magnitude is 6.33D-15 for   1508.
 Iteration    1 A^-1*A deviation from orthogonality  is 3.30D-15 for   1515    779.
 Error on total polarization charges =  0.01117
 SCF Done:  E(RwB97XD) =  -558.152131639     A.U. after   10 cycles
            NFock= 10  Conv=0.86D-08     -V/T= 2.0060
 D1PCM: C-PCM CHGder 1st derivatives, ID1Alg=3 FixD1E=F DoIter=F DoCFld=F I1PDM=0.
 Calling FoFJK, ICntrl=      2127 FMM=F ISym2X=0 I1Cent= 0 IOpClX= 0 NMat=1 NMatS=1 NMatT=0.
 ***** Axes restored to original set *****
 -------------------------------------------------------------------
 Center     Atomic                   Forces (Hartrees/Bohr)
 Number     Number              X              Y              Z
 -------------------------------------------------------------------
      1        5          -0.000617980    0.000463838   -0.000422312
      2        9          -0.000023675   -0.000190239    0.000084608
      3        9           0.000092520   -0.000100530    0.000009722
      4        9          -0.000171799    0.000251959   -0.000047176
      5        8           0.000635528   -0.000037172    0.000738254
      6        6           0.000209329    0.000493301    0.000028083
      7        6          -0.000146508    0.000536528   -0.000163265
      8        6          -0.000650257   -0.000849806   -0.000359658
      9        6          -0.000121733   -0.000373786   -0.000033460
     10        1           0.000185980    0.000104397    0.000139641
     11        1           0.000232686   -0.000131028   -0.000169861
     12        1           0.000163986   -0.000164200    0.000118443
     13        1          -0.000151137   -0.000036976    0.000075868
     14        1           0.000151706   -0.000554932   -0.000215453
     15        1          -0.000041091    0.000101766    0.000001351
     16        1           0.000096086    0.000161827    0.000140175
     17        1           0.000045509    0.000152898    0.000000605
     18        1           0.000109366    0.000031925   -0.000029740
     19        1           0.000001488    0.000140230    0.000104175
 -------------------------------------------------------------------
 Cartesian Forces:  Max     0.000849806 RMS     0.000287605

 GradGradGradGradGradGradGradGradGradGradGradGradGradGradGradGradGradGrad
 Berny optimization.
 Using GEDIIS/GDIIS optimizer.
 FormGI is forming the generalized inverse of G from B-inverse, IUseBI=4.
 Internal  Forces:  Max     0.000872742 RMS     0.000257210
 Search for a local minimum.
 Step number  13 out of a maximum of   97
 All quantities printed in internal units (Hartrees-Bohrs-Radians)
 Mixed Optimization -- En-DIIS/RFO-DIIS
 Swapping is turned off.
 Update second derivatives using D2CorX and points   10   11   12   13
 DE= -3.44D-05 DEPred=-7.67D-05 R= 4.49D-01
 Trust test= 4.49D-01 RLast= 1.69D-01 DXMaxT set to 1.29D+00
 ITU=  0  1  1  0  1  1  1  1  1  1  1  1  0
     Eigenvalues ---    0.00200   0.00285   0.00358   0.01244   0.01463
     Eigenvalues ---    0.01975   0.04495   0.04933   0.05056   0.05284
     Eigenvalues ---    0.05396   0.05601   0.05774   0.05905   0.08535
     Eigenvalues ---    0.09668   0.10681   0.12706   0.12796   0.12899
     Eigenvalues ---    0.13308   0.15992   0.16000   0.16002   0.16050
     Eigenvalues ---    0.16551   0.16848   0.21253   0.22288   0.24973
     Eigenvalues ---    0.25237   0.26073   0.28328   0.28353   0.28641
     Eigenvalues ---    0.29074   0.30470   0.31874   0.31954   0.32066
     Eigenvalues ---    0.32107   0.32154   0.32176   0.32214   0.32468
     Eigenvalues ---    0.32881   0.33541   0.37637   0.38189   0.42420
     Eigenvalues ---    0.53851
 En-DIIS/RFO-DIIS/Sim-DIIS IScMMF=       -3 using points:    13   12   11
 RFO step:  Lambda=-6.50844597D-05.
 DidBck=T Rises=F RFO-DIIS coefs:    0.72109    0.42876   -0.14985
 Iteration  1 RMS(Cart)=  0.02505362 RMS(Int)=  0.00028303
 Iteration  2 RMS(Cart)=  0.00035604 RMS(Int)=  0.00002557
 Iteration  3 RMS(Cart)=  0.00000006 RMS(Int)=  0.00002557
 Variable       Old X    -DE/DX   Delta X   Delta X   Delta X     New X
                                 (Linear)    (Quad)   (Total)
    R1        2.62114  -0.00019   0.00051  -0.00137  -0.00086   2.62028
    R2        2.62825  -0.00006  -0.00021  -0.00064  -0.00085   2.62740
    R3        2.62183  -0.00005   0.00033  -0.00115  -0.00082   2.62100
    R4        2.99685   0.00087  -0.00408   0.01110   0.00703   3.00388
    R5        2.78330  -0.00025  -0.00041  -0.00160  -0.00201   2.78129
    R6        2.78509  -0.00080   0.00020  -0.00260  -0.00240   2.78269
    R7        2.85399   0.00022  -0.00034   0.00043   0.00009   2.85408
    R8        2.07018   0.00017  -0.00036   0.00028  -0.00008   2.07009
    R9        2.05867  -0.00015  -0.00025   0.00046   0.00021   2.05888
   R10        2.07289   0.00019  -0.00044   0.00084   0.00039   2.07328
   R11        2.07173  -0.00004  -0.00004  -0.00001  -0.00005   2.07168
   R12        2.07292  -0.00008   0.00051  -0.00024   0.00028   2.07320
   R13        2.85189  -0.00005  -0.00082   0.00097   0.00014   2.85204
   R14        2.07066   0.00002  -0.00020   0.00028   0.00009   2.07075
   R15        2.06539  -0.00002   0.00041   0.00016   0.00057   2.06596
   R16        2.07349   0.00009  -0.00027   0.00040   0.00013   2.07362
   R17        2.07068   0.00006  -0.00011   0.00031   0.00019   2.07088
   R18        2.06669   0.00010  -0.00012   0.00041   0.00030   2.06699
    A1        1.96443   0.00011  -0.00190   0.00299   0.00107   1.96550
    A2        1.95022  -0.00021   0.00032   0.00075   0.00105   1.95127
    A3        1.85218  -0.00010   0.00031  -0.00200  -0.00171   1.85047
    A4        1.96674  -0.00010   0.00050   0.00073   0.00121   1.96796
    A5        1.86459  -0.00030   0.00087  -0.00238  -0.00153   1.86306
    A6        1.85622   0.00064   0.00016  -0.00070  -0.00055   1.85568
    A7        2.07665   0.00073   0.00509  -0.00001   0.00498   2.08163
    A8        2.04754  -0.00018  -0.00024   0.00140   0.00104   2.04857
    A9        1.95766  -0.00054  -0.00059   0.00049  -0.00024   1.95742
   A10        1.91564   0.00062  -0.00379   0.00212  -0.00167   1.91397
   A11        1.86573  -0.00032  -0.00148   0.00114  -0.00034   1.86539
   A12        1.84677  -0.00001   0.00224   0.00087   0.00313   1.84990
   A13        1.97145   0.00007   0.00039  -0.00019   0.00016   1.97161
   A14        1.95479  -0.00055   0.00390  -0.00462  -0.00074   1.95405
   A15        1.90323   0.00020  -0.00132   0.00103  -0.00033   1.90290
   A16        1.89258  -0.00009   0.00196  -0.00088   0.00108   1.89366
   A17        1.93065  -0.00029   0.00060  -0.00136  -0.00075   1.92989
   A18        1.95216   0.00084  -0.00450   0.00498   0.00048   1.95263
   A19        1.89599   0.00007   0.00101  -0.00063   0.00038   1.89637
   A20        1.88791  -0.00043   0.00318  -0.00412  -0.00095   1.88696
   A21        1.90326  -0.00012  -0.00202   0.00178  -0.00024   1.90303
   A22        1.95682  -0.00005  -0.00209   0.00117  -0.00092   1.95591
   A23        1.86389  -0.00001  -0.00142   0.00226   0.00084   1.86473
   A24        1.83059   0.00021   0.00015   0.00099   0.00115   1.83174
   A25        1.96580  -0.00002   0.00118  -0.00147  -0.00030   1.96550
   A26        1.93023  -0.00011   0.00259  -0.00282  -0.00025   1.92998
   A27        1.91048   0.00001  -0.00055   0.00019  -0.00039   1.91009
   A28        1.86856   0.00014  -0.00039   0.00176   0.00137   1.86993
   A29        1.93551   0.00006  -0.00072   0.00065  -0.00008   1.93544
   A30        1.95967   0.00004  -0.00122   0.00114  -0.00008   1.95959
   A31        1.89537  -0.00010   0.00129  -0.00163  -0.00034   1.89503
   A32        1.89333  -0.00014   0.00170  -0.00265  -0.00095   1.89238
   A33        1.90953   0.00000  -0.00050   0.00055   0.00006   1.90958
    D1       -2.49869  -0.00014   0.00715   0.00484   0.01202  -2.48667
    D2        1.33247   0.00005   0.00162   0.00185   0.00345   1.33592
    D3        1.68481  -0.00006   0.00881   0.00362   0.01245   1.69726
    D4       -0.76722   0.00013   0.00328   0.00063   0.00388  -0.76334
    D5       -0.41968  -0.00012   0.00772   0.00437   0.01212  -0.40756
    D6       -2.87171   0.00007   0.00219   0.00138   0.00354  -2.86816
    D7        2.28005  -0.00034  -0.03031  -0.01059  -0.04091   2.23913
    D8       -1.85925  -0.00009  -0.03306  -0.00886  -0.04192  -1.90116
    D9        0.16773  -0.00001  -0.03421  -0.00674  -0.04096   0.12677
   D10       -1.51807  -0.00042  -0.02502  -0.00740  -0.03242  -1.55049
   D11        0.62582  -0.00017  -0.02776  -0.00567  -0.03342   0.59240
   D12        2.65280  -0.00010  -0.02892  -0.00355  -0.03246   2.62033
   D13       -1.03750   0.00011  -0.01143   0.00315  -0.00829  -1.04579
   D14        1.12350   0.00004  -0.01228   0.00361  -0.00868   1.11482
   D15       -3.13293   0.00014  -0.01351   0.00530  -0.00822  -3.14114
   D16        2.74876  -0.00018  -0.01883   0.00058  -0.01824   2.73052
   D17       -1.37342  -0.00025  -0.01967   0.00105  -0.01862  -1.39205
   D18        0.65334  -0.00015  -0.02090   0.00273  -0.01816   0.63518
   D19       -3.13750   0.00002  -0.02220   0.00719  -0.01501   3.13068
   D20       -1.06005  -0.00012  -0.01940   0.00508  -0.01432  -1.07437
   D21        1.06530   0.00010  -0.02466   0.00984  -0.01482   1.05048
   D22        1.06560  -0.00004  -0.01798   0.00443  -0.01354   1.05206
   D23       -3.14014  -0.00018  -0.01517   0.00231  -0.01285   3.13019
   D24       -1.01479   0.00004  -0.02044   0.00707  -0.01335  -1.02814
   D25       -1.09163   0.00007  -0.01943   0.00680  -0.01265  -1.10427
   D26        0.98582  -0.00007  -0.01663   0.00469  -0.01196   0.97386
   D27        3.11117   0.00015  -0.02189   0.00945  -0.01246   3.09871
   D28       -3.01868  -0.00009  -0.00025  -0.00053  -0.00079  -3.01947
   D29       -0.95379  -0.00010   0.00067  -0.00108  -0.00041  -0.95420
   D30        1.18842  -0.00003  -0.00138   0.00093  -0.00045   1.18797
   D31        1.16163  -0.00003   0.00226  -0.00326  -0.00099   1.16064
   D32       -3.05667  -0.00004   0.00318  -0.00381  -0.00062  -3.05728
   D33       -0.91445   0.00004   0.00113  -0.00180  -0.00066  -0.91511
   D34       -0.98232   0.00006   0.00030  -0.00038  -0.00008  -0.98241
   D35        1.08257   0.00005   0.00122  -0.00092   0.00029   1.08286
   D36       -3.05840   0.00013  -0.00082   0.00109   0.00025  -3.05815
         Item               Value     Threshold  Converged?
 Maximum Force            0.000873     0.000450     NO 
 RMS     Force            0.000257     0.000300     YES
 Maximum Displacement     0.101385     0.001800     NO 
 RMS     Displacement     0.025074     0.001200     NO 
 Predicted change in Energy=-3.225257D-05
 GradGradGradGradGradGradGradGradGradGradGradGradGradGradGradGradGradGrad

                          Input orientation:                          
 ---------------------------------------------------------------------
 Center     Atomic      Atomic             Coordinates (Angstroms)
 Number     Number       Type             X           Y           Z
 ---------------------------------------------------------------------
      1          5           0       -1.776494    0.664534   -0.202557
      2          9           0       -1.576089    1.630512   -1.176911
      3          9           0       -2.129090    1.210165    1.026697
      4          9           0       -2.658322   -0.318790   -0.625824
      5          8           0       -0.372165   -0.052042    0.000310
      6          6           0       -0.333328   -1.502755    0.245490
      7          6           0        0.624500   -2.156246   -0.722271
      8          6           0        0.650482    0.669728    0.775943
      9          6           0        1.007762    1.994870    0.148140
     10          1           0       -0.043213   -1.640672    1.292779
     11          1           0       -1.354540   -1.857489    0.110116
     12          1           0        0.647147   -3.233516   -0.515682
     13          1           0        0.291549   -2.004302   -1.755662
     14          1           0        1.644344   -1.766636   -0.613974
     15          1           0        0.259455    0.777524    1.793902
     16          1           0        1.517523    0.003910    0.787828
     17          1           0        1.856212    2.401826    0.712599
     18          1           0        1.314040    1.862836   -0.895733
     19          1           0        0.183765    2.712524    0.197224
 ---------------------------------------------------------------------
                    Distance matrix (angstroms):
                    1          2          3          4          5
     1  B    0.000000
     2  F    1.386594   0.000000
     3  F    1.390361   2.310496   0.000000
     4  F    1.386976   2.296673   2.312707   0.000000
     5  O    1.589584   2.380393   2.394457   2.385313   0.000000
     6  C    2.642085   3.658557   3.345890   2.750738   1.471798
     7  C    3.740545   4.403274   4.687630   3.763306   2.437855
     8  C    2.616812   3.113577   2.842705   3.726970   1.472537
     9  C    3.105619   2.926568   3.350742   4.403660   2.473035
    10  H    3.248733   4.376039   3.542450   3.502457   2.074230
    11  H    2.576123   3.724469   3.294017   2.146870   2.058338
    12  H    4.600747   5.388763   5.461934   4.408388   3.380387
    13  H    3.716398   4.127335   4.892219   3.580394   2.708370
    14  H    4.216869   4.714732   5.078578   4.539751   2.717256
    15  H    2.853718   3.594794   2.545768   3.945935   2.074632
    16  H    3.502547   4.009547   3.848363   4.420434   2.047983
    17  H    4.129437   3.993227   4.171493   5.438213   3.390353
    18  H    3.386417   2.913053   3.997107   4.540045   2.704244
    19  H    2.862989   2.481146   2.880001   4.236005   2.826776
                    6          7          8          9         10
     6  C    0.000000
     7  C    1.510313   0.000000
     8  C    2.443143   3.198664   0.000000
     9  C    3.747183   4.258670   1.509234   0.000000
    10  H    1.095446   2.184510   2.467039   3.953722   0.000000
    11  H    1.089512   2.167654   3.293974   4.519136   1.779123
    12  H    2.129846   1.097133   4.111401   5.282681   2.506846
    13  H    2.155603   1.096285   3.699769   4.486736   3.088249
    14  H    2.172440   1.097089   2.975819   3.890371   2.549397
    15  H    2.819334   3.882189   1.095793   2.179548   2.488052
    16  H    2.447410   2.782833   1.093259   2.152436   2.322826
    17  H    4.500892   4.934773   2.111389   1.097312   4.504022
    18  H    3.917066   4.081491   2.158313   1.095860   4.348136
    19  H    4.247151   4.974398   2.173880   1.093804   4.494671
                   11         12         13         14         15
    11  H    0.000000
    12  H    2.508350   0.000000
    13  H    2.492446   1.781844   0.000000
    14  H    3.086400   1.776457   1.786055   0.000000
    15  H    3.519007   4.644666   4.509877   3.766767   0.000000
    16  H    3.488960   3.596890   3.464862   2.261850   1.787008
    17  H    5.367838   5.893012   5.287197   4.379585   2.521351
    18  H    4.687629   5.153832   4.091420   3.655346   3.086128
    19  H    4.822757   6.006525   5.106254   4.780608   2.509848
                   16         17         18         19
    16  H    0.000000
    17  H    2.422886   0.000000
    18  H    2.516225   1.780784   0.000000
    19  H    3.076413   1.777421   1.787190   0.000000
 Stoichiometry    C4H10BF3O
 Framework group  C1[X(C4H10BF3O)]
 Deg. of freedom    51
 Full point group                 C1      NOp   1
 Largest Abelian subgroup         C1      NOp   1
 Largest concise Abelian subgroup C1      NOp   1
                         Standard orientation:                         
 ---------------------------------------------------------------------
 Center     Atomic      Atomic             Coordinates (Angstroms)
 Number     Number       Type             X           Y           Z
 ---------------------------------------------------------------------
      1          5           0       -0.966108   -0.674370   -0.046869
      2          9           0       -1.606600   -0.191156   -1.177760
      3          9           0       -1.668637   -0.403964    1.122078
      4          9           0       -0.634892   -2.015033   -0.175782
      5          8           0        0.408438    0.117959    0.051199
      6          6           0        1.615413   -0.588970    0.509076
      7          6           0        2.737079   -0.371706   -0.478703
      8          6           0        0.356901    1.504809    0.543498
      9          6           0       -0.506229    2.384112   -0.328064
     10          1           0        1.847083   -0.207623    1.509529
     11          1           0        1.337234   -1.639628    0.585032
     12          1           0        3.628785   -0.896509   -0.113816
     13          1           0        2.469057   -0.777249   -1.461322
     14          1           0        2.986921    0.691125   -0.586287
     15          1           0        0.002806    1.460951    1.579575
     16          1           0        1.394650    1.848391    0.527882
     17          1           0       -0.387381    3.413536    0.032845
     18          1           0       -0.178864    2.340512   -1.372976
     19          1           0       -1.565070    2.116566   -0.267386
 ---------------------------------------------------------------------
 Rotational constants (GHZ):           1.7511281           1.4130190           1.0043330
 Standard basis: Aug-CC-pVDZ (5D, 7F)
 There are   315 symmetry adapted cartesian basis functions of A   symmetry.
 There are   297 symmetry adapted basis functions of A   symmetry.
   297 basis functions,   497 primitive gaussians,   315 cartesian basis functions
    37 alpha electrons       37 beta electrons
       nuclear repulsion energy       523.6449095109 Hartrees.
 NAtoms=   19 NActive=   19 NUniq=   19 SFac= 1.00D+00 NAtFMM=   60 NAOKFM=F Big=F
 Integral buffers will be    131072 words long.
 Raffenetti 2 integral format.
 Two-electron integral symmetry is turned on.
 Nuclear repulsion after empirical dispersion term =      523.6328533554 Hartrees.
 Force PCM accuracy= 1.00D-12.
 ------------------------------------------------------------------------------
 Polarizable Continuum Model (PCM)
 =================================
 Model                : C-PCM.
 Atomic radii         : UFF (Universal Force Field).
 Polarization charges : Total charges.
 Charge compensation  : None.
 Solution method      : On-the-fly selection.
 Cavity type          : Scaled VdW (van der Waals Surface) (Alpha=1.100).
 Cavity algorithm     : GePol (No added spheres)
                        Default sphere list used, NSphG=   19.
                        Lebedev-Laikov grids with approx.  5.0 points / Ang**2.
                        Smoothing algorithm: York/Karplus (Gamma=1.0000).
                        Polarization charges: spherical gaussians, with
                                              point-specific exponents (IZeta= 3).
                        Self-potential: point-specific (ISelfS= 7).
                        Self-field    : sphere-specific E.n sum rule (ISelfD= 2).
 1st derivatives      : Analytical E(r).r(x)/FMM algorithm (CHGder, D1EAlg=3).
                        Cavity 1st derivative terms included.
 Solvent              : DiMethylSulfoxide, Eps=  46.826000 Eps(inf)=   2.007889
 ------------------------------------------------------------------------------
 Spheres list:
 ISph  on   Nord     Re0    Alpha      Xe            Ye            Ze
    1   B      1    2.0415  1.100     -0.966108     -0.674370     -0.046869
    2   F      2    1.6820  1.100     -1.606600     -0.191156     -1.177760
    3   F      3    1.6820  1.100     -1.668637     -0.403964      1.122078
    4   F      4    1.6820  1.100     -0.634892     -2.015033     -0.175782
    5   O      5    1.7500  1.100      0.408438      0.117959      0.051199
    6   C      6    1.9255  1.100      1.615413     -0.588970      0.509076
    7   C      7    1.9255  1.100      2.737079     -0.371706     -0.478703
    8   C      8    1.9255  1.100      0.356901      1.504809      0.543498
    9   C      9    1.9255  1.100     -0.506229      2.384112     -0.328064
   10   H     10    1.4430  1.100      1.847083     -0.207623      1.509529
   11   H     11    1.4430  1.100      1.337234     -1.639628      0.585032
   12   H     12    1.4430  1.100      3.628785     -0.896509     -0.113816
   13   H     13    1.4430  1.100      2.469057     -0.777249     -1.461322
   14   H     14    1.4430  1.100      2.986921      0.691125     -0.586287
   15   H     15    1.4430  1.100      0.002806      1.460951      1.579575
   16   H     16    1.4430  1.100      1.394650      1.848391      0.527882
   17   H     17    1.4430  1.100     -0.387381      3.413536      0.032845
   18   H     18    1.4430  1.100     -0.178864      2.340512     -1.372976
   19   H     19    1.4430  1.100     -1.565070      2.116566     -0.267386
 ------------------------------------------------------------------------------
 One-electron integrals computed using PRISM.
 NBasis=   297 RedAO= T EigKep=  2.73D-05  NBF=   297
 NBsUse=   297 1.00D-06 EigRej= -1.00D+00 NBFU=   297
 Initial guess from the checkpoint file:  "/inspire/hdd/project/materialscienceresearch/lipenghui-253107030018/g16/00-B-DFT-Shift/04-output/BF3OEt2_DMSO-d6/BF3OEt2_DMSO-d6.chk"
 B after Tr=     0.000000    0.000000   -0.000000
         Rot=    0.999992    0.002622    0.001484   -0.002526 Ang=   0.45 deg.
 ExpMin= 2.38D-02 ExpMax= 1.47D+04 ExpMxC= 5.03D+02 IAcc=3 IRadAn=         5 AccDes= 0.00D+00
 Harris functional with IExCor= 4639 and IRadAn=       5 diagonalized for initial guess.
 HarFok:  IExCor= 4639 AccDes= 0.00D+00 IRadAn=         5 IDoV= 1 UseB2=F ITyADJ=14
 ICtDFT=  3500011 ScaDFX=  1.000000  1.000000  1.000000  1.000000
 FoFCou: FMM=F IPFlag=           0 FMFlag=      100000 FMFlg1=           0
         NFxFlg=           0 DoJE=T BraDBF=F KetDBF=T FulRan=T
         wScrn=  0.000000 ICntrl=       500 IOpCl=  0 I1Cent=   200000004 NGrid=           0
         NMat0=    1 NMatS0=      1 NMatT0=    0 NMatD0=    1 NMtDS0=    0 NMtDT0=    0
 Petite list used in FoFCou.
 Requested convergence on RMS density matrix=1.00D-08 within 128 cycles.
 Requested convergence on MAX density matrix=1.00D-06.
 Requested convergence on             energy=1.00D-06.
 No special actions if energy rises.
 Inv3:  Mode=1 IEnd=     6986028.
 Iteration    1 A*A^-1 deviation from unit magnitude is 7.11D-15 for   1526.
 Iteration    1 A*A^-1 deviation from orthogonality  is 4.38D-15 for   1521    803.
 Iteration    1 A^-1*A deviation from unit magnitude is 7.11D-15 for   1526.
 Iteration    1 A^-1*A deviation from orthogonality  is 1.68D-15 for   1339    361.
 Error on total polarization charges =  0.01119
 SCF Done:  E(RwB97XD) =  -558.152166729     A.U. after   10 cycles
            NFock= 10  Conv=0.60D-08     -V/T= 2.0060
 D1PCM: C-PCM CHGder 1st derivatives, ID1Alg=3 FixD1E=F DoIter=F DoCFld=F I1PDM=0.
 Calling FoFJK, ICntrl=      2127 FMM=F ISym2X=0 I1Cent= 0 IOpClX= 0 NMat=1 NMatS=1 NMatT=0.
 ***** Axes restored to original set *****
 -------------------------------------------------------------------
 Center     Atomic                   Forces (Hartrees/Bohr)
 Number     Number              X              Y              Z
 -------------------------------------------------------------------
      1        5          -0.000011469    0.000043035   -0.000323052
      2        9          -0.000065075   -0.000105780    0.000056861
      3        9           0.000085608   -0.000077731   -0.000021786
      4        9           0.000024451    0.000084749    0.000030711
      5        8          -0.000006358    0.000256111    0.000728985
      6        6           0.000076520    0.000161753   -0.000094848
      7        6          -0.000075522    0.000233523   -0.000108492
      8        6          -0.000230502   -0.000430797   -0.000315602
      9        6          -0.000100893   -0.000177708   -0.000002824
     10        1           0.000079206    0.000032847    0.000040004
     11        1           0.000071856   -0.000012053   -0.000107376
     12        1           0.000055330   -0.000082242    0.000026031
     13        1          -0.000066842   -0.000028041    0.000034034
     14        1           0.000034128   -0.000265712    0.000005957
     15        1          -0.000003568    0.000052908   -0.000005563
     16        1           0.000024520    0.000166409   -0.000030101
     17        1           0.000022651    0.000069915    0.000011564
     18        1           0.000044843    0.000012794    0.000004051
     19        1           0.000041117    0.000066018    0.000071446
 -------------------------------------------------------------------
 Cartesian Forces:  Max     0.000728985 RMS     0.000156898

 GradGradGradGradGradGradGradGradGradGradGradGradGradGradGradGradGradGrad
 Berny optimization.
 Using GEDIIS/GDIIS optimizer.
 FormGI is forming the generalized inverse of G from B-inverse, IUseBI=4.
 Internal  Forces:  Max     0.000425610 RMS     0.000098238
 Search for a local minimum.
 Step number  14 out of a maximum of   97
 All quantities printed in internal units (Hartrees-Bohrs-Radians)
 Mixed Optimization -- En-DIIS/RFO-DIIS
 Swapping is turned off.
 Update second derivatives using D2CorX and points   10   11   12   13   14
 DE= -3.51D-05 DEPred=-3.23D-05 R= 1.09D+00
 TightC=F SS=  1.41D+00  RLast= 1.09D-01 DXNew= 2.1766D+00 3.2580D-01
 Trust test= 1.09D+00 RLast= 1.09D-01 DXMaxT set to 1.29D+00
 ITU=  1  0  1  1  0  1  1  1  1  1  1  1  1  0
     Eigenvalues ---    0.00233   0.00286   0.00341   0.01267   0.01449
     Eigenvalues ---    0.01948   0.04493   0.04969   0.05053   0.05218
     Eigenvalues ---    0.05330   0.05399   0.05766   0.05896   0.08328
     Eigenvalues ---    0.09657   0.10674   0.12591   0.12819   0.12889
     Eigenvalues ---    0.13299   0.15888   0.15998   0.16002   0.16050
     Eigenvalues ---    0.16426   0.16560   0.21178   0.22343   0.24221
     Eigenvalues ---    0.25245   0.25466   0.28347   0.28372   0.28710
     Eigenvalues ---    0.28864   0.30510   0.31848   0.31951   0.32058
     Eigenvalues ---    0.32106   0.32150   0.32169   0.32218   0.32383
     Eigenvalues ---    0.32741   0.33456   0.37412   0.38378   0.42654
     Eigenvalues ---    0.53730
 En-DIIS/RFO-DIIS/Sim-DIIS IScMMF=       -3 using points:    14   13   12   11
 RFO step:  Lambda=-9.54429935D-06.
 DidBck=F Rises=F RFO-DIIS coefs:    1.83490   -0.50844   -0.39954    0.07309
 Iteration  1 RMS(Cart)=  0.00570089 RMS(Int)=  0.00001676
 Iteration  2 RMS(Cart)=  0.00002185 RMS(Int)=  0.00000841
 Iteration  3 RMS(Cart)=  0.00000000 RMS(Int)=  0.00000841
 Variable       Old X    -DE/DX   Delta X   Delta X   Delta X     New X
                                 (Linear)    (Quad)   (Total)
    R1        2.62028  -0.00012  -0.00053  -0.00005  -0.00058   2.61970
    R2        2.62740  -0.00008   0.00020  -0.00056  -0.00036   2.62704
    R3        2.62100  -0.00008  -0.00041   0.00010  -0.00032   2.62069
    R4        3.00388  -0.00002   0.00332  -0.00171   0.00161   3.00549
    R5        2.78129  -0.00006   0.00017  -0.00069  -0.00052   2.78078
    R6        2.78269  -0.00040  -0.00042  -0.00124  -0.00165   2.78104
    R7        2.85408   0.00005   0.00001  -0.00017  -0.00016   2.85392
    R8        2.07009   0.00006   0.00005   0.00005   0.00010   2.07019
    R9        2.05888  -0.00005   0.00027  -0.00032  -0.00005   2.05883
   R10        2.07328   0.00009   0.00059  -0.00007   0.00052   2.07380
   R11        2.07168  -0.00002  -0.00009   0.00005  -0.00004   2.07164
   R12        2.07320  -0.00006  -0.00030   0.00022  -0.00008   2.07312
   R13        2.85204  -0.00006   0.00057  -0.00087  -0.00029   2.85175
   R14        2.07075   0.00000   0.00005  -0.00001   0.00004   2.07079
   R15        2.06596  -0.00008  -0.00013   0.00010  -0.00003   2.06593
   R16        2.07362   0.00005   0.00029  -0.00001   0.00028   2.07390
   R17        2.07088   0.00001   0.00016  -0.00010   0.00006   2.07094
   R18        2.06699   0.00002   0.00019  -0.00006   0.00013   2.06712
    A1        1.96550   0.00006   0.00133  -0.00060   0.00074   1.96624
    A2        1.95127  -0.00006  -0.00015   0.00030   0.00016   1.95142
    A3        1.85047   0.00009  -0.00024   0.00064   0.00041   1.85088
    A4        1.96796   0.00002  -0.00011   0.00035   0.00025   1.96821
    A5        1.86306  -0.00019  -0.00093  -0.00066  -0.00158   1.86148
    A6        1.85568   0.00008  -0.00009  -0.00003  -0.00012   1.85556
    A7        2.08163  -0.00004   0.00042   0.00081   0.00124   2.08288
    A8        2.04857   0.00009   0.00224   0.00049   0.00277   2.05134
    A9        1.95742  -0.00002   0.00088  -0.00025   0.00068   1.95809
   A10        1.91397   0.00043   0.00124   0.00007   0.00131   1.91529
   A11        1.86539  -0.00014   0.00029  -0.00069  -0.00040   1.86498
   A12        1.84990  -0.00013  -0.00001  -0.00019  -0.00021   1.84969
   A13        1.97161  -0.00005   0.00018   0.00007   0.00027   1.97187
   A14        1.95405  -0.00023  -0.00280   0.00084  -0.00195   1.95210
   A15        1.90290   0.00012   0.00120  -0.00019   0.00103   1.90393
   A16        1.89366  -0.00003  -0.00080   0.00001  -0.00079   1.89288
   A17        1.92989  -0.00009  -0.00103   0.00074  -0.00029   1.92960
   A18        1.95263   0.00026   0.00368  -0.00183   0.00186   1.95449
   A19        1.89637   0.00001  -0.00048   0.00004  -0.00045   1.89592
   A20        1.88696  -0.00017  -0.00314   0.00121  -0.00193   1.88503
   A21        1.90303   0.00000   0.00161  -0.00012   0.00148   1.90451
   A22        1.95591   0.00007   0.00107  -0.00061   0.00045   1.95636
   A23        1.86473  -0.00001   0.00111  -0.00101   0.00009   1.86482
   A24        1.83174   0.00007  -0.00019   0.00110   0.00091   1.83264
   A25        1.96550  -0.00007  -0.00068  -0.00042  -0.00109   1.96440
   A26        1.92998  -0.00010  -0.00190   0.00099  -0.00090   1.92908
   A27        1.91009   0.00005   0.00071  -0.00000   0.00072   1.91081
   A28        1.86993   0.00004   0.00104  -0.00092   0.00012   1.87005
   A29        1.93544   0.00002   0.00044   0.00004   0.00048   1.93591
   A30        1.95959   0.00004   0.00108  -0.00057   0.00051   1.96011
   A31        1.89503  -0.00004  -0.00131   0.00078  -0.00053   1.89449
   A32        1.89238  -0.00008  -0.00198   0.00062  -0.00135   1.89103
   A33        1.90958   0.00001   0.00058   0.00010   0.00068   1.91026
    D1       -2.48667   0.00004   0.00440   0.00203   0.00642  -2.48024
    D2        1.33592  -0.00001  -0.00157   0.00052  -0.00104   1.33488
    D3        1.69726   0.00002   0.00343   0.00273   0.00616   1.70342
    D4       -0.76334  -0.00003  -0.00254   0.00122  -0.00130  -0.76465
    D5       -0.40756   0.00006   0.00408   0.00268   0.00674  -0.40082
    D6       -2.86816   0.00001  -0.00190   0.00117  -0.00072  -2.86888
    D7        2.23913  -0.00016  -0.01217  -0.00112  -0.01328   2.22586
    D8       -1.90116  -0.00006  -0.01100  -0.00142  -0.01242  -1.91359
    D9        0.12677  -0.00005  -0.00950  -0.00205  -0.01154   0.11523
   D10       -1.55049  -0.00008  -0.00599   0.00055  -0.00543  -1.55592
   D11        0.59240   0.00003  -0.00483   0.00025  -0.00458   0.58782
   D12        2.62033   0.00004  -0.00332  -0.00037  -0.00370   2.61664
   D13       -1.04579   0.00005   0.00074   0.00453   0.00528  -1.04051
   D14        1.11482   0.00000   0.00133   0.00293   0.00427   1.11909
   D15       -3.14114   0.00009   0.00256   0.00299   0.00556  -3.13558
   D16        2.73052   0.00002  -0.00456   0.00276  -0.00181   2.72871
   D17       -1.39205  -0.00003  -0.00396   0.00115  -0.00282  -1.39487
   D18        0.63518   0.00006  -0.00273   0.00121  -0.00153   0.63364
   D19        3.13068   0.00005   0.00608   0.00027   0.00635   3.13703
   D20       -1.07437  -0.00001   0.00438   0.00077   0.00515  -1.06922
   D21        1.05048   0.00012   0.00825  -0.00012   0.00813   1.05861
   D22        1.05206  -0.00003   0.00474   0.00105   0.00579   1.05785
   D23        3.13019  -0.00009   0.00304   0.00155   0.00459   3.13478
   D24       -1.02814   0.00004   0.00691   0.00066   0.00756  -1.02058
   D25       -1.10427   0.00003   0.00514   0.00060   0.00574  -1.09854
   D26        0.97386  -0.00003   0.00344   0.00109   0.00454   0.97839
   D27        3.09871   0.00009   0.00730   0.00020   0.00751   3.10622
   D28       -3.01947  -0.00003   0.00044   0.00118   0.00162  -3.01785
   D29       -0.95420  -0.00004  -0.00027   0.00159   0.00131  -0.95289
   D30        1.18797   0.00001   0.00157   0.00133   0.00291   1.19088
   D31        1.16064  -0.00002  -0.00128   0.00323   0.00195   1.16259
   D32       -3.05728  -0.00003  -0.00199   0.00364   0.00164  -3.05564
   D33       -0.91511   0.00002  -0.00015   0.00339   0.00324  -0.91188
   D34       -0.98241   0.00003  -0.00036   0.00281   0.00245  -0.97995
   D35        1.08286   0.00003  -0.00107   0.00321   0.00215   1.08500
   D36       -3.05815   0.00008   0.00077   0.00296   0.00374  -3.05441
         Item               Value     Threshold  Converged?
 Maximum Force            0.000426     0.000450     YES
 RMS     Force            0.000098     0.000300     YES
 Maximum Displacement     0.018006     0.001800     NO 
 RMS     Displacement     0.005703     0.001200     NO 
 Predicted change in Energy=-4.567259D-06
 GradGradGradGradGradGradGradGradGradGradGradGradGradGradGradGradGradGrad

                          Input orientation:                          
 ---------------------------------------------------------------------
 Center     Atomic      Atomic             Coordinates (Angstroms)
 Number     Number       Type             X           Y           Z
 ---------------------------------------------------------------------
      1          5           0       -1.775901    0.663229   -0.206633
      2          9           0       -1.573013    1.624872   -1.184317
      3          9           0       -2.131727    1.213022    1.019617
      4          9           0       -2.655389   -0.322632   -0.628313
      5          8           0       -0.371147   -0.051906    0.004863
      6          6           0       -0.329985   -1.502506    0.248675
      7          6           0        0.621283   -2.156557   -0.725031
      8          6           0        0.650562    0.671043    0.778973
      9          6           0        1.006704    1.995991    0.150488
     10          1           0       -0.033685   -1.640595    1.294262
     11          1           0       -1.351616   -1.857711    0.118006
     12          1           0        0.639331   -3.234847   -0.521879
     13          1           0        0.284283   -2.000124   -1.756416
     14          1           0        1.644183   -1.774430   -0.619351
     15          1           0        0.259532    0.780277    1.796800
     16          1           0        1.518831    0.006858    0.791296
     17          1           0        1.856204    2.403200    0.713475
     18          1           0        1.311618    1.864325   -0.893865
     19          1           0        0.183472    2.714473    0.201765
 ---------------------------------------------------------------------
                    Distance matrix (angstroms):
                    1          2          3          4          5
     1  B    0.000000
     2  F    1.386285   0.000000
     3  F    1.390171   2.310651   0.000000
     4  F    1.386808   2.296399   2.312602   0.000000
     5  O    1.590434   2.381222   2.393618   2.385785   0.000000
     6  C    2.643556   3.657743   3.348838   2.751131   1.471523
     7  C    3.737167   4.396031   4.687955   3.756224   2.438693
     8  C    2.619008   3.115860   2.844782   3.727889   1.471662
     9  C    3.105911   2.928204   3.349354   4.403802   2.472562
    10  H    3.255090   4.379060   3.552512   3.508085   2.073732
    11  H    2.576926   3.724708   3.294066   2.147856   2.057925
    12  H    4.596489   5.380535   5.462463   4.398580   3.380774
    13  H    3.706702   4.113083   4.885466   3.567671   2.706890
    14  H    4.220129   4.714318   5.086116   4.538074   2.723654
    15  H    2.858397   3.599809   2.551353   3.948968   2.073963
    16  H    3.504560   4.010052   3.851432   4.421308   2.047912
    17  H    4.131136   3.995865   4.172989   5.439212   3.389803
    18  H    3.383444   2.909089   3.992773   4.537670   2.703951
    19  H    2.865926   2.488713   2.878086   4.239359   2.828290
                    6          7          8          9         10
     6  C    0.000000
     7  C    1.510231   0.000000
     8  C    2.442745   3.202844   0.000000
     9  C    3.746447   4.261308   1.509079   0.000000
    10  H    1.095497   2.184662   2.465236   3.951631   0.000000
    11  H    1.089484   2.166184   3.292445   4.518158   1.779792
    12  H    2.129396   1.097408   4.116833   5.286654   2.508577
    13  H    2.155306   1.096264   3.701012   4.486326   3.088204
    14  H    2.173649   1.097048   2.987128   3.900655   2.548543
    15  H    2.820518   3.887865   1.095814   2.178662   2.489808
    16  H    2.447598   2.790198   1.093245   2.151641   2.318918
    17  H    4.500000   4.938190   2.111452   1.097462   4.501252
    18  H    3.916096   4.083205   2.158542   1.095893   4.345366
    19  H    4.248382   4.977707   2.174155   1.093872   4.495256
                   11         12         13         14         15
    11  H    0.000000
    12  H    2.503962   0.000000
    13  H    2.491969   1.781763   0.000000
    14  H    3.086332   1.775400   1.786947   0.000000
    15  H    3.517546   4.652068   4.511828   3.779097   0.000000
    16  H    3.488467   3.606466   3.470291   2.275660   1.787470
    17  H    5.366568   5.898682   5.287775   4.390213   2.521276
    18  H    4.687244   5.156733   4.090646   3.664218   3.085729
    19  H    4.823730   6.010480   5.106081   4.791467   2.508193
                   16         17         18         19
    16  H    0.000000
    17  H    2.421225   0.000000
    18  H    2.516523   1.780590   0.000000
    19  H    3.076022   1.776730   1.787700   0.000000
 Stoichiometry    C4H10BF3O
 Framework group  C1[X(C4H10BF3O)]
 Deg. of freedom    51
 Full point group                 C1      NOp   1
 Largest Abelian subgroup         C1      NOp   1
 Largest concise Abelian subgroup C1      NOp   1
                         Standard orientation:                         
 ---------------------------------------------------------------------
 Center     Atomic      Atomic             Coordinates (Angstroms)
 Number     Number       Type             X           Y           Z
 ---------------------------------------------------------------------
      1          5           0       -0.963101   -0.678582   -0.046787
      2          9           0       -1.601250   -0.201544   -1.181242
      3          9           0       -1.670460   -0.408467    1.119084
      4          9           0       -0.624176   -2.017594   -0.170926
      5          8           0        0.407548    0.121579    0.055909
      6          6           0        1.618631   -0.578426    0.512692
      7          6           0        2.735586   -0.366913   -0.481527
      8          6           0        0.350423    1.509091    0.543079
      9          6           0       -0.516996    2.382015   -0.330365
     10          1           0        1.853732   -0.189094    1.509318
     11          1           0        1.344010   -1.629400    0.596431
     12          1           0        3.627832   -0.892781   -0.118672
     13          1           0        2.461853   -0.776375   -1.460917
     14          1           0        2.989760    0.694338   -0.594027
     15          1           0       -0.003647    1.467526    1.579282
     16          1           0        1.386316    1.858088    0.525474
     17          1           0       -0.400792    3.413457    0.026072
     18          1           0       -0.191605    2.335747   -1.375813
     19          1           0       -1.575220    2.112617   -0.265996
 ---------------------------------------------------------------------
 Rotational constants (GHZ):           1.7491743           1.4139718           1.0046482
 Standard basis: Aug-CC-pVDZ (5D, 7F)
 There are   315 symmetry adapted cartesian basis functions of A   symmetry.
 There are   297 symmetry adapted basis functions of A   symmetry.
   297 basis functions,   497 primitive gaussians,   315 cartesian basis functions
    37 alpha electrons       37 beta electrons
       nuclear repulsion energy       523.6195968994 Hartrees.
 NAtoms=   19 NActive=   19 NUniq=   19 SFac= 1.00D+00 NAtFMM=   60 NAOKFM=F Big=F
 Integral buffers will be    131072 words long.
 Raffenetti 2 integral format.
 Two-electron integral symmetry is turned on.
 Nuclear repulsion after empirical dispersion term =      523.6075362660 Hartrees.
 Force PCM accuracy= 1.00D-12.
 ------------------------------------------------------------------------------
 Polarizable Continuum Model (PCM)
 =================================
 Model                : C-PCM.
 Atomic radii         : UFF (Universal Force Field).
 Polarization charges : Total charges.
 Charge compensation  : None.
 Solution method      : On-the-fly selection.
 Cavity type          : Scaled VdW (van der Waals Surface) (Alpha=1.100).
 Cavity algorithm     : GePol (No added spheres)
                        Default sphere list used, NSphG=   19.
                        Lebedev-Laikov grids with approx.  5.0 points / Ang**2.
                        Smoothing algorithm: York/Karplus (Gamma=1.0000).
                        Polarization charges: spherical gaussians, with
                                              point-specific exponents (IZeta= 3).
                        Self-potential: point-specific (ISelfS= 7).
                        Self-field    : sphere-specific E.n sum rule (ISelfD= 2).
 1st derivatives      : Analytical E(r).r(x)/FMM algorithm (CHGder, D1EAlg=3).
                        Cavity 1st derivative terms included.
 Solvent              : DiMethylSulfoxide, Eps=  46.826000 Eps(inf)=   2.007889
 ------------------------------------------------------------------------------
 Spheres list:
 ISph  on   Nord     Re0    Alpha      Xe            Ye            Ze
    1   B      1    2.0415  1.100     -0.963101     -0.678582     -0.046787
    2   F      2    1.6820  1.100     -1.601250     -0.201544     -1.181242
    3   F      3    1.6820  1.100     -1.670460     -0.408467      1.119084
    4   F      4    1.6820  1.100     -0.624176     -2.017594     -0.170926
    5   O      5    1.7500  1.100      0.407548      0.121579      0.055909
    6   C      6    1.9255  1.100      1.618631     -0.578426      0.512692
    7   C      7    1.9255  1.100      2.735586     -0.366913     -0.481527
    8   C      8    1.9255  1.100      0.350423      1.509091      0.543079
    9   C      9    1.9255  1.100     -0.516996      2.382015     -0.330365
   10   H     10    1.4430  1.100      1.853732     -0.189094      1.509318
   11   H     11    1.4430  1.100      1.344010     -1.629400      0.596431
   12   H     12    1.4430  1.100      3.627832     -0.892781     -0.118672
   13   H     13    1.4430  1.100      2.461853     -0.776375     -1.460917
   14   H     14    1.4430  1.100      2.989760      0.694338     -0.594027
   15   H     15    1.4430  1.100     -0.003647      1.467526      1.579282
   16   H     16    1.4430  1.100      1.386316      1.858088      0.525474
   17   H     17    1.4430  1.100     -0.400792      3.413457      0.026072
   18   H     18    1.4430  1.100     -0.191605      2.335747     -1.375813
   19   H     19    1.4430  1.100     -1.575220      2.112617     -0.265996
 ------------------------------------------------------------------------------
 One-electron integrals computed using PRISM.
 NBasis=   297 RedAO= T EigKep=  2.73D-05  NBF=   297
 NBsUse=   297 1.00D-06 EigRej= -1.00D+00 NBFU=   297
 Initial guess from the checkpoint file:  "/inspire/hdd/project/materialscienceresearch/lipenghui-253107030018/g16/00-B-DFT-Shift/04-output/BF3OEt2_DMSO-d6/BF3OEt2_DMSO-d6.chk"
 B after Tr=    -0.000000   -0.000000    0.000000
         Rot=    0.999998    0.000994    0.000255   -0.001968 Ang=   0.25 deg.
 Requested convergence on RMS density matrix=1.00D-08 within 128 cycles.
 Requested convergence on MAX density matrix=1.00D-06.
 Requested convergence on             energy=1.00D-06.
 No special actions if energy rises.
 Inv3:  Mode=1 IEnd=     7022700.
 Iteration    1 A*A^-1 deviation from unit magnitude is 2.89D-15 for   1501.
 Iteration    1 A*A^-1 deviation from orthogonality  is 1.40D-15 for   1253      2.
 Iteration    1 A^-1*A deviation from unit magnitude is 2.89D-15 for   1501.
 Iteration    1 A^-1*A deviation from orthogonality  is 2.23D-15 for   1494    711.
 Error on total polarization charges =  0.01120
 SCF Done:  E(RwB97XD) =  -558.152173370     A.U. after    8 cycles
            NFock=  8  Conv=0.10D-07     -V/T= 2.0060
 D1PCM: C-PCM CHGder 1st derivatives, ID1Alg=3 FixD1E=F DoIter=F DoCFld=F I1PDM=0.
 Calling FoFJK, ICntrl=      2127 FMM=F ISym2X=0 I1Cent= 0 IOpClX= 0 NMat=1 NMatS=1 NMatT=0.
 ***** Axes restored to original set *****
 -------------------------------------------------------------------
 Center     Atomic                   Forces (Hartrees/Bohr)
 Number     Number              X              Y              Z
 -------------------------------------------------------------------
      1        5           0.000183588   -0.000083823   -0.000121094
      2        9          -0.000000867   -0.000014100    0.000032175
      3        9           0.000008680    0.000038542    0.000022569
      4        9           0.000028291    0.000030297    0.000017091
      5        8          -0.000029301    0.000067148    0.000312981
      6        6          -0.000024599    0.000127778   -0.000110251
      7        6           0.000051481   -0.000085931   -0.000008360
      8        6          -0.000203451   -0.000170789   -0.000148908
      9        6           0.000039950    0.000087835   -0.000007319
     10        1          -0.000000418   -0.000026799   -0.000021309
     11        1           0.000006349   -0.000006305    0.000051445
     12        1          -0.000024693    0.000036663   -0.000015810
     13        1           0.000008244    0.000002005    0.000009700
     14        1          -0.000022219   -0.000002353   -0.000011536
     15        1           0.000057816   -0.000026490    0.000042603
     16        1          -0.000020919    0.000038647   -0.000032808
     17        1          -0.000024004   -0.000008843   -0.000010902
     18        1          -0.000011324    0.000011964    0.000021845
     19        1          -0.000022603   -0.000015444   -0.000022111
 -------------------------------------------------------------------
 Cartesian Forces:  Max     0.000312981 RMS     0.000075377

 GradGradGradGradGradGradGradGradGradGradGradGradGradGradGradGradGradGrad
 Berny optimization.
 Using GEDIIS/GDIIS optimizer.
 FormGI is forming the generalized inverse of G from B-inverse, IUseBI=4.
 Internal  Forces:  Max     0.000255645 RMS     0.000046787
 Search for a local minimum.
 Step number  15 out of a maximum of   97
 All quantities printed in internal units (Hartrees-Bohrs-Radians)
 Mixed Optimization -- En-DIIS/RFO-DIIS
 Swapping is turned off.
 Update second derivatives using D2CorX and points   10   11   12   13   14
                                                     15
 DE= -6.64D-06 DEPred=-4.57D-06 R= 1.45D+00
 TightC=F SS=  1.41D+00  RLast= 3.46D-02 DXNew= 2.1766D+00 1.0388D-01
 Trust test= 1.45D+00 RLast= 3.46D-02 DXMaxT set to 1.29D+00
 ITU=  1  1  0  1  1  0  1  1  1  1  1  1  1  1  0
     Eigenvalues ---    0.00224   0.00282   0.00307   0.01065   0.01416
     Eigenvalues ---    0.01723   0.04515   0.05015   0.05078   0.05275
     Eigenvalues ---    0.05381   0.05611   0.05771   0.05896   0.08734
     Eigenvalues ---    0.09659   0.10526   0.12745   0.12826   0.12991
     Eigenvalues ---    0.13346   0.15985   0.16002   0.16018   0.16070
     Eigenvalues ---    0.16531   0.17239   0.21210   0.22408   0.24064
     Eigenvalues ---    0.25307   0.25404   0.28354   0.28378   0.28741
     Eigenvalues ---    0.28917   0.30473   0.31844   0.32010   0.32050
     Eigenvalues ---    0.32108   0.32134   0.32161   0.32222   0.32410
     Eigenvalues ---    0.32669   0.33651   0.37105   0.38538   0.43148
     Eigenvalues ---    0.54568
 En-DIIS/RFO-DIIS/Sim-DIIS IScMMF=       -3 using points:    15   14   13   12   11
 RFO step:  Lambda=-3.08221020D-06.
 DidBck=F Rises=F RFO-DIIS coefs:    0.92158    0.58967   -0.33306   -0.22554    0.04734
 Iteration  1 RMS(Cart)=  0.00285732 RMS(Int)=  0.00000598
 Iteration  2 RMS(Cart)=  0.00000526 RMS(Int)=  0.00000494
 Iteration  3 RMS(Cart)=  0.00000000 RMS(Int)=  0.00000494
 Variable       Old X    -DE/DX   Delta X   Delta X   Delta X     New X
                                 (Linear)    (Quad)   (Total)
    R1        2.61970  -0.00003  -0.00035   0.00025  -0.00010   2.61960
    R2        2.62704   0.00003   0.00004   0.00009   0.00013   2.62717
    R3        2.62069  -0.00004  -0.00029   0.00022  -0.00007   2.62061
    R4        3.00549  -0.00020   0.00261  -0.00296  -0.00035   3.00513
    R5        2.78078  -0.00006  -0.00008  -0.00004  -0.00012   2.78066
    R6        2.78104  -0.00026  -0.00036  -0.00025  -0.00061   2.78043
    R7        2.85392   0.00004   0.00006  -0.00007  -0.00001   2.85391
    R8        2.07019  -0.00002   0.00003  -0.00005  -0.00002   2.07017
    R9        2.05883  -0.00001   0.00018  -0.00017   0.00001   2.05883
   R10        2.07380  -0.00004   0.00032  -0.00021   0.00012   2.07392
   R11        2.07164  -0.00002  -0.00004  -0.00000  -0.00004   2.07160
   R12        2.07312  -0.00002  -0.00015   0.00009  -0.00006   2.07306
   R13        2.85175   0.00007   0.00038  -0.00028   0.00011   2.85185
   R14        2.07079   0.00002   0.00005  -0.00001   0.00003   2.07082
   R15        2.06593  -0.00004  -0.00003  -0.00004  -0.00006   2.06587
   R16        2.07390  -0.00003   0.00015  -0.00009   0.00006   2.07396
   R17        2.07094  -0.00003   0.00010  -0.00012  -0.00002   2.07092
   R18        2.06712   0.00001   0.00012  -0.00009   0.00004   2.06716
    A1        1.96624  -0.00002   0.00086  -0.00079   0.00007   1.96631
    A2        1.95142   0.00001   0.00001  -0.00013  -0.00012   1.95130
    A3        1.85088  -0.00001  -0.00037   0.00068   0.00031   1.85119
    A4        1.96821   0.00002   0.00003  -0.00003   0.00000   1.96821
    A5        1.86148   0.00000  -0.00057   0.00027  -0.00029   1.86118
    A6        1.85556   0.00000  -0.00011   0.00015   0.00004   1.85560
    A7        2.08288   0.00003   0.00025   0.00057   0.00082   2.08370
    A8        2.05134  -0.00009   0.00099   0.00017   0.00117   2.05251
    A9        1.95809   0.00008   0.00039   0.00015   0.00056   1.95866
   A10        1.91529   0.00008   0.00061  -0.00019   0.00042   1.91571
   A11        1.86498  -0.00001   0.00026  -0.00039  -0.00013   1.86485
   A12        1.84969  -0.00003   0.00018  -0.00012   0.00006   1.84975
   A13        1.97187  -0.00003   0.00005  -0.00008  -0.00002   1.97185
   A14        1.95210  -0.00000  -0.00159   0.00109  -0.00049   1.95161
   A15        1.90393  -0.00001   0.00056  -0.00038   0.00019   1.90412
   A16        1.89288  -0.00002  -0.00036   0.00011  -0.00025   1.89263
   A17        1.92960   0.00001  -0.00060   0.00046  -0.00015   1.92945
   A18        1.95449   0.00000   0.00204  -0.00141   0.00063   1.95512
   A19        1.89592  -0.00000  -0.00024   0.00008  -0.00015   1.89577
   A20        1.88503   0.00001  -0.00172   0.00116  -0.00056   1.88447
   A21        1.90451  -0.00001   0.00079  -0.00035   0.00044   1.90495
   A22        1.95636  -0.00007   0.00054  -0.00029   0.00025   1.95661
   A23        1.86482   0.00005   0.00074  -0.00051   0.00022   1.86504
   A24        1.83264   0.00002  -0.00004   0.00011   0.00007   1.83272
   A25        1.96440  -0.00000  -0.00037   0.00003  -0.00034   1.96406
   A26        1.92908   0.00003  -0.00108   0.00076  -0.00031   1.92877
   A27        1.91081  -0.00002   0.00028  -0.00013   0.00016   1.91097
   A28        1.87005   0.00001   0.00067  -0.00052   0.00015   1.87020
   A29        1.93591   0.00001   0.00022  -0.00007   0.00015   1.93607
   A30        1.96011  -0.00002   0.00057  -0.00043   0.00014   1.96024
   A31        1.89449  -0.00000  -0.00073   0.00053  -0.00020   1.89430
   A32        1.89103   0.00001  -0.00108   0.00068  -0.00041   1.89062
   A33        1.91026  -0.00001   0.00027  -0.00013   0.00014   1.91040
    D1       -2.48024   0.00003   0.00237   0.00113   0.00349  -2.47675
    D2        1.33488  -0.00003  -0.00040  -0.00029  -0.00069   1.33419
    D3        1.70342   0.00006   0.00184   0.00156   0.00340   1.70682
    D4       -0.76465  -0.00001  -0.00093   0.00014  -0.00078  -0.76542
    D5       -0.40082   0.00004   0.00215   0.00138   0.00353  -0.39729
    D6       -2.86888  -0.00003  -0.00062  -0.00004  -0.00065  -2.86953
    D7        2.22586  -0.00001  -0.00689   0.00013  -0.00675   2.21911
    D8       -1.91359  -0.00001  -0.00629  -0.00032  -0.00661  -1.92020
    D9        0.11523  -0.00003  -0.00544  -0.00100  -0.00643   0.10880
   D10       -1.55592  -0.00000  -0.00404   0.00148  -0.00257  -1.55849
   D11        0.58782  -0.00000  -0.00344   0.00102  -0.00243   0.58539
   D12        2.61664  -0.00003  -0.00259   0.00035  -0.00225   2.61439
   D13       -1.04051   0.00008  -0.00006   0.00303   0.00298  -1.03753
   D14        1.11909   0.00006   0.00033   0.00252   0.00286   1.12195
   D15       -3.13558   0.00007   0.00097   0.00220   0.00318  -3.13241
   D16        2.72871   0.00003  -0.00253   0.00155  -0.00098   2.72773
   D17       -1.39487   0.00001  -0.00214   0.00105  -0.00110  -1.39597
   D18        0.63364   0.00002  -0.00150   0.00072  -0.00079   0.63285
   D19        3.13703   0.00001   0.00253  -0.00087   0.00165   3.13869
   D20       -1.06922   0.00000   0.00166  -0.00043   0.00123  -1.06799
   D21        1.05861   0.00000   0.00364  -0.00152   0.00212   1.06073
   D22        1.05785  -0.00001   0.00175  -0.00020   0.00155   1.05939
   D23        3.13478  -0.00002   0.00088   0.00025   0.00112   3.13590
   D24       -1.02058  -0.00002   0.00286  -0.00084   0.00202  -1.01856
   D25       -1.09854   0.00003   0.00216  -0.00048   0.00169  -1.09685
   D26        0.97839   0.00002   0.00130  -0.00004   0.00126   0.97966
   D27        3.10622   0.00002   0.00328  -0.00113   0.00216   3.10838
   D28       -3.01785  -0.00001   0.00001  -0.00068  -0.00067  -3.01851
   D29       -0.95289   0.00000  -0.00034  -0.00039  -0.00073  -0.95362
   D30        1.19088  -0.00001   0.00058  -0.00092  -0.00034   1.19053
   D31        1.16259  -0.00001  -0.00107   0.00018  -0.00089   1.16170
   D32       -3.05564  -0.00000  -0.00141   0.00047  -0.00095  -3.05659
   D33       -0.91188  -0.00002  -0.00050  -0.00006  -0.00056  -0.91244
   D34       -0.97995  -0.00001  -0.00040  -0.00023  -0.00062  -0.98057
   D35        1.08500   0.00000  -0.00074   0.00006  -0.00068   1.08432
   D36       -3.05441  -0.00001   0.00017  -0.00047  -0.00030  -3.05471
         Item               Value     Threshold  Converged?
 Maximum Force            0.000256     0.000450     YES
 RMS     Force            0.000047     0.000300     YES
 Maximum Displacement     0.008848     0.001800     NO 
 RMS     Displacement     0.002858     0.001200     NO 
 Predicted change in Energy=-1.109610D-06
 GradGradGradGradGradGradGradGradGradGradGradGradGradGradGradGradGradGrad

                          Input orientation:                          
 ---------------------------------------------------------------------
 Center     Atomic      Atomic             Coordinates (Angstroms)
 Number     Number       Type             X           Y           Z
 ---------------------------------------------------------------------
      1          5           0       -1.774948    0.662554   -0.208505
      2          9           0       -1.570570    1.621992   -1.187966
      3          9           0       -2.132887    1.214985    1.016020
      4          9           0       -2.653652   -0.324226   -0.629543
      5          8           0       -0.370781   -0.052012    0.007367
      6          6           0       -0.328606   -1.502668    0.250297
      7          6           0        0.619439   -2.156648   -0.726587
      8          6           0        0.650601    0.671629    0.780645
      9          6           0        1.006164    1.996570    0.151682
     10          1           0       -0.029003   -1.641093    1.294888
     11          1           0       -1.350533   -1.858071    0.122474
     12          1           0        0.636532   -3.235234   -0.524590
     13          1           0        0.279696   -1.998835   -1.756837
     14          1           0        1.643329   -1.776637   -0.623188
     15          1           0        0.259983    0.781378    1.798595
     16          1           0        1.519274    0.008027    0.792872
     17          1           0        1.855220    2.404706    0.714727
     18          1           0        1.311639    1.864787   -0.892484
     19          1           0        0.182642    2.714779    0.202547
 ---------------------------------------------------------------------
                    Distance matrix (angstroms):
                    1          2          3          4          5
     1  B    0.000000
     2  F    1.386231   0.000000
     3  F    1.390238   2.310716   0.000000
     4  F    1.386768   2.296229   2.312627   0.000000
     5  O    1.590249   2.381303   2.393257   2.385635   0.000000
     6  C    2.643972   3.657127   3.350731   2.751123   1.471461
     7  C    3.734889   4.391712   4.688271   3.752374   2.438999
     8  C    2.619502   3.116443   2.845776   3.728061   1.471338
     9  C    3.105466   2.928229   3.348372   4.403482   2.472548
    10  H    3.258114   4.380493   3.558268   3.510891   2.073572
    11  H    2.577446   3.725119   3.294568   2.148565   2.057915
    12  H    4.594333   5.376245   5.463296   4.394348   3.380911
    13  H    3.701605   4.105787   4.882410   3.560848   2.706595
    14  H    4.219743   4.711561   5.088871   4.535811   2.725540
    15  H    2.860685   3.602375   2.554656   3.950631   2.073861
    16  H    3.504720   4.009457   3.852898   4.421195   2.047665
    17  H    4.131051   3.996114   4.172675   5.439123   3.389824
    18  H    3.382338   2.907471   3.991164   4.537008   2.704512
    19  H    2.865790   2.490274   2.876247   4.239397   2.828340
                    6          7          8          9         10
     6  C    0.000000
     7  C    1.510226   0.000000
     8  C    2.442885   3.204976   0.000000
     9  C    3.746466   4.262644   1.509134   0.000000
    10  H    1.095488   2.184636   2.464750   3.951086   0.000000
    11  H    1.089488   2.165835   3.291977   4.518090   1.779909
    12  H    2.129255   1.097470   4.119152   5.288264   2.508928
    13  H    2.155179   1.096242   3.702400   4.487032   3.088090
    14  H    2.174066   1.097018   2.991700   3.904292   2.548349
    15  H    2.821442   3.890726   1.095833   2.178485   2.491104
    16  H    2.447703   2.793614   1.093211   2.151444   2.317063
    17  H    4.500263   4.940698   2.111636   1.097493   4.500597
    18  H    3.916134   4.083944   2.158693   1.095885   4.344319
    19  H    4.248590   4.978442   2.174314   1.093892   4.495734
                   11         12         13         14         15
    11  H    0.000000
    12  H    2.502738   0.000000
    13  H    2.491841   1.781698   0.000000
    14  H    3.086398   1.775067   1.787183   0.000000
    15  H    3.517078   4.655335   4.513432   3.784458   0.000000
    16  H    3.488202   3.610218   3.473480   2.281588   1.787558
    17  H    5.366460   5.901697   5.289809   4.395287   2.520862
    18  H    4.687960   5.157647   4.091404   3.666403   3.085719
    19  H    4.823691   6.011438   5.105562   4.794608   2.508264
                   16         17         18         19
    16  H    0.000000
    17  H    2.421371   0.000000
    18  H    2.516166   1.780483   0.000000
    19  H    3.075967   1.776511   1.787796   0.000000
 Stoichiometry    C4H10BF3O
 Framework group  C1[X(C4H10BF3O)]
 Deg. of freedom    51
 Full point group                 C1      NOp   1
 Largest Abelian subgroup         C1      NOp   1
 Largest concise Abelian subgroup C1      NOp   1
                         Standard orientation:                         
 ---------------------------------------------------------------------
 Center     Atomic      Atomic             Coordinates (Angstroms)
 Number     Number       Type             X           Y           Z
 ---------------------------------------------------------------------
      1          5           0       -0.960686   -0.681052   -0.046731
      2          9           0       -1.597825   -0.207439   -1.183121
      3          9           0       -1.671454   -0.411853    1.117357
      4          9           0       -0.617309   -2.019093   -0.168644
      5          8           0        0.407022    0.123426    0.058541
      6          6           0        1.620714   -0.572357    0.514647
      7          6           0        2.734943   -0.362619   -0.482993
      8          6           0        0.345947    1.511353    0.543067
      9          6           0       -0.524358    2.380396   -0.331473
     10          1           0        1.857486   -0.178849    1.509225
     11          1           0        1.348631   -1.623639    0.602737
     12          1           0        3.628431   -0.886974   -0.120816
     13          1           0        2.459040   -0.775283   -1.460405
     14          1           0        2.988820    0.698289   -0.599043
     15          1           0       -0.007727    1.470892    1.579468
     16          1           0        1.380707    1.863532    0.524266
     17          1           0       -0.411576    3.412739    0.023548
     18          1           0       -0.198946    2.334013   -1.376901
     19          1           0       -1.581794    2.107972   -0.266564
 ---------------------------------------------------------------------
 Rotational constants (GHZ):           1.7483143           1.4145947           1.0049414
 Standard basis: Aug-CC-pVDZ (5D, 7F)
 There are   315 symmetry adapted cartesian basis functions of A   symmetry.
 There are   297 symmetry adapted basis functions of A   symmetry.
   297 basis functions,   497 primitive gaussians,   315 cartesian basis functions
    37 alpha electrons       37 beta electrons
       nuclear repulsion energy       523.6226746656 Hartrees.
 NAtoms=   19 NActive=   19 NUniq=   19 SFac= 1.00D+00 NAtFMM=   60 NAOKFM=F Big=F
 Integral buffers will be    131072 words long.
 Raffenetti 2 integral format.
 Two-electron integral symmetry is turned on.
 Nuclear repulsion after empirical dispersion term =      523.6106120925 Hartrees.
 Force PCM accuracy= 1.00D-12.
 ------------------------------------------------------------------------------
 Polarizable Continuum Model (PCM)
 =================================
 Model                : C-PCM.
 Atomic radii         : UFF (Universal Force Field).
 Polarization charges : Total charges.
 Charge compensation  : None.
 Solution method      : On-the-fly selection.
 Cavity type          : Scaled VdW (van der Waals Surface) (Alpha=1.100).
 Cavity algorithm     : GePol (No added spheres)
                        Default sphere list used, NSphG=   19.
                        Lebedev-Laikov grids with approx.  5.0 points / Ang**2.
                        Smoothing algorithm: York/Karplus (Gamma=1.0000).
                        Polarization charges: spherical gaussians, with
                                              point-specific exponents (IZeta= 3).
                        Self-potential: point-specific (ISelfS= 7).
                        Self-field    : sphere-specific E.n sum rule (ISelfD= 2).
 1st derivatives      : Analytical E(r).r(x)/FMM algorithm (CHGder, D1EAlg=3).
                        Cavity 1st derivative terms included.
 Solvent              : DiMethylSulfoxide, Eps=  46.826000 Eps(inf)=   2.007889
 ------------------------------------------------------------------------------
 Spheres list:
 ISph  on   Nord     Re0    Alpha      Xe            Ye            Ze
    1   B      1    2.0415  1.100     -0.960686     -0.681052     -0.046731
    2   F      2    1.6820  1.100     -1.597825     -0.207439     -1.183121
    3   F      3    1.6820  1.100     -1.671454     -0.411853      1.117357
    4   F      4    1.6820  1.100     -0.617309     -2.019093     -0.168644
    5   O      5    1.7500  1.100      0.407022      0.123426      0.058541
    6   C      6    1.9255  1.100      1.620714     -0.572357      0.514647
    7   C      7    1.9255  1.100      2.734943     -0.362619     -0.482993
    8   C      8    1.9255  1.100      0.345947      1.511353      0.543067
    9   C      9    1.9255  1.100     -0.524358      2.380396     -0.331473
   10   H     10    1.4430  1.100      1.857486     -0.178849      1.509225
   11   H     11    1.4430  1.100      1.348631     -1.623639      0.602737
   12   H     12    1.4430  1.100      3.628431     -0.886974     -0.120816
   13   H     13    1.4430  1.100      2.459040     -0.775283     -1.460405
   14   H     14    1.4430  1.100      2.988820      0.698289     -0.599043
   15   H     15    1.4430  1.100     -0.007727      1.470892      1.579468
   16   H     16    1.4430  1.100      1.380707      1.863532      0.524266
   17   H     17    1.4430  1.100     -0.411576      3.412739      0.023548
   18   H     18    1.4430  1.100     -0.198946      2.334013     -1.376901
   19   H     19    1.4430  1.100     -1.581794      2.107972     -0.266564
 ------------------------------------------------------------------------------
 One-electron integrals computed using PRISM.
 NBasis=   297 RedAO= T EigKep=  2.74D-05  NBF=   297
 NBsUse=   297 1.00D-06 EigRej= -1.00D+00 NBFU=   297
 Initial guess from the checkpoint file:  "/inspire/hdd/project/materialscienceresearch/lipenghui-253107030018/g16/00-B-DFT-Shift/04-output/BF3OEt2_DMSO-d6/BF3OEt2_DMSO-d6.chk"
 B after Tr=     0.000000    0.000000   -0.000000
         Rot=    0.999999    0.000463    0.000173   -0.001345 Ang=   0.16 deg.
 Requested convergence on RMS density matrix=1.00D-08 within 128 cycles.
 Requested convergence on MAX density matrix=1.00D-06.
 Requested convergence on             energy=1.00D-06.
 No special actions if energy rises.
 Inv3:  Mode=1 IEnd=     7022700.
 Iteration    1 A*A^-1 deviation from unit magnitude is 3.89D-15 for   1502.
 Iteration    1 A*A^-1 deviation from orthogonality  is 2.41D-15 for   1513   1091.
 Iteration    1 A^-1*A deviation from unit magnitude is 3.89D-15 for   1502.
 Iteration    1 A^-1*A deviation from orthogonality  is 1.31D-15 for   1293    119.
 Error on total polarization charges =  0.01120
 SCF Done:  E(RwB97XD) =  -558.152174372     A.U. after    8 cycles
            NFock=  8  Conv=0.63D-08     -V/T= 2.0060
 D1PCM: C-PCM CHGder 1st derivatives, ID1Alg=3 FixD1E=F DoIter=F DoCFld=F I1PDM=0.
 Calling FoFJK, ICntrl=      2127 FMM=F ISym2X=0 I1Cent= 0 IOpClX= 0 NMat=1 NMatS=1 NMatT=0.
 ***** Axes restored to original set *****
 -------------------------------------------------------------------
 Center     Atomic                   Forces (Hartrees/Bohr)
 Number     Number              X              Y              Z
 -------------------------------------------------------------------
      1        5           0.000163454   -0.000077247   -0.000038815
      2        9           0.000021157    0.000021211    0.000021284
      3        9           0.000009630    0.000049251   -0.000002188
      4        9           0.000020006   -0.000005174    0.000019543
      5        8          -0.000008632   -0.000007330    0.000171001
      6        6          -0.000039432    0.000109786   -0.000104984
      7        6           0.000059062   -0.000169227    0.000017865
      8        6          -0.000150522   -0.000055399   -0.000096386
      9        6           0.000047695    0.000124817   -0.000000928
     10        1          -0.000020136   -0.000030064   -0.000025883
     11        1          -0.000010448    0.000009257    0.000088974
     12        1          -0.000048240    0.000059231   -0.000024976
     13        1           0.000032065    0.000011484   -0.000011909
     14        1          -0.000032244    0.000091024   -0.000002566
     15        1           0.000056676   -0.000050897    0.000041090
     16        1          -0.000003018   -0.000002931   -0.000024330
     17        1          -0.000033470   -0.000045817   -0.000004467
     18        1          -0.000030822    0.000006015    0.000014855
     19        1          -0.000032781   -0.000037988   -0.000037179
 -------------------------------------------------------------------
 Cartesian Forces:  Max     0.000171001 RMS     0.000062382

 GradGradGradGradGradGradGradGradGradGradGradGradGradGradGradGradGradGrad
 Berny optimization.
 Using GEDIIS/GDIIS optimizer.
 FormGI is forming the generalized inverse of G from B-inverse, IUseBI=4.
 Internal  Forces:  Max     0.000194711 RMS     0.000048560
 Search for a local minimum.
 Step number  16 out of a maximum of   97
 All quantities printed in internal units (Hartrees-Bohrs-Radians)
 Mixed Optimization -- En-DIIS/RFO-DIIS
 Swapping is turned off.
 Update second derivatives using D2CorX and points   10   11   12   13   14
                                                     15   16
 DE= -1.00D-06 DEPred=-1.11D-06 R= 9.03D-01
 TightC=F SS=  1.41D+00  RLast= 1.58D-02 DXNew= 2.1766D+00 4.7498D-02
 Trust test= 9.03D-01 RLast= 1.58D-02 DXMaxT set to 1.29D+00
 ITU=  1  1  1  0  1  1  0  1  1  1  1  1  1  1  1  0
     Eigenvalues ---    0.00219   0.00267   0.00298   0.00802   0.01432
     Eigenvalues ---    0.01716   0.04533   0.05003   0.05066   0.05288
     Eigenvalues ---    0.05400   0.05761   0.05804   0.05898   0.08986
     Eigenvalues ---    0.09658   0.10498   0.12811   0.12853   0.13006
     Eigenvalues ---    0.13370   0.15994   0.16004   0.16046   0.16067
     Eigenvalues ---    0.16587   0.17938   0.21436   0.22437   0.25034
     Eigenvalues ---    0.25347   0.25700   0.28358   0.28399   0.28928
     Eigenvalues ---    0.29024   0.30423   0.31893   0.32008   0.32061
     Eigenvalues ---    0.32115   0.32155   0.32186   0.32223   0.32459
     Eigenvalues ---    0.32857   0.33719   0.37063   0.38387   0.43180
     Eigenvalues ---    0.53244
 En-DIIS/RFO-DIIS/Sim-DIIS IScMMF=       -3 using points:    16   15   14   13   12   11
 RFO step:  Lambda=-2.43199619D-06.
 DidBck=F Rises=F RFO-DIIS coefs:    2.86363   -2.00000   -0.25171    0.20714    0.18892
                  RFO-DIIS coefs:   -0.00797
 Iteration  1 RMS(Cart)=  0.00544105 RMS(Int)=  0.00001077
 Iteration  2 RMS(Cart)=  0.00001485 RMS(Int)=  0.00000347
 Iteration  3 RMS(Cart)=  0.00000000 RMS(Int)=  0.00000347
 Variable       Old X    -DE/DX   Delta X   Delta X   Delta X     New X
                                 (Linear)    (Quad)   (Total)
    R1        2.61960   0.00001  -0.00013   0.00017   0.00004   2.61964
    R2        2.62717   0.00001  -0.00009   0.00026   0.00017   2.62734
    R3        2.62061  -0.00001  -0.00014   0.00009  -0.00005   2.62056
    R4        3.00513  -0.00019   0.00014  -0.00118  -0.00104   3.00409
    R5        2.78066  -0.00009  -0.00083   0.00017  -0.00066   2.78000
    R6        2.78043  -0.00019  -0.00144   0.00007  -0.00138   2.77905
    R7        2.85391   0.00002   0.00015   0.00001   0.00016   2.85407
    R8        2.07017  -0.00003   0.00002  -0.00005  -0.00003   2.07014
    R9        2.05883  -0.00000  -0.00005   0.00005  -0.00001   2.05883
   R10        2.07392  -0.00006  -0.00007  -0.00004  -0.00011   2.07381
   R11        2.07160  -0.00000   0.00000  -0.00001  -0.00001   2.07158
   R12        2.07306   0.00000   0.00007  -0.00011  -0.00004   2.07302
   R13        2.85185   0.00004   0.00009   0.00016   0.00025   2.85210
   R14        2.07082   0.00001   0.00011  -0.00000   0.00011   2.07094
   R15        2.06587  -0.00000   0.00004  -0.00004  -0.00000   2.06587
   R16        2.07396  -0.00005  -0.00004  -0.00009  -0.00013   2.07384
   R17        2.07092  -0.00002  -0.00007  -0.00001  -0.00008   2.07084
   R18        2.06716  -0.00000   0.00003  -0.00005  -0.00002   2.06714
    A1        1.96631  -0.00003  -0.00006  -0.00017  -0.00023   1.96607
    A2        1.95130   0.00004   0.00013  -0.00012   0.00000   1.95131
    A3        1.85119  -0.00004   0.00004   0.00026   0.00030   1.85148
    A4        1.96821   0.00002   0.00029  -0.00020   0.00009   1.96830
    A5        1.86118   0.00003  -0.00037   0.00023  -0.00013   1.86105
    A6        1.85560  -0.00003  -0.00008   0.00008  -0.00000   1.85559
    A7        2.08370   0.00004   0.00079   0.00072   0.00153   2.08523
    A8        2.05251  -0.00010   0.00029   0.00095   0.00125   2.05376
    A9        1.95866   0.00008   0.00032   0.00072   0.00105   1.95971
   A10        1.91571  -0.00004   0.00036   0.00012   0.00049   1.91620
   A11        1.86485   0.00003  -0.00002  -0.00012  -0.00014   1.86471
   A12        1.84975   0.00000   0.00037  -0.00015   0.00023   1.84997
   A13        1.97185  -0.00002  -0.00032  -0.00008  -0.00040   1.97145
   A14        1.95161   0.00007   0.00009   0.00021   0.00030   1.95191
   A15        1.90412  -0.00004  -0.00045  -0.00000  -0.00045   1.90366
   A16        1.89263  -0.00001  -0.00002  -0.00013  -0.00015   1.89248
   A17        1.92945   0.00005   0.00019  -0.00007   0.00012   1.92957
   A18        1.95512  -0.00010  -0.00046   0.00027  -0.00019   1.95493
   A19        1.89577  -0.00001  -0.00005  -0.00001  -0.00005   1.89572
   A20        1.88447   0.00008   0.00046  -0.00014   0.00032   1.88479
   A21        1.90495  -0.00000  -0.00012   0.00007  -0.00004   1.90491
   A22        1.95661  -0.00011  -0.00007   0.00032   0.00026   1.95687
   A23        1.86504   0.00005   0.00025   0.00033   0.00058   1.86562
   A24        1.83272   0.00002   0.00051  -0.00034   0.00017   1.83289
   A25        1.96406   0.00002  -0.00044  -0.00000  -0.00044   1.96362
   A26        1.92877   0.00005   0.00016  -0.00035  -0.00019   1.92858
   A27        1.91097  -0.00003  -0.00035   0.00003  -0.00033   1.91064
   A28        1.87020  -0.00003  -0.00003  -0.00012  -0.00015   1.87005
   A29        1.93607   0.00001   0.00008   0.00009   0.00016   1.93623
   A30        1.96024  -0.00004  -0.00033   0.00019  -0.00014   1.96010
   A31        1.89430   0.00002   0.00025  -0.00007   0.00019   1.89449
   A32        1.89062   0.00005   0.00019  -0.00009   0.00010   1.89072
   A33        1.91040  -0.00001  -0.00014  -0.00001  -0.00015   1.91025
    D1       -2.47675   0.00002   0.00322   0.00367   0.00689  -2.46986
    D2        1.33419  -0.00003   0.00081  -0.00032   0.00048   1.33467
    D3        1.70682   0.00006   0.00346   0.00362   0.00707   1.71389
    D4       -0.76542   0.00001   0.00104  -0.00038   0.00067  -0.76476
    D5       -0.39729   0.00003   0.00335   0.00369   0.00704  -0.39025
    D6       -2.86953  -0.00002   0.00093  -0.00030   0.00063  -2.86890
    D7        2.21911   0.00004  -0.00280  -0.00525  -0.00805   2.21105
    D8       -1.92020   0.00001  -0.00298  -0.00536  -0.00834  -1.92853
    D9        0.10880  -0.00002  -0.00332  -0.00549  -0.00881   0.09999
   D10       -1.55849   0.00002  -0.00054  -0.00137  -0.00191  -1.56040
   D11        0.58539  -0.00001  -0.00072  -0.00148  -0.00220   0.58319
   D12        2.61439  -0.00004  -0.00107  -0.00161  -0.00267   2.61172
   D13       -1.03753   0.00008   0.00563   0.00447   0.01010  -1.02743
   D14        1.12195   0.00007   0.00521   0.00490   0.01011   1.13206
   D15       -3.13241   0.00006   0.00516   0.00493   0.01008  -3.12233
   D16        2.72773   0.00004   0.00320   0.00076   0.00396   2.73169
   D17       -1.39597   0.00003   0.00278   0.00119   0.00397  -1.39200
   D18        0.63285   0.00002   0.00272   0.00121   0.00394   0.63680
   D19        3.13869  -0.00000   0.00007   0.00072   0.00079   3.13948
   D20       -1.06799   0.00001   0.00011   0.00059   0.00070  -1.06729
   D21        1.06073  -0.00003  -0.00021   0.00082   0.00060   1.06133
   D22        1.05939  -0.00000   0.00004   0.00084   0.00089   1.06028
   D23        3.13590   0.00001   0.00009   0.00071   0.00080   3.13670
   D24       -1.01856  -0.00003  -0.00023   0.00094   0.00070  -1.01786
   D25       -1.09685   0.00001   0.00082   0.00075   0.00156  -1.09528
   D26        0.97966   0.00003   0.00086   0.00062   0.00148   0.98114
   D27        3.10838  -0.00001   0.00054   0.00084   0.00138   3.10976
   D28       -3.01851  -0.00000  -0.00202  -0.00044  -0.00246  -3.02097
   D29       -0.95362   0.00001  -0.00169  -0.00054  -0.00223  -0.95585
   D30        1.19053  -0.00002  -0.00205  -0.00036  -0.00240   1.18813
   D31        1.16170  -0.00000  -0.00198  -0.00110  -0.00308   1.15862
   D32       -3.05659   0.00001  -0.00165  -0.00121  -0.00285  -3.05945
   D33       -0.91244  -0.00002  -0.00201  -0.00102  -0.00303  -0.91547
   D34       -0.98057  -0.00001  -0.00132  -0.00088  -0.00220  -0.98277
   D35        1.08432   0.00000  -0.00099  -0.00098  -0.00197   1.08235
   D36       -3.05471  -0.00003  -0.00135  -0.00080  -0.00215  -3.05686
         Item               Value     Threshold  Converged?
 Maximum Force            0.000195     0.000450     YES
 RMS     Force            0.000049     0.000300     YES
 Maximum Displacement     0.015817     0.001800     NO 
 RMS     Displacement     0.005443     0.001200     NO 
 Predicted change in Energy=-5.654995D-07
 GradGradGradGradGradGradGradGradGradGradGradGradGradGradGradGradGradGrad

                          Input orientation:                          
 ---------------------------------------------------------------------
 Center     Atomic      Atomic             Coordinates (Angstroms)
 Number     Number       Type             X           Y           Z
 ---------------------------------------------------------------------
      1          5           0       -1.771476    0.662869   -0.212151
      2          9           0       -1.563876    1.616796   -1.196336
      3          9           0       -2.130439    1.222687    1.008816
      4          9           0       -2.651239   -0.324553   -0.629362
      5          8           0       -0.369527   -0.052867    0.010114
      6          6           0       -0.327627   -1.503305    0.252290
      7          6           0        0.616718   -2.158281   -0.727634
      8          6           0        0.652176    0.670999    0.781369
      9          6           0        1.002624    1.998573    0.154777
     10          1           0       -0.024484   -1.642206    1.295781
     11          1           0       -1.350275   -1.858027    0.128434
     12          1           0        0.632604   -3.236917   -0.526128
     13          1           0        0.274392   -1.999555   -1.756881
     14          1           0        1.641360   -1.779650   -0.626887
     15          1           0        0.265255    0.777531    1.801136
     16          1           0        1.522608    0.009639    0.789107
     17          1           0        1.850883    2.408200    0.717813
     18          1           0        1.307168    1.870239   -0.890046
     19          1           0        0.176695    2.713809    0.208203
 ---------------------------------------------------------------------
                    Distance matrix (angstroms):
                    1          2          3          4          5
     1  B    0.000000
     2  F    1.386252   0.000000
     3  F    1.390328   2.310630   0.000000
     4  F    1.386741   2.296226   2.312750   0.000000
     5  O    1.589698   2.381127   2.392750   2.385153   0.000000
     6  C    2.644374   3.655388   3.354623   2.750626   1.471114
     7  C    3.732034   4.384732   4.689677   3.748568   2.439205
     8  C    2.619397   3.117168   2.845881   3.727445   1.470611
     9  C    3.100706   2.925437   3.338782   4.400285   2.472273
    10  H    3.261780   4.381948   3.567212   3.513151   2.073160
    11  H    2.578434   3.724921   3.297654   2.149025   2.057782
    12  H    4.592005   5.369565   5.466125   4.390461   3.380827
    13  H    3.695980   4.095294   4.880075   3.554750   2.706750
    14  H    4.217269   4.704641   5.090778   4.532518   2.726026
    15  H    2.866138   3.610390   2.562281   3.953207   2.073709
    16  H    3.504315   4.006410   3.855452   4.420944   2.047172
    17  H    4.127045   3.993853   4.164258   5.436168   3.389382
    18  H    3.375698   2.898437   3.980219   4.533658   2.705538
    19  H    2.859794   2.491135   2.861345   4.234426   2.827029
                    6          7          8          9         10
     6  C    0.000000
     7  C    1.510309   0.000000
     8  C    2.442854   3.206739   0.000000
     9  C    3.747296   4.266966   1.509266   0.000000
    10  H    1.095473   2.184418   2.464428   3.951216   0.000000
    11  H    1.089484   2.166118   3.291217   4.517764   1.779606
    12  H    2.129175   1.097412   4.120890   5.292532   2.508828
    13  H    2.155333   1.096235   3.703687   4.491078   3.088004
    14  H    2.173989   1.096996   2.994554   3.910748   2.547662
    15  H    2.820043   3.890655   1.095893   2.178337   2.488867
    16  H    2.449600   2.796608   1.093210   2.151422   2.319225
    17  H    4.501388   4.946234   2.111588   1.097427   4.500760
    18  H    3.918965   4.090485   2.158893   1.095843   4.346079
    19  H    4.247391   4.980629   2.174322   1.093881   4.494237
                   11         12         13         14         15
    11  H    0.000000
    12  H    2.502318   0.000000
    13  H    2.492787   1.781610   0.000000
    14  H    3.086508   1.775209   1.787133   0.000000
    15  H    3.514830   4.654771   4.513510   3.785253   0.000000
    16  H    3.489716   3.614149   3.475192   2.284884   1.787400
    17  H    5.366141   5.907532   5.295067   4.403431   2.519302
    18  H    4.690338   5.164350   4.097967   3.674592   3.085782
    19  H    4.820755   6.013171   5.107533   4.799353   2.508874
                   16         17         18         19
    16  H    0.000000
    17  H    2.421971   0.000000
    18  H    2.515513   1.780516   0.000000
    19  H    3.075950   1.776515   1.787661   0.000000
 Stoichiometry    C4H10BF3O
 Framework group  C1[X(C4H10BF3O)]
 Deg. of freedom    51
 Full point group                 C1      NOp   1
 Largest Abelian subgroup         C1      NOp   1
 Largest concise Abelian subgroup C1      NOp   1
                         Standard orientation:                         
 ---------------------------------------------------------------------
 Center     Atomic      Atomic             Coordinates (Angstroms)
 Number     Number       Type             X           Y           Z
 ---------------------------------------------------------------------
      1          5           0       -0.954510   -0.686940   -0.046406
      2          9           0       -1.590184   -0.222165   -1.187282
      3          9           0       -1.672189   -0.417909    1.113582
      4          9           0       -0.601549   -2.023054   -0.161585
      5          8           0        0.406770    0.126915    0.061750
      6          6           0        1.625959   -0.558963    0.517080
      7          6           0        2.736105   -0.347551   -0.484876
      8          6           0        0.336101    1.515460    0.540960
      9          6           0       -0.547015    2.373602   -0.331727
     10          1           0        1.863586   -0.158891    1.508814
     11          1           0        1.360713   -1.611397    0.611963
     12          1           0        3.633384   -0.865470   -0.122988
     13          1           0        2.459687   -0.766033   -1.459655
     14          1           0        2.983576    0.714244   -0.606331
     15          1           0       -0.011166    1.476574    1.579649
     16          1           0        1.367480    1.876961    0.514838
     17          1           0       -0.443123    3.407752    0.020531
     18          1           0       -0.226090    2.328052   -1.378534
     19          1           0       -1.601268    2.090458   -0.261321
 ---------------------------------------------------------------------
 Rotational constants (GHZ):           1.7487509           1.4155308           1.0056591
 Standard basis: Aug-CC-pVDZ (5D, 7F)
 There are   315 symmetry adapted cartesian basis functions of A   symmetry.
 There are   297 symmetry adapted basis functions of A   symmetry.
   297 basis functions,   497 primitive gaussians,   315 cartesian basis functions
    37 alpha electrons       37 beta electrons
       nuclear repulsion energy       523.7060141412 Hartrees.
 NAtoms=   19 NActive=   19 NUniq=   19 SFac= 1.00D+00 NAtFMM=   60 NAOKFM=F Big=F
 Integral buffers will be    131072 words long.
 Raffenetti 2 integral format.
 Two-electron integral symmetry is turned on.
 Nuclear repulsion after empirical dispersion term =      523.6939458613 Hartrees.
 Force PCM accuracy= 1.00D-12.
 ------------------------------------------------------------------------------
 Polarizable Continuum Model (PCM)
 =================================
 Model                : C-PCM.
 Atomic radii         : UFF (Universal Force Field).
 Polarization charges : Total charges.
 Charge compensation  : None.
 Solution method      : On-the-fly selection.
 Cavity type          : Scaled VdW (van der Waals Surface) (Alpha=1.100).
 Cavity algorithm     : GePol (No added spheres)
                        Default sphere list used, NSphG=   19.
                        Lebedev-Laikov grids with approx.  5.0 points / Ang**2.
                        Smoothing algorithm: York/Karplus (Gamma=1.0000).
                        Polarization charges: spherical gaussians, with
                                              point-specific exponents (IZeta= 3).
                        Self-potential: point-specific (ISelfS= 7).
                        Self-field    : sphere-specific E.n sum rule (ISelfD= 2).
 1st derivatives      : Analytical E(r).r(x)/FMM algorithm (CHGder, D1EAlg=3).
                        Cavity 1st derivative terms included.
 Solvent              : DiMethylSulfoxide, Eps=  46.826000 Eps(inf)=   2.007889
 ------------------------------------------------------------------------------
 Spheres list:
 ISph  on   Nord     Re0    Alpha      Xe            Ye            Ze
    1   B      1    2.0415  1.100     -0.954510     -0.686940     -0.046406
    2   F      2    1.6820  1.100     -1.590184     -0.222165     -1.187282
    3   F      3    1.6820  1.100     -1.672189     -0.417909      1.113582
    4   F      4    1.6820  1.100     -0.601549     -2.023054     -0.161585
    5   O      5    1.7500  1.100      0.406770      0.126915      0.061750
    6   C      6    1.9255  1.100      1.625959     -0.558963      0.517080
    7   C      7    1.9255  1.100      2.736105     -0.347551     -0.484876
    8   C      8    1.9255  1.100      0.336101      1.515460      0.540960
    9   C      9    1.9255  1.100     -0.547015      2.373602     -0.331727
   10   H     10    1.4430  1.100      1.863586     -0.158891      1.508814
   11   H     11    1.4430  1.100      1.360713     -1.611397      0.611963
   12   H     12    1.4430  1.100      3.633384     -0.865470     -0.122988
   13   H     13    1.4430  1.100      2.459687     -0.766033     -1.459655
   14   H     14    1.4430  1.100      2.983576      0.714244     -0.606331
   15   H     15    1.4430  1.100     -0.011166      1.476574      1.579649
   16   H     16    1.4430  1.100      1.367480      1.876961      0.514838
   17   H     17    1.4430  1.100     -0.443123      3.407752      0.020531
   18   H     18    1.4430  1.100     -0.226090      2.328052     -1.378534
   19   H     19    1.4430  1.100     -1.601268      2.090458     -0.261321
 ------------------------------------------------------------------------------
 One-electron integrals computed using PRISM.
 NBasis=   297 RedAO= T EigKep=  2.74D-05  NBF=   297
 NBsUse=   297 1.00D-06 EigRej= -1.00D+00 NBFU=   297
 Initial guess from the checkpoint file:  "/inspire/hdd/project/materialscienceresearch/lipenghui-253107030018/g16/00-B-DFT-Shift/04-output/BF3OEt2_DMSO-d6/BF3OEt2_DMSO-d6.chk"
 B after Tr=     0.000000    0.000000   -0.000000
         Rot=    0.999993    0.001047    0.000203   -0.003634 Ang=   0.43 deg.
 Requested convergence on RMS density matrix=1.00D-08 within 128 cycles.
 Requested convergence on MAX density matrix=1.00D-06.
 Requested convergence on             energy=1.00D-06.
 No special actions if energy rises.
 Inv3:  Mode=1 IEnd=     7031883.
 Iteration    1 A*A^-1 deviation from unit magnitude is 4.88D-15 for   1502.
 Iteration    1 A*A^-1 deviation from orthogonality  is 2.06D-15 for   1514   1096.
 Iteration    1 A^-1*A deviation from unit magnitude is 4.88D-15 for   1502.
 Iteration    1 A^-1*A deviation from orthogonality  is 1.69D-15 for   1520    794.
 Error on total polarization charges =  0.01120
 SCF Done:  E(RwB97XD) =  -558.152176532     A.U. after    9 cycles
            NFock=  9  Conv=0.65D-08     -V/T= 2.0060
 D1PCM: C-PCM CHGder 1st derivatives, ID1Alg=3 FixD1E=F DoIter=F DoCFld=F I1PDM=0.
 Calling FoFJK, ICntrl=      2127 FMM=F ISym2X=0 I1Cent= 0 IOpClX= 0 NMat=1 NMatS=1 NMatT=0.
 ***** Axes restored to original set *****
 -------------------------------------------------------------------
 Center     Atomic                   Forces (Hartrees/Bohr)
 Number     Number              X              Y              Z
 -------------------------------------------------------------------
      1        5           0.000083062   -0.000025163    0.000016112
      2        9           0.000005216    0.000011502   -0.000009988
      3        9          -0.000004989    0.000022880   -0.000016114
      4        9          -0.000006970   -0.000012573    0.000018980
      5        8          -0.000071572   -0.000046069   -0.000055716
      6        6          -0.000013353   -0.000019822   -0.000024413
      7        6          -0.000000719   -0.000091184    0.000019054
      8        6           0.000034203    0.000093806    0.000046879
      9        6           0.000019639    0.000061186    0.000015858
     10        1          -0.000002712   -0.000010676   -0.000008124
     11        1          -0.000017140    0.000020178    0.000054198
     12        1          -0.000022247    0.000025962   -0.000016548
     13        1           0.000019077    0.000014360   -0.000018662
     14        1          -0.000013668    0.000085107    0.000006786
     15        1           0.000013606   -0.000051763    0.000011227
     16        1           0.000015967   -0.000029796   -0.000032265
     17        1          -0.000005714   -0.000031942    0.000006688
     18        1          -0.000015223   -0.000001145    0.000005315
     19        1          -0.000016461   -0.000014849   -0.000019267
 -------------------------------------------------------------------
 Cartesian Forces:  Max     0.000093806 RMS     0.000034343

 GradGradGradGradGradGradGradGradGradGradGradGradGradGradGradGradGradGrad
 Berny optimization.
 Using GEDIIS/GDIIS optimizer.
 FormGI is forming the generalized inverse of G from B-inverse, IUseBI=4.
 Internal  Forces:  Max     0.000101208 RMS     0.000028006
 Search for a local minimum.
 Step number  17 out of a maximum of   97
 All quantities printed in internal units (Hartrees-Bohrs-Radians)
 Mixed Optimization -- En-DIIS/RFO-DIIS
 Swapping is turned off.
 Update second derivatives using D2CorX and points   10   11   12   13   14
                                                     15   16   17
 DE= -2.16D-06 DEPred=-5.65D-07 R= 3.82D+00
 TightC=F SS=  1.41D+00  RLast= 2.84D-02 DXNew= 2.1766D+00 8.5165D-02
 Trust test= 3.82D+00 RLast= 2.84D-02 DXMaxT set to 1.29D+00
 ITU=  1  1  1  1  0  1  1  0  1  1  1  1  1  1  1  1  0
     Eigenvalues ---    0.00157   0.00247   0.00306   0.00483   0.01455
     Eigenvalues ---    0.01806   0.04543   0.05004   0.05063   0.05287
     Eigenvalues ---    0.05412   0.05631   0.05820   0.05907   0.08549
     Eigenvalues ---    0.09666   0.10560   0.12733   0.12833   0.12953
     Eigenvalues ---    0.13358   0.15995   0.16006   0.16009   0.16069
     Eigenvalues ---    0.16616   0.17299   0.21455   0.22496   0.24867
     Eigenvalues ---    0.25317   0.26420   0.28365   0.28403   0.28913
     Eigenvalues ---    0.29390   0.30513   0.31890   0.31940   0.32055
     Eigenvalues ---    0.32113   0.32154   0.32192   0.32222   0.32468
     Eigenvalues ---    0.33005   0.33817   0.37321   0.38314   0.42465
     Eigenvalues ---    0.56835
 En-DIIS/RFO-DIIS/Sim-DIIS IScMMF=       -3 using points:    17   16   15   14   13   12   11
 RFO step:  Lambda=-2.60893884D-06.
 DIIS inversion failure, remove point   7.
 DIIS inversion failure, remove point   6.
 RFO-DIIS uses    5 points instead of    7
 DidBck=F Rises=F RFO-DIIS coefs:    2.36914   -2.00000    0.73719   -0.04859   -0.05774
                  RFO-DIIS coefs:    0.00000    0.00000
 Iteration  1 RMS(Cart)=  0.00710444 RMS(Int)=  0.00001788
 Iteration  2 RMS(Cart)=  0.00002348 RMS(Int)=  0.00000366
 Iteration  3 RMS(Cart)=  0.00000000 RMS(Int)=  0.00000366
 Variable       Old X    -DE/DX   Delta X   Delta X   Delta X     New X
                                 (Linear)    (Quad)   (Total)
    R1        2.61964   0.00002   0.00001   0.00008   0.00008   2.61972
    R2        2.62734  -0.00001   0.00007   0.00002   0.00008   2.62742
    R3        2.62056   0.00001  -0.00011   0.00012   0.00001   2.62057
    R4        3.00409  -0.00007  -0.00063  -0.00054  -0.00116   3.00293
    R5        2.78000  -0.00002  -0.00099   0.00043  -0.00056   2.77944
    R6        2.77905   0.00006  -0.00181   0.00086  -0.00095   2.77810
    R7        2.85407  -0.00002   0.00021  -0.00021   0.00000   2.85407
    R8        2.07014  -0.00001  -0.00002   0.00000  -0.00002   2.07012
    R9        2.05883   0.00000  -0.00001  -0.00002  -0.00003   2.05880
   R10        2.07381  -0.00003  -0.00015   0.00002  -0.00013   2.07368
   R11        2.07158   0.00001   0.00000   0.00001   0.00001   2.07159
   R12        2.07302   0.00002  -0.00001   0.00003   0.00001   2.07304
   R13        2.85210   0.00001   0.00025  -0.00010   0.00015   2.85225
   R14        2.07094   0.00000   0.00014  -0.00007   0.00007   2.07101
   R15        2.06587   0.00003   0.00007   0.00001   0.00008   2.06594
   R16        2.07384  -0.00001  -0.00017   0.00006  -0.00012   2.07372
   R17        2.07084  -0.00001  -0.00008  -0.00001  -0.00010   2.07075
   R18        2.06714   0.00000  -0.00002   0.00004   0.00002   2.06716
    A1        1.96607  -0.00002  -0.00022  -0.00001  -0.00023   1.96584
    A2        1.95131   0.00001   0.00016  -0.00011   0.00005   1.95135
    A3        1.85148  -0.00002   0.00015  -0.00001   0.00015   1.85163
    A4        1.96830  -0.00001   0.00022  -0.00022   0.00000   1.96831
    A5        1.86105   0.00005  -0.00026   0.00030   0.00004   1.86109
    A6        1.85559  -0.00002  -0.00007   0.00009   0.00002   1.85561
    A7        2.08523   0.00003   0.00200  -0.00013   0.00185   2.08708
    A8        2.05376   0.00000   0.00132   0.00009   0.00140   2.05516
    A9        1.95971  -0.00003   0.00114  -0.00039   0.00073   1.96044
   A10        1.91620  -0.00010   0.00045  -0.00040   0.00005   1.91624
   A11        1.86471   0.00004  -0.00016  -0.00010  -0.00026   1.86445
   A12        1.84997   0.00002   0.00043  -0.00019   0.00025   1.85022
   A13        1.97145   0.00000  -0.00050   0.00013  -0.00037   1.97108
   A14        1.95191   0.00007   0.00047   0.00028   0.00075   1.95266
   A15        1.90366  -0.00003  -0.00065   0.00023  -0.00042   1.90324
   A16        1.89248   0.00001  -0.00007   0.00021   0.00014   1.89262
   A17        1.92957   0.00004   0.00018  -0.00002   0.00016   1.92973
   A18        1.95493  -0.00010  -0.00043  -0.00033  -0.00076   1.95417
   A19        1.89572  -0.00000  -0.00000   0.00013   0.00013   1.89584
   A20        1.88479   0.00006   0.00053   0.00002   0.00055   1.88534
   A21        1.90491   0.00000  -0.00019   0.00001  -0.00018   1.90472
   A22        1.95687   0.00002   0.00019   0.00028   0.00048   1.95735
   A23        1.86562  -0.00002   0.00071  -0.00060   0.00011   1.86573
   A24        1.83289  -0.00002   0.00036  -0.00043  -0.00008   1.83281
   A25        1.96362   0.00001  -0.00052   0.00031  -0.00022   1.96340
   A26        1.92858   0.00002  -0.00018   0.00007  -0.00011   1.92847
   A27        1.91064  -0.00001  -0.00049   0.00032  -0.00017   1.91047
   A28        1.87005  -0.00003  -0.00021  -0.00017  -0.00038   1.86967
   A29        1.93623  -0.00000   0.00017  -0.00009   0.00008   1.93631
   A30        1.96010  -0.00001  -0.00023   0.00022  -0.00001   1.96008
   A31        1.89449   0.00002   0.00031  -0.00007   0.00023   1.89472
   A32        1.89072   0.00003   0.00020   0.00004   0.00024   1.89097
   A33        1.91025  -0.00000  -0.00021   0.00006  -0.00015   1.91010
    D1       -2.46986   0.00001   0.00861   0.00015   0.00876  -2.46110
    D2        1.33467   0.00002   0.00118   0.00096   0.00214   1.33682
    D3        1.71389   0.00002   0.00891   0.00001   0.00893   1.72282
    D4       -0.76476   0.00003   0.00149   0.00083   0.00232  -0.76244
    D5       -0.39025   0.00001   0.00883   0.00006   0.00889  -0.38136
    D6       -2.86890   0.00002   0.00140   0.00088   0.00228  -2.86662
    D7        2.21105   0.00002  -0.01054   0.00017  -0.01038   2.20068
    D8       -1.92853  -0.00001  -0.01099   0.00003  -0.01096  -1.93950
    D9        0.09999  -0.00002  -0.01160   0.00016  -0.01145   0.08854
   D10       -1.56040   0.00003  -0.00344  -0.00044  -0.00389  -1.56429
   D11        0.58319  -0.00001  -0.00389  -0.00058  -0.00447   0.57872
   D12        2.61172  -0.00002  -0.00451  -0.00045  -0.00496   2.60676
   D13       -1.02743   0.00004   0.01203  -0.00025   0.01178  -1.01565
   D14        1.13206   0.00005   0.01198  -0.00010   0.01188   1.14394
   D15       -3.12233   0.00003   0.01191  -0.00021   0.01170  -3.11063
   D16        2.73169   0.00003   0.00480   0.00044   0.00524   2.73693
   D17       -1.39200   0.00004   0.00476   0.00058   0.00534  -1.38666
   D18        0.63680   0.00001   0.00468   0.00047   0.00516   0.64195
   D19        3.13948  -0.00001  -0.00015   0.00001  -0.00014   3.13934
   D20       -1.06729   0.00001  -0.00009   0.00029   0.00020  -1.06709
   D21        1.06133  -0.00003  -0.00050   0.00006  -0.00045   1.06088
   D22        1.06028   0.00001   0.00007   0.00032   0.00040   1.06068
   D23        3.13670   0.00003   0.00014   0.00060   0.00073   3.13744
   D24       -1.01786  -0.00001  -0.00028   0.00037   0.00009  -1.01777
   D25       -1.09528  -0.00001   0.00096  -0.00030   0.00066  -1.09462
   D26        0.98114   0.00001   0.00102  -0.00002   0.00099   0.98213
   D27        3.10976  -0.00003   0.00060  -0.00025   0.00035   3.11011
   D28       -3.02097   0.00000  -0.00282  -0.00004  -0.00286  -3.02384
   D29       -0.95585   0.00000  -0.00248  -0.00029  -0.00276  -0.95862
   D30        1.18813  -0.00001  -0.00279  -0.00012  -0.00291   1.18522
   D31        1.15862   0.00000  -0.00351   0.00032  -0.00319   1.15543
   D32       -3.05945   0.00001  -0.00317   0.00008  -0.00309  -3.06254
   D33       -0.91547  -0.00001  -0.00348   0.00024  -0.00324  -0.91870
   D34       -0.98277  -0.00001  -0.00237  -0.00037  -0.00273  -0.98551
   D35        1.08235  -0.00001  -0.00203  -0.00061  -0.00263   1.07971
   D36       -3.05686  -0.00002  -0.00234  -0.00044  -0.00278  -3.05964
         Item               Value     Threshold  Converged?
 Maximum Force            0.000101     0.000450     YES
 RMS     Force            0.000028     0.000300     YES
 Maximum Displacement     0.022137     0.001800     NO 
 RMS     Displacement     0.007108     0.001200     NO 
 Predicted change in Energy=-1.297149D-06
 GradGradGradGradGradGradGradGradGradGradGradGradGradGradGradGradGradGrad

                          Input orientation:                          
 ---------------------------------------------------------------------
 Center     Atomic      Atomic             Coordinates (Angstroms)
 Number     Number       Type             X           Y           Z
 ---------------------------------------------------------------------
      1          5           0       -1.767281    0.662981   -0.217168
      2          9           0       -1.555934    1.609185   -1.208050
      3          9           0       -2.127101    1.232898    0.998916
      4          9           0       -2.648613   -0.325536   -0.628454
      5          8           0       -0.367909   -0.053984    0.012844
      6          6           0       -0.326190   -1.504134    0.254977
      7          6           0        0.612839   -2.160178   -0.729333
      8          6           0        0.654040    0.670308    0.782413
      9          6           0        0.998703    2.001083    0.159225
     10          1           0       -0.017582   -1.642894    1.296873
     11          1           0       -1.349836   -1.858001    0.137219
     12          1           0        0.628874   -3.238729   -0.527747
     13          1           0        0.265991   -2.001228   -1.757036
     14          1           0        1.637981   -1.781670   -0.633246
     15          1           0        0.270623    0.772445    1.803992
     16          1           0        1.526447    0.011447    0.784959
     17          1           0        1.845789    2.412112    0.722885
     18          1           0        1.302727    1.877001   -0.886210
     19          1           0        0.169971    2.712878    0.215357
 ---------------------------------------------------------------------
                    Distance matrix (angstroms):
                    1          2          3          4          5
     1  B    0.000000
     2  F    1.386296   0.000000
     3  F    1.390373   2.310525   0.000000
     4  F    1.386748   2.296307   2.312796   0.000000
     5  O    1.589083   2.380781   2.392313   2.384662   0.000000
     6  C    2.645005   3.653146   3.359772   2.750126   1.470817
     7  C    3.727936   4.375025   4.691171   3.743415   2.439005
     8  C    2.619543   3.118881   2.845721   3.726898   1.470107
     9  C    3.095619   2.923901   3.326536   4.397330   2.472319
    10  H    3.266623   4.383741   3.578970   3.516339   2.072702
    11  H    2.579767   3.724728   3.301563   2.149773   2.057699
    12  H    4.589266   5.360827   5.470059   4.386201   3.380594
    13  H    3.688279   4.081161   4.876652   3.546344   2.706670
    14  H    4.212511   4.693548   5.091897   4.527167   2.725056
    15  H    2.872302   3.620614   2.570845   3.955287   2.073384
    16  H    3.503911   4.003239   3.858255   4.420681   2.046711
    17  H    4.122794   3.993110   4.153384   5.433276   3.389137
    18  H    3.368443   2.889160   3.966395   4.531081   2.707033
    19  H    2.853436   2.494589   2.842683   4.229467   2.825925
                    6          7          8          9         10
     6  C    0.000000
     7  C    1.510310   0.000000
     8  C    2.442792   3.209162   0.000000
     9  C    3.748473   4.272531   1.509344   0.000000
    10  H    1.095463   2.184153   2.463057   3.950399   0.000000
    11  H    1.089468   2.166637   3.290006   4.517593   1.779317
    12  H    2.129231   1.097346   4.122829   5.297579   2.508751
    13  H    2.155454   1.096240   3.706277   4.497491   3.087908
    14  H    2.173462   1.097004   2.997403   3.917386   2.546666
    15  H    2.817524   3.890389   1.095931   2.178282   2.484773
    16  H    2.451556   2.800663   1.093251   2.151443   2.320113
    17  H    4.502600   4.953276   2.111325   1.097366   4.499410
    18  H    3.922722   4.098703   2.158982   1.095792   4.347266
    19  H    4.246285   4.983497   2.174389   1.093892   4.491949
                   11         12         13         14         15
    11  H    0.000000
    12  H    2.502775   0.000000
    13  H    2.493915   1.781641   0.000000
    14  H    3.086502   1.775514   1.787028   0.000000
    15  H    3.510451   4.653480   4.513780   3.785936   0.000000
    16  H    3.491046   3.618353   3.478700   2.288890   1.787356
    17  H    5.365528   5.914133   5.303145   4.412492   2.517627
    18  H    4.694010   5.172356   4.107776   3.682697   3.085850
    19  H    4.817557   6.015349   5.111003   4.803764   2.509815
                   16         17         18         19
    16  H    0.000000
    17  H    2.422607   0.000000
    18  H    2.514587   1.780575   0.000000
    19  H    3.076069   1.776630   1.787533   0.000000
 Stoichiometry    C4H10BF3O
 Framework group  C1[X(C4H10BF3O)]
 Deg. of freedom    51
 Full point group                 C1      NOp   1
 Largest Abelian subgroup         C1      NOp   1
 Largest concise Abelian subgroup C1      NOp   1
                         Standard orientation:                         
 ---------------------------------------------------------------------
 Center     Atomic      Atomic             Coordinates (Angstroms)
 Number     Number       Type             X           Y           Z
 ---------------------------------------------------------------------
      1          5           0       -0.946858   -0.694181   -0.045969
      2          9           0       -1.579937   -0.241387   -1.193142
      3          9           0       -1.673576   -0.424282    1.108228
      4          9           0       -0.582243   -2.027993   -0.151188
      5          8           0        0.406484    0.131223    0.065193
      6          6           0        1.632293   -0.542111    0.520512
      7          6           0        2.736883   -0.329898   -0.487399
      8          6           0        0.323975    1.520708    0.538203
      9          6           0       -0.574398    2.365613   -0.331958
     10          1           0        1.870996   -0.132410    1.508036
     11          1           0        1.375209   -1.595613    0.625313
     12          1           0        3.639456   -0.838307   -0.125393
     13          1           0        2.459798   -0.757349   -1.458096
     14          1           0        2.975112    0.733005   -0.617403
     15          1           0       -0.015564    1.483102    1.579531
     16          1           0        1.351211    1.893216    0.503254
     17          1           0       -0.481068    3.401728    0.017281
     18          1           0       -0.258756    2.321165   -1.380364
     19          1           0       -1.624690    2.069677   -0.255085
 ---------------------------------------------------------------------
 Rotational constants (GHZ):           1.7488657           1.4168501           1.0065064
 Standard basis: Aug-CC-pVDZ (5D, 7F)
 There are   315 symmetry adapted cartesian basis functions of A   symmetry.
 There are   297 symmetry adapted basis functions of A   symmetry.
   297 basis functions,   497 primitive gaussians,   315 cartesian basis functions
    37 alpha electrons       37 beta electrons
       nuclear repulsion energy       523.7942073391 Hartrees.
 NAtoms=   19 NActive=   19 NUniq=   19 SFac= 1.00D+00 NAtFMM=   60 NAOKFM=F Big=F
 Integral buffers will be    131072 words long.
 Raffenetti 2 integral format.
 Two-electron integral symmetry is turned on.
 Nuclear repulsion after empirical dispersion term =      523.7821315315 Hartrees.
 Force PCM accuracy= 1.00D-12.
 ------------------------------------------------------------------------------
 Polarizable Continuum Model (PCM)
 =================================
 Model                : C-PCM.
 Atomic radii         : UFF (Universal Force Field).
 Polarization charges : Total charges.
 Charge compensation  : None.
 Solution method      : On-the-fly selection.
 Cavity type          : Scaled VdW (van der Waals Surface) (Alpha=1.100).
 Cavity algorithm     : GePol (No added spheres)
                        Default sphere list used, NSphG=   19.
                        Lebedev-Laikov grids with approx.  5.0 points / Ang**2.
                        Smoothing algorithm: York/Karplus (Gamma=1.0000).
                        Polarization charges: spherical gaussians, with
                                              point-specific exponents (IZeta= 3).
                        Self-potential: point-specific (ISelfS= 7).
                        Self-field    : sphere-specific E.n sum rule (ISelfD= 2).
 1st derivatives      : Analytical E(r).r(x)/FMM algorithm (CHGder, D1EAlg=3).
                        Cavity 1st derivative terms included.
 Solvent              : DiMethylSulfoxide, Eps=  46.826000 Eps(inf)=   2.007889
 ------------------------------------------------------------------------------
 Spheres list:
 ISph  on   Nord     Re0    Alpha      Xe            Ye            Ze
    1   B      1    2.0415  1.100     -0.946858     -0.694181     -0.045969
    2   F      2    1.6820  1.100     -1.579937     -0.241387     -1.193142
    3   F      3    1.6820  1.100     -1.673576     -0.424282      1.108228
    4   F      4    1.6820  1.100     -0.582243     -2.027993     -0.151188
    5   O      5    1.7500  1.100      0.406484      0.131223      0.065193
    6   C      6    1.9255  1.100      1.632293     -0.542111      0.520512
    7   C      7    1.9255  1.100      2.736883     -0.329898     -0.487399
    8   C      8    1.9255  1.100      0.323975      1.520708      0.538203
    9   C      9    1.9255  1.100     -0.574398      2.365613     -0.331958
   10   H     10    1.4430  1.100      1.870996     -0.132410      1.508036
   11   H     11    1.4430  1.100      1.375209     -1.595613      0.625313
   12   H     12    1.4430  1.100      3.639456     -0.838307     -0.125393
   13   H     13    1.4430  1.100      2.459798     -0.757349     -1.458096
   14   H     14    1.4430  1.100      2.975112      0.733005     -0.617403
   15   H     15    1.4430  1.100     -0.015564      1.483102      1.579531
   16   H     16    1.4430  1.100      1.351211      1.893216      0.503254
   17   H     17    1.4430  1.100     -0.481068      3.401728      0.017281
   18   H     18    1.4430  1.100     -0.258756      2.321165     -1.380364
   19   H     19    1.4430  1.100     -1.624690      2.069677     -0.255085
 ------------------------------------------------------------------------------
 One-electron integrals computed using PRISM.
 NBasis=   297 RedAO= T EigKep=  2.73D-05  NBF=   297
 NBsUse=   297 1.00D-06 EigRej= -1.00D+00 NBFU=   297
 Initial guess from the checkpoint file:  "/inspire/hdd/project/materialscienceresearch/lipenghui-253107030018/g16/00-B-DFT-Shift/04-output/BF3OEt2_DMSO-d6/BF3OEt2_DMSO-d6.chk"
 B after Tr=    -0.000000   -0.000000    0.000000
         Rot=    0.999989    0.001492    0.000305   -0.004419 Ang=   0.54 deg.
 ExpMin= 2.38D-02 ExpMax= 1.47D+04 ExpMxC= 5.03D+02 IAcc=3 IRadAn=         5 AccDes= 0.00D+00
 Harris functional with IExCor= 4639 and IRadAn=       5 diagonalized for initial guess.
 HarFok:  IExCor= 4639 AccDes= 0.00D+00 IRadAn=         5 IDoV= 1 UseB2=F ITyADJ=14
 ICtDFT=  3500011 ScaDFX=  1.000000  1.000000  1.000000  1.000000
 FoFCou: FMM=F IPFlag=           0 FMFlag=      100000 FMFlg1=           0
         NFxFlg=           0 DoJE=T BraDBF=F KetDBF=T FulRan=T
         wScrn=  0.000000 ICntrl=       500 IOpCl=  0 I1Cent=   200000004 NGrid=           0
         NMat0=    1 NMatS0=      1 NMatT0=    0 NMatD0=    1 NMtDS0=    0 NMtDT0=    0
 Petite list used in FoFCou.
 Requested convergence on RMS density matrix=1.00D-08 within 128 cycles.
 Requested convergence on MAX density matrix=1.00D-06.
 Requested convergence on             energy=1.00D-06.
 No special actions if energy rises.
 Inv3:  Mode=1 IEnd=     7050267.
 Iteration    1 A*A^-1 deviation from unit magnitude is 4.44D-15 for   1502.
 Iteration    1 A*A^-1 deviation from orthogonality  is 2.14D-15 for   1527    783.
 Iteration    1 A^-1*A deviation from unit magnitude is 4.66D-15 for   1502.
 Iteration    1 A^-1*A deviation from orthogonality  is 2.58D-15 for   1522    793.
 Error on total polarization charges =  0.01120
 SCF Done:  E(RwB97XD) =  -558.152177915     A.U. after    9 cycles
            NFock=  9  Conv=0.68D-08     -V/T= 2.0060
 D1PCM: C-PCM CHGder 1st derivatives, ID1Alg=3 FixD1E=F DoIter=F DoCFld=F I1PDM=0.
 Calling FoFJK, ICntrl=      2127 FMM=F ISym2X=0 I1Cent= 0 IOpClX= 0 NMat=1 NMatS=1 NMatT=0.
 ***** Axes restored to original set *****
 -------------------------------------------------------------------
 Center     Atomic                   Forces (Hartrees/Bohr)
 Number     Number              X              Y              Z
 -------------------------------------------------------------------
      1        5           0.000011720    0.000012210    0.000037354
      2        9          -0.000009283   -0.000001170   -0.000036425
      3        9          -0.000012655    0.000005366   -0.000006317
      4        9          -0.000026038   -0.000010558    0.000013016
      5        8          -0.000082518   -0.000039623   -0.000205755
      6        6          -0.000019272   -0.000087183    0.000055164
      7        6          -0.000023268   -0.000007376    0.000009223
      8        6           0.000131610    0.000155725    0.000152605
      9        6          -0.000006964   -0.000011345    0.000018648
     10        1           0.000003305   -0.000003739   -0.000000540
     11        1          -0.000016757    0.000005149    0.000012391
     12        1           0.000008045   -0.000006776   -0.000011819
     13        1           0.000000996    0.000005309   -0.000015794
     14        1           0.000006448    0.000040675    0.000003829
     15        1           0.000000732   -0.000023119    0.000001346
     16        1           0.000027473   -0.000023816   -0.000032004
     17        1           0.000016099   -0.000001278    0.000006994
     18        1           0.000006758   -0.000001104   -0.000008590
     19        1          -0.000016432   -0.000007349    0.000006673
 -------------------------------------------------------------------
 Cartesian Forces:  Max     0.000205755 RMS     0.000049291

 GradGradGradGradGradGradGradGradGradGradGradGradGradGradGradGradGradGrad
 Berny optimization.
 Using GEDIIS/GDIIS optimizer.
 FormGI is forming the generalized inverse of G from B-inverse, IUseBI=4.
 Internal  Forces:  Max     0.000229559 RMS     0.000033689
 Search for a local minimum.
 Step number  18 out of a maximum of   97
 All quantities printed in internal units (Hartrees-Bohrs-Radians)
 Mixed Optimization -- En-DIIS/RFO-DIIS
 Swapping is turned off.
 Update second derivatives using D2CorX and points   10   11   12   13   14
                                                     15   16   17   18
 DE= -1.38D-06 DEPred=-1.30D-06 R= 1.07D+00
 TightC=F SS=  1.41D+00  RLast= 3.55D-02 DXNew= 2.1766D+00 1.0645D-01
 Trust test= 1.07D+00 RLast= 3.55D-02 DXMaxT set to 1.29D+00
 ITU=  1  1  1  1  1  0  1  1  0  1  1  1  1  1  1  1  1  0
     Eigenvalues ---    0.00098   0.00242   0.00307   0.00418   0.01473
     Eigenvalues ---    0.01821   0.04546   0.05019   0.05079   0.05245
     Eigenvalues ---    0.05328   0.05433   0.05795   0.05901   0.08180
     Eigenvalues ---    0.09669   0.10513   0.12577   0.12836   0.12979
     Eigenvalues ---    0.13348   0.15923   0.16000   0.16014   0.16092
     Eigenvalues ---    0.16518   0.16648   0.21247   0.22531   0.24212
     Eigenvalues ---    0.25340   0.25853   0.28361   0.28397   0.28899
     Eigenvalues ---    0.29214   0.30531   0.31844   0.31971   0.32061
     Eigenvalues ---    0.32107   0.32153   0.32177   0.32224   0.32415
     Eigenvalues ---    0.32751   0.33684   0.37387   0.38959   0.43359
     Eigenvalues ---    0.62909
 En-DIIS/RFO-DIIS/Sim-DIIS IScMMF=       -3 using points:    18   17   16   15   14   13   12   11
 RFO step:  Lambda=-1.51996722D-06.
 DIIS inversion failure, remove point   8.
 DIIS inversion failure, remove point   7.
 DIIS inversion failure, remove point   6.
 RFO-DIIS uses    5 points instead of    8
 DidBck=F Rises=F RFO-DIIS coefs:    1.89275   -0.67953   -0.70542    0.49781   -0.00561
                  RFO-DIIS coefs:    0.00000    0.00000    0.00000
 Iteration  1 RMS(Cart)=  0.00675617 RMS(Int)=  0.00001622
 Iteration  2 RMS(Cart)=  0.00002050 RMS(Int)=  0.00000097
 Iteration  3 RMS(Cart)=  0.00000000 RMS(Int)=  0.00000097
 Variable       Old X    -DE/DX   Delta X   Delta X   Delta X     New X
                                 (Linear)    (Quad)   (Total)
    R1        2.61972   0.00003   0.00013  -0.00006   0.00007   2.61979
    R2        2.62742  -0.00000   0.00005  -0.00006  -0.00001   2.62741
    R3        2.62057   0.00002   0.00004  -0.00002   0.00002   2.62059
    R4        3.00293   0.00003  -0.00108   0.00072  -0.00036   3.00258
    R5        2.77944   0.00006  -0.00059   0.00029  -0.00030   2.77914
    R6        2.77810   0.00023  -0.00085   0.00060  -0.00025   2.77785
    R7        2.85407  -0.00001   0.00004   0.00001   0.00005   2.85412
    R8        2.07012   0.00000  -0.00001  -0.00001  -0.00002   2.07010
    R9        2.05880   0.00001  -0.00003   0.00001  -0.00002   2.05878
   R10        2.07368   0.00001  -0.00019   0.00010  -0.00009   2.07360
   R11        2.07159   0.00001   0.00003  -0.00000   0.00002   2.07162
   R12        2.07304   0.00002   0.00003   0.00001   0.00004   2.07307
   R13        2.85225  -0.00003   0.00013  -0.00017  -0.00004   2.85221
   R14        2.07101  -0.00000   0.00007  -0.00003   0.00004   2.07105
   R15        2.06594   0.00004   0.00010   0.00001   0.00010   2.06605
   R16        2.07372   0.00002  -0.00016   0.00010  -0.00006   2.07366
   R17        2.07075   0.00001  -0.00009   0.00005  -0.00005   2.07070
   R18        2.06716   0.00001  -0.00000   0.00005   0.00005   2.06721
    A1        1.96584  -0.00000  -0.00029   0.00030   0.00001   1.96585
    A2        1.95135  -0.00002   0.00010  -0.00005   0.00005   1.95140
    A3        1.85163   0.00000   0.00004  -0.00016  -0.00012   1.85151
    A4        1.96831  -0.00003   0.00002  -0.00007  -0.00004   1.96826
    A5        1.86109   0.00004   0.00015  -0.00008   0.00007   1.86116
    A6        1.85561   0.00001  -0.00001   0.00003   0.00003   1.85564
    A7        2.08708   0.00000   0.00158  -0.00024   0.00134   2.08841
    A8        2.05516   0.00005   0.00095  -0.00003   0.00092   2.05608
    A9        1.96044  -0.00005   0.00061  -0.00028   0.00033   1.96077
   A10        1.91624  -0.00010  -0.00005  -0.00013  -0.00018   1.91606
   A11        1.86445   0.00003  -0.00020   0.00003  -0.00017   1.86428
   A12        1.85022   0.00003   0.00024   0.00000   0.00024   1.85045
   A13        1.97108   0.00002  -0.00040   0.00019  -0.00021   1.97087
   A14        1.95266   0.00004   0.00097  -0.00035   0.00062   1.95328
   A15        1.90324  -0.00002  -0.00056   0.00026  -0.00030   1.90294
   A16        1.89262   0.00003   0.00021   0.00007   0.00028   1.89290
   A17        1.92973   0.00001   0.00024  -0.00016   0.00008   1.92982
   A18        1.95417  -0.00005  -0.00101   0.00040  -0.00061   1.95356
   A19        1.89584  -0.00001   0.00017  -0.00008   0.00009   1.89593
   A20        1.88534   0.00001   0.00082  -0.00044   0.00038   1.88573
   A21        1.90472   0.00001  -0.00038   0.00018  -0.00020   1.90453
   A22        1.95735   0.00004   0.00036  -0.00005   0.00031   1.95766
   A23        1.86573  -0.00002   0.00011  -0.00010   0.00001   1.86574
   A24        1.83281  -0.00002  -0.00006  -0.00000  -0.00007   1.83274
   A25        1.96340  -0.00000  -0.00013  -0.00006  -0.00018   1.96322
   A26        1.92847  -0.00000   0.00001  -0.00007  -0.00006   1.92842
   A27        1.91047   0.00001  -0.00030   0.00029  -0.00000   1.91046
   A28        1.86967  -0.00000  -0.00045   0.00014  -0.00031   1.86935
   A29        1.93631   0.00000   0.00004   0.00010   0.00013   1.93644
   A30        1.96008  -0.00002  -0.00011  -0.00010  -0.00021   1.95987
   A31        1.89472  -0.00000   0.00034  -0.00019   0.00015   1.89487
   A32        1.89097   0.00001   0.00043  -0.00016   0.00027   1.89124
   A33        1.91010   0.00001  -0.00023   0.00020  -0.00003   1.91007
    D1       -2.46110   0.00002   0.00760   0.00034   0.00795  -2.45315
    D2        1.33682   0.00005   0.00235   0.00132   0.00367   1.34048
    D3        1.72282  -0.00000   0.00784   0.00012   0.00796   1.73079
    D4       -0.76244   0.00003   0.00259   0.00109   0.00368  -0.75876
    D5       -0.38136   0.00000   0.00774   0.00022   0.00796  -0.37339
    D6       -2.86662   0.00003   0.00249   0.00119   0.00368  -2.86294
    D7        2.20068   0.00001  -0.00773  -0.00003  -0.00776   2.19291
    D8       -1.93950  -0.00001  -0.00838   0.00015  -0.00823  -1.94773
    D9        0.08854  -0.00000  -0.00900   0.00046  -0.00854   0.08000
   D10       -1.56429   0.00001  -0.00264  -0.00087  -0.00351  -1.56780
   D11        0.57872  -0.00001  -0.00329  -0.00069  -0.00398   0.57474
   D12        2.60676   0.00000  -0.00391  -0.00038  -0.00429   2.60246
   D13       -1.01565   0.00001   0.01123  -0.00052   0.01071  -1.00495
   D14        1.14394   0.00002   0.01138  -0.00069   0.01068   1.15463
   D15       -3.11063   0.00001   0.01106  -0.00041   0.01065  -3.09998
   D16        2.73693   0.00002   0.00599   0.00038   0.00638   2.74331
   D17       -1.38666   0.00003   0.00614   0.00021   0.00635  -1.38031
   D18        0.64195   0.00002   0.00583   0.00049   0.00632   0.64827
   D19        3.13934  -0.00001  -0.00073  -0.00001  -0.00074   3.13860
   D20       -1.06709   0.00000  -0.00025  -0.00016  -0.00041  -1.06750
   D21        1.06088  -0.00002  -0.00127   0.00024  -0.00103   1.05986
   D22        1.06068   0.00001  -0.00018  -0.00008  -0.00026   1.06042
   D23        3.13744   0.00002   0.00030  -0.00023   0.00007   3.13751
   D24       -1.01777  -0.00000  -0.00072   0.00017  -0.00055  -1.01832
   D25       -1.09462  -0.00001   0.00012  -0.00030  -0.00018  -1.09480
   D26        0.98213  -0.00000   0.00061  -0.00045   0.00015   0.98228
   D27        3.11011  -0.00002  -0.00042  -0.00005  -0.00047   3.10964
   D28       -3.02384   0.00000  -0.00274  -0.00016  -0.00291  -3.02674
   D29       -0.95862   0.00000  -0.00258  -0.00026  -0.00283  -0.96145
   D30        1.18522   0.00000  -0.00292   0.00000  -0.00292   1.18230
   D31        1.15543   0.00000  -0.00306   0.00005  -0.00301   1.15242
   D32       -3.06254   0.00000  -0.00289  -0.00005  -0.00294  -3.06548
   D33       -0.91870   0.00000  -0.00324   0.00021  -0.00303  -0.92173
   D34       -0.98551  -0.00000  -0.00259  -0.00024  -0.00283  -0.98834
   D35        1.07971  -0.00001  -0.00242  -0.00034  -0.00276   1.07695
   D36       -3.05964  -0.00001  -0.00277  -0.00008  -0.00285  -3.06249
         Item               Value     Threshold  Converged?
 Maximum Force            0.000230     0.000450     YES
 RMS     Force            0.000034     0.000300     YES
 Maximum Displacement     0.021564     0.001800     NO 
 RMS     Displacement     0.006758     0.001200     NO 
 Predicted change in Energy=-7.568585D-07
 GradGradGradGradGradGradGradGradGradGradGradGradGradGradGradGradGradGrad

                          Input orientation:                          
 ---------------------------------------------------------------------
 Center     Atomic      Atomic             Coordinates (Angstroms)
 Number     Number       Type             X           Y           Z
 ---------------------------------------------------------------------
      1          5           0       -1.763563    0.663434   -0.221779
      2          9           0       -1.549335    1.601868   -1.219462
      3          9           0       -2.122756    1.243090    0.989873
      4          9           0       -2.647019   -0.325990   -0.626304
      5          8           0       -0.366150   -0.054997    0.014179
      6          6           0       -0.325156   -1.504886    0.257040
      7          6           0        0.609503   -2.162370   -0.730507
      8          6           0        0.656174    0.669490    0.782811
      9          6           0        0.994941    2.003661    0.163716
     10          1           0       -0.012315   -1.643166    1.297725
     11          1           0       -1.349678   -1.857783    0.144198
     12          1           0        0.625995   -3.240734   -0.528206
     13          1           0        0.258776   -2.003967   -1.756991
     14          1           0        1.634993   -1.783691   -0.638680
     15          1           0        0.275988    0.766719    1.806101
     16          1           0        1.530563    0.013173    0.779909
     17          1           0        1.840763    2.416003    0.728256
     18          1           0        1.298600    1.884380   -0.882357
     19          1           0        0.163214    2.711747    0.222892
 ---------------------------------------------------------------------
                    Distance matrix (angstroms):
                    1          2          3          4          5
     1  B    0.000000
     2  F    1.386334   0.000000
     3  F    1.390366   2.310561   0.000000
     4  F    1.386757   2.296385   2.312767   0.000000
     5  O    1.588894   2.380546   2.392211   2.384537   0.000000
     6  C    2.645732   3.651109   3.364489   2.749753   1.470660
     7  C    3.724972   4.366823   4.692771   3.740064   2.438744
     8  C    2.619993   3.121329   2.845056   3.726616   1.469973
     9  C    3.090981   2.923689   3.313765   4.394915   2.472449
    10  H    3.270499   4.385077   3.588761   3.518309   2.072430
    11  H    2.581042   3.724059   3.305787   2.150152   2.057734
    12  H    4.587637   5.353568   5.474018   4.383831   3.380451
    13  H    3.682630   4.069429   4.874457   3.540862   2.706669
    14  H    4.208613   4.683937   5.092570   4.523348   2.723818
    15  H    2.877974   3.630882   2.578203   3.956586   2.073293
    16  H    3.503925   4.000901   3.860508   4.420934   2.046585
    17  H    4.118887   3.993643   4.141697   5.430796   3.389132
    18  H    3.362129   2.881698   3.952489   4.529813   2.708570
    19  H    2.847067   2.499008   2.823273   4.224499   2.824652
                    6          7          8          9         10
     6  C    0.000000
     7  C    1.510338   0.000000
     8  C    2.442817   3.211189   0.000000
     9  C    3.749836   4.278318   1.509323   0.000000
    10  H    1.095452   2.184022   2.461786   3.949669   0.000000
    11  H    1.089457   2.167088   3.289130   4.517562   1.779108
    12  H    2.129428   1.097300   4.124260   5.302693   2.508722
    13  H    2.155546   1.096253   3.708893   4.504679   3.087872
    14  H    2.173070   1.097024   2.999470   3.923970   2.546181
    15  H    2.814455   3.889109   1.095955   2.178152   2.479740
    16  H    2.453893   2.804049   1.093306   2.151424   2.322082
    17  H    4.504067   4.960392   2.111051   1.097336   4.498338
    18  H    3.927077   4.107809   2.159040   1.095767   4.349119
    19  H    4.244958   4.986497   2.174243   1.093918   4.489025
                   11         12         13         14         15
    11  H    0.000000
    12  H    2.503590   0.000000
    13  H    2.494597   1.781672   0.000000
    14  H    3.086528   1.775741   1.786929   0.000000
    15  H    3.506098   4.650932   4.513604   3.785293   0.000000
    16  H    3.492907   3.621784   3.481689   2.291729   1.787417
    17  H    5.365192   5.920560   5.311805   4.421344   2.516030
    18  H    4.697975   5.181179   4.118915   3.691515   3.085888
    19  H    4.814108   6.017503   5.115372   4.808056   2.510458
                   16         17         18         19
    16  H    0.000000
    17  H    2.423321   0.000000
    18  H    2.513633   1.780629   0.000000
    19  H    3.076071   1.776803   1.787516   0.000000
 Stoichiometry    C4H10BF3O
 Framework group  C1[X(C4H10BF3O)]
 Deg. of freedom    51
 Full point group                 C1      NOp   1
 Largest Abelian subgroup         C1      NOp   1
 Largest concise Abelian subgroup C1      NOp   1
                         Standard orientation:                         
 ---------------------------------------------------------------------
 Center     Atomic      Atomic             Coordinates (Angstroms)
 Number     Number       Type             X           Y           Z
 ---------------------------------------------------------------------
      1          5           0       -0.940146   -0.700663   -0.045505
      2          9           0       -1.570424   -0.259756   -1.198880
      3          9           0       -1.674810   -0.428615    1.103137
      4          9           0       -0.565445   -2.032478   -0.140174
      5          8           0        0.406474    0.135098    0.067203
      6          6           0        1.637878   -0.527056    0.523313
      7          6           0        2.738022   -0.313963   -0.489304
      8          6           0        0.313421    1.525510    0.535088
      9          6           0       -0.599507    2.358128   -0.331725
     10          1           0        1.876767   -0.108896    1.507228
     11          1           0        1.388119   -1.581434    0.636551
     12          1           0        3.645393   -0.813201   -0.126664
     13          1           0        2.461172   -0.749874   -1.456313
     14          1           0        2.967535    0.749884   -0.627195
     15          1           0       -0.018284    1.488835    1.578996
     16          1           0        1.336672    1.908070    0.491248
     17          1           0       -0.515934    3.395874    0.015042
     18          1           0       -0.289450    2.315087   -1.381828
     19          1           0       -1.645832    2.050106   -0.248150
 ---------------------------------------------------------------------
 Rotational constants (GHZ):           1.7490481           1.4177916           1.0070873
 Standard basis: Aug-CC-pVDZ (5D, 7F)
 There are   315 symmetry adapted cartesian basis functions of A   symmetry.
 There are   297 symmetry adapted basis functions of A   symmetry.
   297 basis functions,   497 primitive gaussians,   315 cartesian basis functions
    37 alpha electrons       37 beta electrons
       nuclear repulsion energy       523.8513610043 Hartrees.
 NAtoms=   19 NActive=   19 NUniq=   19 SFac= 1.00D+00 NAtFMM=   60 NAOKFM=F Big=F
 Integral buffers will be    131072 words long.
 Raffenetti 2 integral format.
 Two-electron integral symmetry is turned on.
 Nuclear repulsion after empirical dispersion term =      523.8392788584 Hartrees.
 Force PCM accuracy= 1.00D-12.
 ------------------------------------------------------------------------------
 Polarizable Continuum Model (PCM)
 =================================
 Model                : C-PCM.
 Atomic radii         : UFF (Universal Force Field).
 Polarization charges : Total charges.
 Charge compensation  : None.
 Solution method      : On-the-fly selection.
 Cavity type          : Scaled VdW (van der Waals Surface) (Alpha=1.100).
 Cavity algorithm     : GePol (No added spheres)
                        Default sphere list used, NSphG=   19.
                        Lebedev-Laikov grids with approx.  5.0 points / Ang**2.
                        Smoothing algorithm: York/Karplus (Gamma=1.0000).
                        Polarization charges: spherical gaussians, with
                                              point-specific exponents (IZeta= 3).
                        Self-potential: point-specific (ISelfS= 7).
                        Self-field    : sphere-specific E.n sum rule (ISelfD= 2).
 1st derivatives      : Analytical E(r).r(x)/FMM algorithm (CHGder, D1EAlg=3).
                        Cavity 1st derivative terms included.
 Solvent              : DiMethylSulfoxide, Eps=  46.826000 Eps(inf)=   2.007889
 ------------------------------------------------------------------------------
 Spheres list:
 ISph  on   Nord     Re0    Alpha      Xe            Ye            Ze
    1   B      1    2.0415  1.100     -0.940146     -0.700663     -0.045505
    2   F      2    1.6820  1.100     -1.570424     -0.259756     -1.198880
    3   F      3    1.6820  1.100     -1.674810     -0.428615      1.103137
    4   F      4    1.6820  1.100     -0.565445     -2.032478     -0.140174
    5   O      5    1.7500  1.100      0.406474      0.135098      0.067203
    6   C      6    1.9255  1.100      1.637878     -0.527056      0.523313
    7   C      7    1.9255  1.100      2.738022     -0.313963     -0.489304
    8   C      8    1.9255  1.100      0.313421      1.525510      0.535088
    9   C      9    1.9255  1.100     -0.599507      2.358128     -0.331725
   10   H     10    1.4430  1.100      1.876767     -0.108896      1.507228
   11   H     11    1.4430  1.100      1.388119     -1.581434      0.636551
   12   H     12    1.4430  1.100      3.645393     -0.813201     -0.126664
   13   H     13    1.4430  1.100      2.461172     -0.749874     -1.456313
   14   H     14    1.4430  1.100      2.967535      0.749884     -0.627195
   15   H     15    1.4430  1.100     -0.018284      1.488835      1.578996
   16   H     16    1.4430  1.100      1.336672      1.908070      0.491248
   17   H     17    1.4430  1.100     -0.515934      3.395874      0.015042
   18   H     18    1.4430  1.100     -0.289450      2.315087     -1.381828
   19   H     19    1.4430  1.100     -1.645832      2.050106     -0.248150
 ------------------------------------------------------------------------------
 One-electron integrals computed using PRISM.
 NBasis=   297 RedAO= T EigKep=  2.73D-05  NBF=   297
 NBsUse=   297 1.00D-06 EigRej= -1.00D+00 NBFU=   297
 Initial guess from the checkpoint file:  "/inspire/hdd/project/materialscienceresearch/lipenghui-253107030018/g16/00-B-DFT-Shift/04-output/BF3OEt2_DMSO-d6/BF3OEt2_DMSO-d6.chk"
 B after Tr=     0.000000    0.000000   -0.000000
         Rot=    0.999991    0.001505    0.000271   -0.003972 Ang=   0.49 deg.
 ExpMin= 2.38D-02 ExpMax= 1.47D+04 ExpMxC= 5.03D+02 IAcc=3 IRadAn=         5 AccDes= 0.00D+00
 Harris functional with IExCor= 4639 and IRadAn=       5 diagonalized for initial guess.
 HarFok:  IExCor= 4639 AccDes= 0.00D+00 IRadAn=         5 IDoV= 1 UseB2=F ITyADJ=14
 ICtDFT=  3500011 ScaDFX=  1.000000  1.000000  1.000000  1.000000
 FoFCou: FMM=F IPFlag=           0 FMFlag=      100000 FMFlg1=           0
         NFxFlg=           0 DoJE=T BraDBF=F KetDBF=T FulRan=T
         wScrn=  0.000000 ICntrl=       500 IOpCl=  0 I1Cent=   200000004 NGrid=           0
         NMat0=    1 NMatS0=      1 NMatT0=    0 NMatD0=    1 NMtDS0=    0 NMtDT0=    0
 Petite list used in FoFCou.
 Requested convergence on RMS density matrix=1.00D-08 within 128 cycles.
 Requested convergence on MAX density matrix=1.00D-06.
 Requested convergence on             energy=1.00D-06.
 No special actions if energy rises.
 Inv3:  Mode=1 IEnd=     7050267.
 Iteration    1 A*A^-1 deviation from unit magnitude is 4.22D-15 for   1521.
 Iteration    1 A*A^-1 deviation from orthogonality  is 1.99D-15 for   1414    317.
 Iteration    1 A^-1*A deviation from unit magnitude is 4.00D-15 for   1521.
 Iteration    1 A^-1*A deviation from orthogonality  is 1.48D-15 for   1532    720.
 Error on total polarization charges =  0.01120
 SCF Done:  E(RwB97XD) =  -558.152179736     A.U. after    9 cycles
            NFock=  9  Conv=0.70D-08     -V/T= 2.0060
 D1PCM: C-PCM CHGder 1st derivatives, ID1Alg=3 FixD1E=F DoIter=F DoCFld=F I1PDM=0.
 Calling FoFJK, ICntrl=      2127 FMM=F ISym2X=0 I1Cent= 0 IOpClX= 0 NMat=1 NMatS=1 NMatT=0.
 ***** Axes restored to original set *****
 -------------------------------------------------------------------
 Center     Atomic                   Forces (Hartrees/Bohr)
 Number     Number              X              Y              Z
 -------------------------------------------------------------------
      1        5           0.000005018    0.000011819    0.000034146
      2        9          -0.000031355   -0.000012069   -0.000041178
      3        9          -0.000010763   -0.000001653   -0.000002194
      4        9          -0.000035565   -0.000000895    0.000009104
      5        8          -0.000085838    0.000005207   -0.000216112
      6        6           0.000003070   -0.000102731    0.000077289
      7        6          -0.000035079    0.000052258    0.000004575
      8        6           0.000148682    0.000120488    0.000177597
      9        6          -0.000019220   -0.000040440    0.000000756
     10        1           0.000012451    0.000002327    0.000004810
     11        1          -0.000005900   -0.000009181   -0.000018256
     12        1           0.000023072   -0.000028093   -0.000004635
     13        1          -0.000011236   -0.000001919   -0.000009823
     14        1           0.000012993    0.000000124    0.000003637
     15        1          -0.000011210   -0.000002974   -0.000007267
     16        1           0.000014469   -0.000023050   -0.000027141
     17        1           0.000019656    0.000024086    0.000001797
     18        1           0.000015998    0.000001480   -0.000010280
     19        1          -0.000009242    0.000005219    0.000023176
 -------------------------------------------------------------------
 Cartesian Forces:  Max     0.000216112 RMS     0.000052390

 GradGradGradGradGradGradGradGradGradGradGradGradGradGradGradGradGradGrad
 Berny optimization.
 Using GEDIIS/GDIIS optimizer.
 FormGI is forming the generalized inverse of G from B-inverse, IUseBI=4.
 Internal  Forces:  Max     0.000240080 RMS     0.000035786
 Search for a local minimum.
 Step number  19 out of a maximum of   97
 All quantities printed in internal units (Hartrees-Bohrs-Radians)
 Mixed Optimization -- En-DIIS/RFO-DIIS
 Swapping is turned off.
 Update second derivatives using D2CorX and points   10   11   12   13   14
                                                     15   16   17   18   19
 DE= -1.82D-06 DEPred=-7.57D-07 R= 2.41D+00
 TightC=F SS=  1.41D+00  RLast= 3.20D-02 DXNew= 2.1766D+00 9.6014D-02
 Trust test= 2.41D+00 RLast= 3.20D-02 DXMaxT set to 1.29D+00
 ITU=  1  1  1  1  1  1  0  1  1  0  1  1  1  1  1  1  1  1  0
     Eigenvalues ---    0.00064   0.00240   0.00302   0.00377   0.01479
     Eigenvalues ---    0.01728   0.04540   0.04978   0.05044   0.05301
     Eigenvalues ---    0.05340   0.05468   0.05789   0.05906   0.07912
     Eigenvalues ---    0.09698   0.10500   0.12672   0.12840   0.12998
     Eigenvalues ---    0.13310   0.15881   0.15998   0.16016   0.16089
     Eigenvalues ---    0.16576   0.16843   0.21190   0.22574   0.23676
     Eigenvalues ---    0.25384   0.25628   0.28374   0.28403   0.28885
     Eigenvalues ---    0.29211   0.30562   0.31854   0.32003   0.32054
     Eigenvalues ---    0.32103   0.32150   0.32172   0.32226   0.32354
     Eigenvalues ---    0.32741   0.33667   0.37278   0.39011   0.44193
     Eigenvalues ---    0.63468
 En-DIIS/RFO-DIIS/Sim-DIIS IScMMF=       -3 using points:    19   18   17   16   15   14   13   12   11
 RFO step:  Lambda=-1.14419521D-06.
 DIIS inversion failure, remove point   9.
 DIIS inversion failure, remove point   8.
 DIIS inversion failure, remove point   7.
 DIIS inversion failure, remove point   6.
 DIIS inversion failure, remove point   5.
 RFO-DIIS uses    4 points instead of    9
 DidBck=F Rises=F RFO-DIIS coefs:    2.24171   -1.49505    0.33781   -0.08446    0.00000
                  RFO-DIIS coefs:    0.00000    0.00000    0.00000    0.00000
 Iteration  1 RMS(Cart)=  0.00724297 RMS(Int)=  0.00002005
 Iteration  2 RMS(Cart)=  0.00002420 RMS(Int)=  0.00000093
 Iteration  3 RMS(Cart)=  0.00000000 RMS(Int)=  0.00000093
 Variable       Old X    -DE/DX   Delta X   Delta X   Delta X     New X
                                 (Linear)    (Quad)   (Total)
    R1        2.61979   0.00002   0.00007   0.00002   0.00009   2.61988
    R2        2.62741  -0.00000  -0.00002  -0.00002  -0.00004   2.62737
    R3        2.62059   0.00002   0.00001   0.00006   0.00007   2.62066
    R4        3.00258   0.00006  -0.00024   0.00010  -0.00013   3.00244
    R5        2.77914   0.00010  -0.00028   0.00022  -0.00006   2.77908
    R6        2.77785   0.00024  -0.00019   0.00032   0.00012   2.77797
    R7        2.85412  -0.00002   0.00008  -0.00008   0.00000   2.85413
    R8        2.07010   0.00001  -0.00002  -0.00001  -0.00003   2.07008
    R9        2.05878   0.00001  -0.00002  -0.00001  -0.00003   2.05875
   R10        2.07360   0.00003  -0.00009   0.00007  -0.00001   2.07358
   R11        2.07162   0.00001   0.00003   0.00001   0.00004   2.07165
   R12        2.07307   0.00001   0.00004  -0.00001   0.00003   2.07311
   R13        2.85221  -0.00002  -0.00007   0.00001  -0.00006   2.85215
   R14        2.07105  -0.00000   0.00005  -0.00003   0.00002   2.07107
   R15        2.06605   0.00003   0.00011  -0.00000   0.00011   2.06616
   R16        2.07366   0.00003  -0.00005   0.00004  -0.00001   2.07365
   R17        2.07070   0.00001  -0.00004   0.00001  -0.00004   2.07066
   R18        2.06721   0.00001   0.00005   0.00004   0.00009   2.06730
    A1        1.96585  -0.00000   0.00005   0.00001   0.00007   1.96592
    A2        1.95140  -0.00004   0.00005  -0.00012  -0.00007   1.95133
    A3        1.85151   0.00004  -0.00016   0.00007  -0.00009   1.85141
    A4        1.96826  -0.00003  -0.00004  -0.00009  -0.00013   1.96813
    A5        1.86116   0.00002   0.00006  -0.00001   0.00005   1.86121
    A6        1.85564   0.00003   0.00003   0.00017   0.00020   1.85584
    A7        2.08841   0.00000   0.00132  -0.00004   0.00128   2.08969
    A8        2.05608   0.00007   0.00089  -0.00009   0.00080   2.05688
    A9        1.96077  -0.00008   0.00031  -0.00033  -0.00003   1.96074
   A10        1.91606  -0.00006  -0.00020  -0.00004  -0.00024   1.91583
   A11        1.86428   0.00002  -0.00016  -0.00002  -0.00018   1.86411
   A12        1.85045   0.00003   0.00025   0.00007   0.00033   1.85078
   A13        1.97087   0.00002  -0.00020   0.00007  -0.00013   1.97074
   A14        1.95328  -0.00000   0.00060  -0.00023   0.00037   1.95365
   A15        1.90294   0.00000  -0.00030   0.00015  -0.00015   1.90279
   A16        1.89290   0.00003   0.00030   0.00003   0.00033   1.89324
   A17        1.92982  -0.00001   0.00007  -0.00004   0.00003   1.92985
   A18        1.95356  -0.00000  -0.00058   0.00009  -0.00049   1.95308
   A19        1.89593  -0.00001   0.00007  -0.00004   0.00003   1.89597
   A20        1.88573  -0.00002   0.00037  -0.00016   0.00021   1.88593
   A21        1.90453   0.00001  -0.00020   0.00011  -0.00010   1.90443
   A22        1.95766   0.00005   0.00029  -0.00014   0.00015   1.95781
   A23        1.86574  -0.00002   0.00003  -0.00018  -0.00014   1.86560
   A24        1.83274  -0.00003  -0.00005  -0.00021  -0.00026   1.83248
   A25        1.96322  -0.00001  -0.00021   0.00004  -0.00017   1.96305
   A26        1.92842  -0.00000  -0.00006   0.00025   0.00019   1.92861
   A27        1.91046   0.00001   0.00001   0.00021   0.00022   1.91069
   A28        1.86935   0.00002  -0.00030   0.00011  -0.00019   1.86916
   A29        1.93644   0.00001   0.00016   0.00007   0.00023   1.93667
   A30        1.95987  -0.00002  -0.00027  -0.00007  -0.00034   1.95954
   A31        1.89487  -0.00001   0.00015  -0.00009   0.00006   1.89494
   A32        1.89124  -0.00001   0.00029  -0.00016   0.00013   1.89137
   A33        1.91007   0.00001  -0.00001   0.00012   0.00011   1.91018
    D1       -2.45315   0.00002   0.00823   0.00066   0.00890  -2.44426
    D2        1.34048   0.00006   0.00405   0.00151   0.00556   1.34604
    D3        1.73079  -0.00001   0.00822   0.00061   0.00884   1.73962
    D4       -0.75876   0.00003   0.00404   0.00147   0.00550  -0.75326
    D5       -0.37339   0.00000   0.00823   0.00064   0.00886  -0.36453
    D6       -2.86294   0.00004   0.00404   0.00149   0.00553  -2.85741
    D7        2.19291  -0.00001  -0.00769   0.00039  -0.00730   2.18561
    D8       -1.94773  -0.00001  -0.00815   0.00044  -0.00771  -1.95544
    D9        0.08000   0.00001  -0.00845   0.00065  -0.00781   0.07219
   D10       -1.56780  -0.00000  -0.00354  -0.00034  -0.00388  -1.57169
   D11        0.57474  -0.00001  -0.00400  -0.00029  -0.00429   0.57045
   D12        2.60246   0.00002  -0.00430  -0.00009  -0.00439   2.59808
   D13       -1.00495  -0.00000   0.01117  -0.00049   0.01068  -0.99427
   D14        1.15463   0.00000   0.01111  -0.00064   0.01046   1.16509
   D15       -3.09998  -0.00000   0.01111  -0.00058   0.01053  -3.08945
   D16        2.74331   0.00001   0.00693   0.00021   0.00714   2.75044
   D17       -1.38031   0.00002   0.00687   0.00005   0.00692  -1.37338
   D18        0.64827   0.00001   0.00687   0.00011   0.00699   0.65526
   D19        3.13860  -0.00001  -0.00081   0.00022  -0.00060   3.13801
   D20       -1.06750  -0.00000  -0.00050   0.00017  -0.00033  -1.06783
   D21        1.05986  -0.00000  -0.00111   0.00034  -0.00077   1.05909
   D22        1.06042   0.00000  -0.00035   0.00022  -0.00013   1.06030
   D23        3.13751   0.00001  -0.00003   0.00017   0.00014   3.13764
   D24       -1.01832   0.00001  -0.00064   0.00034  -0.00030  -1.01862
   D25       -1.09480  -0.00001  -0.00026   0.00014  -0.00012  -1.09492
   D26        0.98228  -0.00001   0.00006   0.00009   0.00015   0.98243
   D27        3.10964  -0.00001  -0.00055   0.00026  -0.00029   3.10935
   D28       -3.02674   0.00000  -0.00309   0.00007  -0.00302  -3.02976
   D29       -0.96145   0.00000  -0.00301   0.00008  -0.00293  -0.96438
   D30        1.18230   0.00001  -0.00310   0.00023  -0.00286   1.17943
   D31        1.15242   0.00000  -0.00319   0.00037  -0.00282   1.14960
   D32       -3.06548   0.00000  -0.00311   0.00037  -0.00273  -3.06821
   D33       -0.92173   0.00001  -0.00320   0.00053  -0.00267  -0.92440
   D34       -0.98834  -0.00001  -0.00301  -0.00012  -0.00313  -0.99147
   D35        1.07695  -0.00001  -0.00293  -0.00011  -0.00304   1.07391
   D36       -3.06249   0.00000  -0.00302   0.00004  -0.00298  -3.06546
         Item               Value     Threshold  Converged?
 Maximum Force            0.000240     0.000450     YES
 RMS     Force            0.000036     0.000300     YES
 Maximum Displacement     0.024148     0.001800     NO 
 RMS     Displacement     0.007245     0.001200     NO 
 Predicted change in Energy=-5.686554D-07
 GradGradGradGradGradGradGradGradGradGradGradGradGradGradGradGradGradGrad

                          Input orientation:                          
 ---------------------------------------------------------------------
 Center     Atomic      Atomic             Coordinates (Angstroms)
 Number     Number       Type             X           Y           Z
 ---------------------------------------------------------------------
      1          5           0       -1.759803    0.664040   -0.226591
      2          9           0       -1.543390    1.593498   -1.232240
      3          9           0       -2.117160    1.254730    0.980238
      4          9           0       -2.646156   -0.326305   -0.622560
      5          8           0       -0.364216   -0.055945    0.014914
      6          6           0       -0.324034   -1.505632    0.258916
      7          6           0        0.606227   -2.164787   -0.731665
      8          6           0        0.658482    0.668592    0.783126
      9          6           0        0.991053    2.006424    0.168666
     10          1           0       -0.007064   -1.643170    1.298433
     11          1           0       -1.349350   -1.857654    0.150799
     12          1           0        0.623074   -3.242984   -0.528541
     13          1           0        0.251648   -2.007053   -1.756948
     14          1           0        1.632146   -1.786215   -0.644089
     15          1           0        0.281263    0.760446    1.808021
     16          1           0        1.534777    0.014776    0.774464
     17          1           0        1.835469    2.420193    0.734250
     18          1           0        1.294445    1.892512   -0.878062
     19          1           0        0.156129    2.710514    0.231283
 ---------------------------------------------------------------------
                    Distance matrix (angstroms):
                    1          2          3          4          5
     1  B    0.000000
     2  F    1.386382   0.000000
     3  F    1.390344   2.310635   0.000000
     4  F    1.386794   2.296399   2.312676   0.000000
     5  O    1.588825   2.380442   2.392182   2.384684   0.000000
     6  C    2.646626   3.648970   3.369749   2.749557   1.470627
     7  C    3.722292   4.358456   4.694736   3.737635   2.438515
     8  C    2.620621   3.124963   2.843695   3.726447   1.470039
     9  C    3.086329   2.925140   3.299194   4.392829   2.472601
    10  H    3.274295   4.386413   3.598830   3.519823   2.072260
    11  H    2.582603   3.723023   3.311260   2.150540   2.057938
    12  H    4.586296   5.346056   5.478570   4.382205   3.380430
    13  H    3.677317   4.057271   4.872645   3.536809   2.706586
    14  H    4.205160   4.674656   5.093436   4.520583   2.722790
    15  H    2.883555   3.642324   2.584952   3.957087   2.073251
    16  H    3.503985   3.999292   3.862185   4.421336   2.046483
    17  H    4.115005   3.995898   4.128207   5.428550   3.389295
    18  H    3.355888   2.875441   3.936889   4.529544   2.710175
    19  H    2.840511   2.505592   2.801443   4.219493   2.823273
                    6          7          8          9         10
     6  C    0.000000
     7  C    1.510338   0.000000
     8  C    2.442823   3.213310   0.000000
     9  C    3.751284   4.284587   1.509291   0.000000
    10  H    1.095437   2.183921   2.460231   3.948689   0.000000
    11  H    1.089441   2.167338   3.288335   4.517621   1.778988
    12  H    2.129670   1.097293   4.125791   5.308275   2.508847
    13  H    2.155584   1.096272   3.711680   4.512505   3.087830
    14  H    2.172737   1.097040   3.001840   3.931372   2.545755
    15  H    2.810910   3.887492   1.095965   2.178014   2.473900
    16  H    2.456136   2.807334   1.093363   2.151578   2.323919
    17  H    4.505718   4.968097   2.110875   1.097328   4.497127
    18  H    3.931866   4.117858   2.159161   1.095747   4.351104
    19  H    4.243490   4.989832   2.174014   1.093966   4.485533
                   11         12         13         14         15
    11  H    0.000000
    12  H    2.504216   0.000000
    13  H    2.494997   1.781703   0.000000
    14  H    3.086466   1.775881   1.786897   0.000000
    15  H    3.501390   4.647990   4.513195   3.784602   0.000000
    16  H    3.494730   3.625193   3.484575   2.294634   1.787613
    17  H    5.365022   5.927573   5.321190   4.431143   2.514617
    18  H    4.702335   5.190975   4.131159   3.701597   3.085960
    19  H    4.810521   6.019926   5.120315   4.813053   2.510882
                   16         17         18         19
    16  H    0.000000
    17  H    2.424472   0.000000
    18  H    2.512866   1.780647   0.000000
    19  H    3.076154   1.776920   1.787606   0.000000
 Stoichiometry    C4H10BF3O
 Framework group  C1[X(C4H10BF3O)]
 Deg. of freedom    51
 Full point group                 C1      NOp   1
 Largest Abelian subgroup         C1      NOp   1
 Largest concise Abelian subgroup C1      NOp   1
                         Standard orientation:                         
 ---------------------------------------------------------------------
 Center     Atomic      Atomic             Coordinates (Angstroms)
 Number     Number       Type             X           Y           Z
 ---------------------------------------------------------------------
      1          5           0       -0.933482   -0.707020   -0.044971
      2          9           0       -1.560170   -0.279645   -1.205431
      3          9           0       -1.676559   -0.431115    1.097294
      4          9           0       -0.549214   -2.036989   -0.126934
      5          8           0        0.406550    0.139013    0.068634
      6          6           0        1.643433   -0.511868    0.526036
      7          6           0        2.739310   -0.298339   -0.491108
      8          6           0        0.303103    1.530402    0.531617
      9          6           0       -0.624646    2.350431   -0.331396
     10          1           0        1.882170   -0.084976    1.506214
     11          1           0        1.401116   -1.567020    0.647767
     12          1           0        3.651346   -0.788385   -0.127660
     13          1           0        2.462870   -0.742961   -1.454283
     14          1           0        2.960398    0.766230   -0.637087
     15          1           0       -0.020484    1.494555    1.578110
     16          1           0        1.322273    1.922715    0.478454
     17          1           0       -0.550971    3.389761    0.012837
     18          1           0       -0.320666    2.308820   -1.383311
     19          1           0       -1.666749    2.030239   -0.240512
 ---------------------------------------------------------------------
 Rotational constants (GHZ):           1.7492357           1.4185467           1.0075403
 Standard basis: Aug-CC-pVDZ (5D, 7F)
 There are   315 symmetry adapted cartesian basis functions of A   symmetry.
 There are   297 symmetry adapted basis functions of A   symmetry.
   297 basis functions,   497 primitive gaussians,   315 cartesian basis functions
    37 alpha electrons       37 beta electrons
       nuclear repulsion energy       523.8902418580 Hartrees.
 NAtoms=   19 NActive=   19 NUniq=   19 SFac= 1.00D+00 NAtFMM=   60 NAOKFM=F Big=F
 Integral buffers will be    131072 words long.
 Raffenetti 2 integral format.
 Two-electron integral symmetry is turned on.
 Nuclear repulsion after empirical dispersion term =      523.8781537669 Hartrees.
 Force PCM accuracy= 1.00D-12.
 ------------------------------------------------------------------------------
 Polarizable Continuum Model (PCM)
 =================================
 Model                : C-PCM.
 Atomic radii         : UFF (Universal Force Field).
 Polarization charges : Total charges.
 Charge compensation  : None.
 Solution method      : On-the-fly selection.
 Cavity type          : Scaled VdW (van der Waals Surface) (Alpha=1.100).
 Cavity algorithm     : GePol (No added spheres)
                        Default sphere list used, NSphG=   19.
                        Lebedev-Laikov grids with approx.  5.0 points / Ang**2.
                        Smoothing algorithm: York/Karplus (Gamma=1.0000).
                        Polarization charges: spherical gaussians, with
                                              point-specific exponents (IZeta= 3).
                        Self-potential: point-specific (ISelfS= 7).
                        Self-field    : sphere-specific E.n sum rule (ISelfD= 2).
 1st derivatives      : Analytical E(r).r(x)/FMM algorithm (CHGder, D1EAlg=3).
                        Cavity 1st derivative terms included.
 Solvent              : DiMethylSulfoxide, Eps=  46.826000 Eps(inf)=   2.007889
 ------------------------------------------------------------------------------
 Spheres list:
 ISph  on   Nord     Re0    Alpha      Xe            Ye            Ze
    1   B      1    2.0415  1.100     -0.933482     -0.707020     -0.044971
    2   F      2    1.6820  1.100     -1.560170     -0.279645     -1.205431
    3   F      3    1.6820  1.100     -1.676559     -0.431115      1.097294
    4   F      4    1.6820  1.100     -0.549214     -2.036989     -0.126934
    5   O      5    1.7500  1.100      0.406550      0.139013      0.068634
    6   C      6    1.9255  1.100      1.643433     -0.511868      0.526036
    7   C      7    1.9255  1.100      2.739310     -0.298339     -0.491108
    8   C      8    1.9255  1.100      0.303103      1.530402      0.531617
    9   C      9    1.9255  1.100     -0.624646      2.350431     -0.331396
   10   H     10    1.4430  1.100      1.882170     -0.084976      1.506214
   11   H     11    1.4430  1.100      1.401116     -1.567020      0.647767
   12   H     12    1.4430  1.100      3.651346     -0.788385     -0.127660
   13   H     13    1.4430  1.100      2.462870     -0.742961     -1.454283
   14   H     14    1.4430  1.100      2.960398      0.766230     -0.637087
   15   H     15    1.4430  1.100     -0.020484      1.494555      1.578110
   16   H     16    1.4430  1.100      1.322273      1.922715      0.478454
   17   H     17    1.4430  1.100     -0.550971      3.389761      0.012837
   18   H     18    1.4430  1.100     -0.320666      2.308820     -1.383311
   19   H     19    1.4430  1.100     -1.666749      2.030239     -0.240512
 ------------------------------------------------------------------------------
 One-electron integrals computed using PRISM.
 NBasis=   297 RedAO= T EigKep=  2.73D-05  NBF=   297
 NBsUse=   297 1.00D-06 EigRej= -1.00D+00 NBFU=   297
 Initial guess from the checkpoint file:  "/inspire/hdd/project/materialscienceresearch/lipenghui-253107030018/g16/00-B-DFT-Shift/04-output/BF3OEt2_DMSO-d6/BF3OEt2_DMSO-d6.chk"
 B after Tr=    -0.000000    0.000000    0.000000
         Rot=    0.999991    0.001747    0.000321   -0.003931 Ang=   0.49 deg.
 ExpMin= 2.38D-02 ExpMax= 1.47D+04 ExpMxC= 5.03D+02 IAcc=3 IRadAn=         5 AccDes= 0.00D+00
 Harris functional with IExCor= 4639 and IRadAn=       5 diagonalized for initial guess.
 HarFok:  IExCor= 4639 AccDes= 0.00D+00 IRadAn=         5 IDoV= 1 UseB2=F ITyADJ=14
 ICtDFT=  3500011 ScaDFX=  1.000000  1.000000  1.000000  1.000000
 FoFCou: FMM=F IPFlag=           0 FMFlag=      100000 FMFlg1=           0
         NFxFlg=           0 DoJE=T BraDBF=F KetDBF=T FulRan=T
         wScrn=  0.000000 ICntrl=       500 IOpCl=  0 I1Cent=   200000004 NGrid=           0
         NMat0=    1 NMatS0=      1 NMatT0=    0 NMatD0=    1 NMtDS0=    0 NMtDT0=    0
 Petite list used in FoFCou.
 Requested convergence on RMS density matrix=1.00D-08 within 128 cycles.
 Requested convergence on MAX density matrix=1.00D-06.
 Requested convergence on             energy=1.00D-06.
 No special actions if energy rises.
 Inv3:  Mode=1 IEnd=     7031883.
 Iteration    1 A*A^-1 deviation from unit magnitude is 3.22D-15 for    501.
 Iteration    1 A*A^-1 deviation from orthogonality  is 3.32D-15 for   1527    810.
 Iteration    1 A^-1*A deviation from unit magnitude is 3.11D-15 for   1495.
 Iteration    1 A^-1*A deviation from orthogonality  is 1.86D-15 for   1521    792.
 Error on total polarization charges =  0.01120
 SCF Done:  E(RwB97XD) =  -558.152181892     A.U. after    9 cycles
            NFock=  9  Conv=0.79D-08     -V/T= 2.0060
 D1PCM: C-PCM CHGder 1st derivatives, ID1Alg=3 FixD1E=F DoIter=F DoCFld=F I1PDM=0.
 Calling FoFJK, ICntrl=      2127 FMM=F ISym2X=0 I1Cent= 0 IOpClX= 0 NMat=1 NMatS=1 NMatT=0.
 ***** Axes restored to original set *****
 -------------------------------------------------------------------
 Center     Atomic                   Forces (Hartrees/Bohr)
 Number     Number              X              Y              Z
 -------------------------------------------------------------------
      1        5          -0.000007995   -0.000005865    0.000022251
      2        9          -0.000021312   -0.000002042   -0.000029654
      3        9          -0.000014947   -0.000008216    0.000007118
      4        9          -0.000019450    0.000001252    0.000015239
      5        8          -0.000062803    0.000019281   -0.000144664
      6        6           0.000017064   -0.000085964    0.000061008
      7        6          -0.000021507    0.000075229   -0.000005005
      8        6           0.000098839    0.000060561    0.000127975
      9        6          -0.000032507   -0.000059316   -0.000014162
     10        1           0.000011721    0.000005382    0.000006961
     11        1          -0.000014033   -0.000001167   -0.000036327
     12        1           0.000024649   -0.000027644    0.000002759
     13        1          -0.000013956   -0.000007051   -0.000001112
     14        1           0.000016640   -0.000025780   -0.000002444
     15        1          -0.000008263    0.000015366   -0.000009533
     16        1           0.000006944   -0.000002515   -0.000010393
     17        1           0.000013634    0.000036510   -0.000002920
     18        1           0.000014655   -0.000000119   -0.000009842
     19        1           0.000012630    0.000012097    0.000022745
 -------------------------------------------------------------------
 Cartesian Forces:  Max     0.000144664 RMS     0.000039246

 GradGradGradGradGradGradGradGradGradGradGradGradGradGradGradGradGradGrad
 Berny optimization.
 Using GEDIIS/GDIIS optimizer.
 FormGI is forming the generalized inverse of G from B-inverse, IUseBI=4.
 Internal  Forces:  Max     0.000166521 RMS     0.000025139
 Search for a local minimum.
 Step number  20 out of a maximum of   97
 All quantities printed in internal units (Hartrees-Bohrs-Radians)
 Mixed Optimization -- En-DIIS/RFO-DIIS
 Swapping is turned off.
 Update second derivatives using D2CorX and points   10   11   12   13   14
                                                     15   16   17   18   19
                                                     20
 DE= -2.16D-06 DEPred=-5.69D-07 R= 3.79D+00
 TightC=F SS=  1.41D+00  RLast= 3.34D-02 DXNew= 2.1766D+00 1.0028D-01
 Trust test= 3.79D+00 RLast= 3.34D-02 DXMaxT set to 1.29D+00
 ITU=  1  1  1  1  1  1  1  0  1  1  0  1  1  1  1  1  1  1  1  0
     Eigenvalues ---    0.00102   0.00241   0.00290   0.00373   0.01285
     Eigenvalues ---    0.01689   0.04518   0.04806   0.05043   0.05295
     Eigenvalues ---    0.05387   0.05571   0.05782   0.05913   0.07834
     Eigenvalues ---    0.09675   0.10500   0.12741   0.12843   0.13006
     Eigenvalues ---    0.13266   0.15917   0.16003   0.16021   0.16088
     Eigenvalues ---    0.16527   0.17165   0.21203   0.22509   0.23336
     Eigenvalues ---    0.25381   0.25511   0.28364   0.28410   0.28877
     Eigenvalues ---    0.29227   0.30472   0.31853   0.32023   0.32032
     Eigenvalues ---    0.32109   0.32146   0.32166   0.32231   0.32281
     Eigenvalues ---    0.32678   0.33615   0.37221   0.38841   0.43903
     Eigenvalues ---    0.56376
 En-DIIS/RFO-DIIS/Sim-DIIS IScMMF=       -3 using points:    20   19   18   17   16   15   14   13   12   11
 RFO step:  Lambda=-4.13047169D-07.
 DIIS inversion failure, remove point  10.
 DIIS inversion failure, remove point   9.
 DIIS inversion failure, remove point   8.
 DIIS inversion failure, remove point   7.
 DIIS inversion failure, remove point   6.
 RFO-DIIS uses    5 points instead of   10
 DidBck=F Rises=F RFO-DIIS coefs:    1.19384   -0.32746   -0.13611   -0.01524    0.28497
                  RFO-DIIS coefs:    0.00000    0.00000    0.00000    0.00000    0.00000
 Iteration  1 RMS(Cart)=  0.00312439 RMS(Int)=  0.00000465
 Iteration  2 RMS(Cart)=  0.00000444 RMS(Int)=  0.00000347
 Iteration  3 RMS(Cart)=  0.00000000 RMS(Int)=  0.00000347
 Variable       Old X    -DE/DX   Delta X   Delta X   Delta X     New X
                                 (Linear)    (Quad)   (Total)
    R1        2.61988   0.00002  -0.00003   0.00009   0.00006   2.61994
    R2        2.62737   0.00001  -0.00008   0.00007  -0.00001   2.62736
    R3        2.62066   0.00001   0.00002   0.00002   0.00004   2.62071
    R4        3.00244   0.00005   0.00063  -0.00036   0.00027   3.00272
    R5        2.77908   0.00007   0.00037   0.00008   0.00044   2.77953
    R6        2.77797   0.00017   0.00071   0.00011   0.00081   2.77879
    R7        2.85413  -0.00000  -0.00005   0.00003  -0.00003   2.85410
    R8        2.07008   0.00001   0.00001  -0.00000   0.00001   2.07008
    R9        2.05875   0.00002   0.00001   0.00004   0.00005   2.05879
   R10        2.07358   0.00003   0.00007   0.00002   0.00009   2.07367
   R11        2.07165   0.00000   0.00000  -0.00000   0.00000   2.07166
   R12        2.07311   0.00000   0.00001   0.00000   0.00001   2.07312
   R13        2.85215  -0.00001  -0.00012   0.00001  -0.00011   2.85204
   R14        2.07107  -0.00000  -0.00005  -0.00000  -0.00006   2.07102
   R15        2.06616   0.00001  -0.00001  -0.00002  -0.00003   2.06613
   R16        2.07365   0.00003   0.00007   0.00002   0.00009   2.07374
   R17        2.07066   0.00001   0.00005   0.00000   0.00005   2.07071
   R18        2.06730  -0.00000   0.00001  -0.00003  -0.00001   2.06728
    A1        1.96592   0.00000   0.00014  -0.00008   0.00006   1.96598
    A2        1.95133  -0.00002  -0.00003  -0.00004  -0.00007   1.95126
    A3        1.85141   0.00003  -0.00013   0.00011  -0.00002   1.85140
    A4        1.96813  -0.00003  -0.00005  -0.00013  -0.00017   1.96796
    A5        1.86121   0.00001   0.00003   0.00009   0.00012   1.86133
    A6        1.85584   0.00002   0.00003   0.00008   0.00011   1.85594
    A7        2.08969  -0.00002  -0.00087   0.00002  -0.00083   2.08886
    A8        2.05688   0.00005  -0.00070   0.00003  -0.00065   2.05623
    A9        1.96074  -0.00003  -0.00055   0.00012  -0.00041   1.96033
   A10        1.91583  -0.00002  -0.00017  -0.00001  -0.00019   1.91564
   A11        1.86411   0.00000   0.00010   0.00002   0.00012   1.86423
   A12        1.85078   0.00000  -0.00010  -0.00013  -0.00023   1.85055
   A13        1.97074   0.00001   0.00022   0.00003   0.00025   1.97099
   A14        1.95365  -0.00001  -0.00030  -0.00000  -0.00030   1.95335
   A15        1.90279   0.00001   0.00025   0.00008   0.00033   1.90312
   A16        1.89324   0.00001   0.00003  -0.00003  -0.00000   1.89323
   A17        1.92985  -0.00001  -0.00008  -0.00000  -0.00008   1.92976
   A18        1.95308   0.00003   0.00024   0.00011   0.00035   1.95343
   A19        1.89597  -0.00000  -0.00002  -0.00005  -0.00007   1.89590
   A20        1.88593  -0.00003  -0.00025  -0.00007  -0.00032   1.88561
   A21        1.90443   0.00000   0.00007   0.00003   0.00010   1.90453
   A22        1.95781   0.00001  -0.00021  -0.00017  -0.00039   1.95742
   A23        1.86560  -0.00000  -0.00022   0.00013  -0.00009   1.86551
   A24        1.83248  -0.00001  -0.00007  -0.00002  -0.00009   1.83239
   A25        1.96305  -0.00000   0.00018   0.00006   0.00023   1.96328
   A26        1.92861  -0.00001   0.00013  -0.00004   0.00009   1.92870
   A27        1.91069   0.00001   0.00018   0.00004   0.00022   1.91091
   A28        1.86916   0.00003   0.00015   0.00011   0.00026   1.86942
   A29        1.93667  -0.00000  -0.00004   0.00000  -0.00004   1.93663
   A30        1.95954   0.00000   0.00001   0.00002   0.00003   1.95956
   A31        1.89494  -0.00002  -0.00013  -0.00004  -0.00016   1.89478
   A32        1.89137  -0.00003  -0.00011  -0.00013  -0.00024   1.89114
   A33        1.91018   0.00001   0.00011   0.00003   0.00014   1.91032
    D1       -2.44426   0.00001  -0.00366   0.00051  -0.00316  -2.44741
    D2        1.34604   0.00003  -0.00013   0.00020   0.00008   1.34612
    D3        1.73962  -0.00001  -0.00378   0.00050  -0.00328   1.73635
    D4       -0.75326   0.00001  -0.00024   0.00019  -0.00004  -0.75330
    D5       -0.36453   0.00001  -0.00375   0.00056  -0.00319  -0.36772
    D6       -2.85741   0.00003  -0.00021   0.00025   0.00004  -2.85737
    D7        2.18561  -0.00001   0.00472   0.00008   0.00480   2.19041
    D8       -1.95544  -0.00001   0.00494   0.00013   0.00507  -1.95037
    D9        0.07219   0.00001   0.00523   0.00017   0.00540   0.07758
   D10       -1.57169  -0.00000   0.00131   0.00035   0.00166  -1.57003
   D11        0.57045   0.00000   0.00153   0.00039   0.00192   0.57237
   D12        2.59808   0.00002   0.00182   0.00043   0.00225   2.60033
   D13       -0.99427  -0.00002  -0.00542  -0.00017  -0.00559  -0.99985
   D14        1.16509  -0.00002  -0.00548  -0.00012  -0.00561   1.15949
   D15       -3.08945  -0.00001  -0.00541  -0.00002  -0.00543  -3.09488
   D16        2.75044  -0.00001  -0.00201  -0.00043  -0.00244   2.74801
   D17       -1.37338  -0.00000  -0.00208  -0.00038  -0.00246  -1.37584
   D18        0.65526   0.00000  -0.00200  -0.00028  -0.00228   0.65298
   D19        3.13801   0.00000  -0.00020  -0.00005  -0.00026   3.13775
   D20       -1.06783  -0.00000  -0.00026  -0.00013  -0.00039  -1.06822
   D21        1.05909   0.00001  -0.00006  -0.00002  -0.00008   1.05901
   D22        1.06030   0.00000  -0.00035  -0.00010  -0.00045   1.05985
   D23        3.13764  -0.00000  -0.00041  -0.00017  -0.00058   3.13706
   D24       -1.01862   0.00001  -0.00021  -0.00006  -0.00027  -1.01889
   D25       -1.09492  -0.00001  -0.00062  -0.00022  -0.00084  -1.09576
   D26        0.98243  -0.00002  -0.00068  -0.00030  -0.00098   0.98145
   D27        3.10935  -0.00000  -0.00048  -0.00018  -0.00066   3.10869
   D28       -3.02976   0.00000   0.00128  -0.00000   0.00128  -3.02848
   D29       -0.96438   0.00000   0.00119   0.00002   0.00121  -0.96317
   D30        1.17943   0.00001   0.00130   0.00008   0.00138   1.18082
   D31        1.14960  -0.00000   0.00159  -0.00009   0.00151   1.15111
   D32       -3.06821  -0.00000   0.00151  -0.00006   0.00145  -3.06676
   D33       -0.92440   0.00001   0.00162  -0.00001   0.00162  -0.92278
   D34       -0.99147  -0.00000   0.00114  -0.00015   0.00099  -0.99048
   D35        1.07391  -0.00001   0.00105  -0.00013   0.00092   1.07484
   D36       -3.06546   0.00001   0.00117  -0.00007   0.00109  -3.06437
         Item               Value     Threshold  Converged?
 Maximum Force            0.000167     0.000450     YES
 RMS     Force            0.000025     0.000300     YES
 Maximum Displacement     0.008401     0.001800     NO 
 RMS     Displacement     0.003125     0.001200     NO 
 Predicted change in Energy=-7.223807D-08
 GradGradGradGradGradGradGradGradGradGradGradGradGradGradGradGradGradGrad

                          Input orientation:                          
 ---------------------------------------------------------------------
 Center     Atomic      Atomic             Coordinates (Angstroms)
 Number     Number       Type             X           Y           Z
 ---------------------------------------------------------------------
      1          5           0       -1.761639    0.663965   -0.224322
      2          9           0       -1.547259    1.596291   -1.227794
      3          9           0       -2.118281    1.251056    0.984470
      4          9           0       -2.647689   -0.326040   -0.621901
      5          8           0       -0.364982   -0.055455    0.013607
      6          6           0       -0.324743   -1.505376    0.257629
      7          6           0        0.608034   -2.163820   -0.731037
      8          6           0        0.657654    0.668888    0.782908
      9          6           0        0.992893    2.005224    0.166782
     10          1           0       -0.010306   -1.642990    1.297908
     11          1           0       -1.349668   -1.857686    0.146543
     12          1           0        0.625206   -3.242063   -0.527930
     13          1           0        0.255340   -2.006341   -1.757011
     14          1           0        1.633660   -1.784904   -0.641463
     15          1           0        0.278606    0.762691    1.806918
     16          1           0        1.533005    0.013810    0.776585
     17          1           0        1.837764    2.418546    0.732103
     18          1           0        1.296710    1.889264   -0.879626
     19          1           0        0.159234    2.710920    0.228047
 ---------------------------------------------------------------------
                    Distance matrix (angstroms):
                    1          2          3          4          5
     1  B    0.000000
     2  F    1.386415   0.000000
     3  F    1.390341   2.310707   0.000000
     4  F    1.386818   2.296390   2.312560   0.000000
     5  O    1.588970   2.380571   2.392406   2.384919   0.000000
     6  C    2.646315   3.649844   3.367936   2.749634   1.470862
     7  C    3.724040   4.362394   4.694373   3.740198   2.438536
     8  C    2.620594   3.124842   2.843477   3.726750   1.470470
     9  C    3.088589   2.926507   3.304056   4.394389   2.472587
    10  H    3.272062   4.385697   3.594065   3.517928   2.072557
    11  H    2.581857   3.722607   3.310161   2.149722   2.057988
    12  H    4.587621   5.349681   5.477426   4.384503   3.380563
    13  H    3.680744   4.063052   4.874467   3.541111   2.706629
    14  H    4.207020   4.679157   5.092914   4.523120   2.722991
    15  H    2.880674   3.638427   2.580695   3.955718   2.073532
    16  H    3.504168   4.001226   3.860814   4.421478   2.046775
    17  H    4.116917   3.996959   4.132435   5.430044   3.389544
    18  H    3.359208   2.880141   3.942630   4.531256   2.709431
    19  H    2.843311   2.504794   2.808995   4.221890   2.823759
                    6          7          8          9         10
     6  C    0.000000
     7  C    1.510325   0.000000
     8  C    2.443040   3.212277   0.000000
     9  C    3.750830   4.281954   1.509235   0.000000
    10  H    1.095440   2.184085   2.460930   3.949091   0.000000
    11  H    1.089465   2.167132   3.289054   4.517751   1.779221
    12  H    2.129692   1.097340   4.124911   5.305831   2.508903
    13  H    2.155513   1.096273   3.710781   4.509725   3.087899
    14  H    2.172980   1.097046   3.000420   3.927966   2.546355
    15  H    2.812198   3.887699   1.095935   2.178105   2.475856
    16  H    2.455294   2.805453   1.093347   2.151584   2.323483
    17  H    4.505410   4.964987   2.111053   1.097374   4.497952
    18  H    3.930145   4.113860   2.159104   1.095775   4.350490
    19  H    4.244085   4.988421   2.173979   1.093958   4.486633
                   11         12         13         14         15
    11  H    0.000000
    12  H    2.504305   0.000000
    13  H    2.494327   1.781699   0.000000
    14  H    3.086502   1.775719   1.786966   0.000000
    15  H    3.503498   4.648624   4.513277   3.784308   0.000000
    16  H    3.494174   3.623060   3.483180   2.292676   1.787716
    17  H    5.365516   5.924565   5.317836   4.426888   2.515563
    18  H    4.700636   5.187015   4.126742   3.697266   3.085972
    19  H    4.812025   6.018857   5.118812   4.810656   2.510514
                   16         17         18         19
    16  H    0.000000
    17  H    2.424379   0.000000
    18  H    2.513205   1.780604   0.000000
    19  H    3.076124   1.776800   1.787710   0.000000
 Stoichiometry    C4H10BF3O
 Framework group  C1[X(C4H10BF3O)]
 Deg. of freedom    51
 Full point group                 C1      NOp   1
 Largest Abelian subgroup         C1      NOp   1
 Largest concise Abelian subgroup C1      NOp   1
                         Standard orientation:                         
 ---------------------------------------------------------------------
 Center     Atomic      Atomic             Coordinates (Angstroms)
 Number     Number       Type             X           Y           Z
 ---------------------------------------------------------------------
      1          5           0       -0.936966   -0.703694   -0.045189
      2          9           0       -1.564503   -0.271731   -1.203530
      3          9           0       -1.676515   -0.427205    1.099218
      4          9           0       -0.558212   -2.035060   -0.130470
      5          8           0        0.406728    0.136972    0.067033
      6          6           0        1.640739   -0.519787    0.524548
      7          6           0        2.739007   -0.306436   -0.490030
      8          6           0        0.308756    1.528186    0.533087
      9          6           0       -0.612091    2.354406   -0.331316
     10          1           0        1.879100   -0.097303    1.506730
     11          1           0        1.394521   -1.574589    0.641609
     12          1           0        3.648909   -0.800562   -0.126610
     13          1           0        2.462786   -0.747208   -1.455036
     14          1           0        2.964104    0.757800   -0.632310
     15          1           0       -0.018438    1.491430    1.578394
     16          1           0        1.330048    1.915433    0.483983
     17          1           0       -0.533755    3.393000    0.014251
     18          1           0       -0.305463    2.312454   -1.382478
     19          1           0       -1.656208    2.039983   -0.243550
 ---------------------------------------------------------------------
 Rotational constants (GHZ):           1.7490741           1.4179572           1.0071440
 Standard basis: Aug-CC-pVDZ (5D, 7F)
 There are   315 symmetry adapted cartesian basis functions of A   symmetry.
 There are   297 symmetry adapted basis functions of A   symmetry.
   297 basis functions,   497 primitive gaussians,   315 cartesian basis functions
    37 alpha electrons       37 beta electrons
       nuclear repulsion energy       523.8428689076 Hartrees.
 NAtoms=   19 NActive=   19 NUniq=   19 SFac= 1.00D+00 NAtFMM=   60 NAOKFM=F Big=F
 Integral buffers will be    131072 words long.
 Raffenetti 2 integral format.
 Two-electron integral symmetry is turned on.
 Nuclear repulsion after empirical dispersion term =      523.8307839320 Hartrees.
 Force PCM accuracy= 1.00D-12.
 ------------------------------------------------------------------------------
 Polarizable Continuum Model (PCM)
 =================================
 Model                : C-PCM.
 Atomic radii         : UFF (Universal Force Field).
 Polarization charges : Total charges.
 Charge compensation  : None.
 Solution method      : On-the-fly selection.
 Cavity type          : Scaled VdW (van der Waals Surface) (Alpha=1.100).
 Cavity algorithm     : GePol (No added spheres)
                        Default sphere list used, NSphG=   19.
                        Lebedev-Laikov grids with approx.  5.0 points / Ang**2.
                        Smoothing algorithm: York/Karplus (Gamma=1.0000).
                        Polarization charges: spherical gaussians, with
                                              point-specific exponents (IZeta= 3).
                        Self-potential: point-specific (ISelfS= 7).
                        Self-field    : sphere-specific E.n sum rule (ISelfD= 2).
 1st derivatives      : Analytical E(r).r(x)/FMM algorithm (CHGder, D1EAlg=3).
                        Cavity 1st derivative terms included.
 Solvent              : DiMethylSulfoxide, Eps=  46.826000 Eps(inf)=   2.007889
 ------------------------------------------------------------------------------
 Spheres list:
 ISph  on   Nord     Re0    Alpha      Xe            Ye            Ze
    1   B      1    2.0415  1.100     -0.936966     -0.703694     -0.045189
    2   F      2    1.6820  1.100     -1.564503     -0.271731     -1.203530
    3   F      3    1.6820  1.100     -1.676515     -0.427205      1.099218
    4   F      4    1.6820  1.100     -0.558212     -2.035060     -0.130470
    5   O      5    1.7500  1.100      0.406728      0.136972      0.067033
    6   C      6    1.9255  1.100      1.640739     -0.519787      0.524548
    7   C      7    1.9255  1.100      2.739007     -0.306436     -0.490030
    8   C      8    1.9255  1.100      0.308756      1.528186      0.533087
    9   C      9    1.9255  1.100     -0.612091      2.354406     -0.331316
   10   H     10    1.4430  1.100      1.879100     -0.097303      1.506730
   11   H     11    1.4430  1.100      1.394521     -1.574589      0.641609
   12   H     12    1.4430  1.100      3.648909     -0.800562     -0.126610
   13   H     13    1.4430  1.100      2.462786     -0.747208     -1.455036
   14   H     14    1.4430  1.100      2.964104      0.757800     -0.632310
   15   H     15    1.4430  1.100     -0.018438      1.491430      1.578394
   16   H     16    1.4430  1.100      1.330048      1.915433      0.483983
   17   H     17    1.4430  1.100     -0.533755      3.393000      0.014251
   18   H     18    1.4430  1.100     -0.305463      2.312454     -1.382478
   19   H     19    1.4430  1.100     -1.656208      2.039983     -0.243550
 ------------------------------------------------------------------------------
 One-electron integrals computed using PRISM.
 NBasis=   297 RedAO= T EigKep=  2.73D-05  NBF=   297
 NBsUse=   297 1.00D-06 EigRej= -1.00D+00 NBFU=   297
 Initial guess from the checkpoint file:  "/inspire/hdd/project/materialscienceresearch/lipenghui-253107030018/g16/00-B-DFT-Shift/04-output/BF3OEt2_DMSO-d6/BF3OEt2_DMSO-d6.chk"
 B after Tr=     0.000000    0.000000    0.000000
         Rot=    0.999998   -0.000576   -0.000086    0.002043 Ang=  -0.24 deg.
 Requested convergence on RMS density matrix=1.00D-08 within 128 cycles.
 Requested convergence on MAX density matrix=1.00D-06.
 Requested convergence on             energy=1.00D-06.
 No special actions if energy rises.
 Inv3:  Mode=1 IEnd=     7004352.
 Iteration    1 A*A^-1 deviation from unit magnitude is 5.11D-15 for   1526.
 Iteration    1 A*A^-1 deviation from orthogonality  is 1.70D-15 for   1526    950.
 Iteration    1 A^-1*A deviation from unit magnitude is 5.11D-15 for   1526.
 Iteration    1 A^-1*A deviation from orthogonality  is 2.44D-15 for   1491    715.
 Error on total polarization charges =  0.01120
 SCF Done:  E(RwB97XD) =  -558.152181311     A.U. after    8 cycles
            NFock=  8  Conv=0.67D-08     -V/T= 2.0060
 D1PCM: C-PCM CHGder 1st derivatives, ID1Alg=3 FixD1E=F DoIter=F DoCFld=F I1PDM=0.
 Calling FoFJK, ICntrl=      2127 FMM=F ISym2X=0 I1Cent= 0 IOpClX= 0 NMat=1 NMatS=1 NMatT=0.
 ***** Axes restored to original set *****
 -------------------------------------------------------------------
 Center     Atomic                   Forces (Hartrees/Bohr)
 Number     Number              X              Y              Z
 -------------------------------------------------------------------
      1        5          -0.000005113   -0.000001335   -0.000001501
      2        9          -0.000000516   -0.000014053    0.000004526
      3        9           0.000005710    0.000004038    0.000006716
      4        9          -0.000007309    0.000004910    0.000003285
      5        8          -0.000007741    0.000015236   -0.000005926
      6        6           0.000009147   -0.000013961   -0.000004594
      7        6          -0.000002385    0.000012611   -0.000000317
      8        6          -0.000000351   -0.000004174    0.000012951
      9        6          -0.000001712   -0.000008193   -0.000002631
     10        1           0.000007459    0.000002517    0.000002365
     11        1           0.000008368   -0.000004288   -0.000000875
     12        1           0.000005477   -0.000002224    0.000000099
     13        1          -0.000001783   -0.000001622    0.000000613
     14        1           0.000001757   -0.000003097    0.000000024
     15        1          -0.000001761    0.000002074   -0.000004388
     16        1          -0.000000167   -0.000001743   -0.000005058
     17        1          -0.000002448    0.000009067   -0.000005330
     18        1          -0.000002240    0.000000478   -0.000000097
     19        1          -0.000004391    0.000003758    0.000000139
 -------------------------------------------------------------------
 Cartesian Forces:  Max     0.000015236 RMS     0.000005782

 GradGradGradGradGradGradGradGradGradGradGradGradGradGradGradGradGradGrad
 Berny optimization.
 Using GEDIIS/GDIIS optimizer.
 FormGI is forming the generalized inverse of G from B-inverse, IUseBI=4.
 Internal  Forces:  Max     0.000030098 RMS     0.000006474
 Search for a local minimum.
 Step number  21 out of a maximum of   97
 All quantities printed in internal units (Hartrees-Bohrs-Radians)
 Mixed Optimization -- En-DIIS/RFO-DIIS
 Swapping is turned off.
 Update second derivatives using D2CorX and points   10   11   12   13   14
                                                     15   16   17   18   19
                                                     20   21
 DE=  5.80D-07 DEPred=-7.22D-08 R=-8.03D+00
 Trust test=-8.03D+00 RLast= 1.58D-02 DXMaxT set to 6.47D-01
 ITU= -1  1  1  1  1  1  1  1  0  1  1  0  1  1  1  1  1  1  1  1
 ITU=  0
     Eigenvalues ---    0.00115   0.00241   0.00308   0.00394   0.00847
     Eigenvalues ---    0.01761   0.04527   0.04662   0.05059   0.05258
     Eigenvalues ---    0.05336   0.05442   0.05778   0.05896   0.08020
     Eigenvalues ---    0.09659   0.10542   0.12660   0.12854   0.13016
     Eigenvalues ---    0.13292   0.15949   0.15990   0.16013   0.16088
     Eigenvalues ---    0.16239   0.16880   0.21466   0.22198   0.24307
     Eigenvalues ---    0.25163   0.25387   0.28176   0.28401   0.28920
     Eigenvalues ---    0.29408   0.29822   0.31825   0.31879   0.32057
     Eigenvalues ---    0.32107   0.32156   0.32171   0.32229   0.32262
     Eigenvalues ---    0.32489   0.33552   0.36966   0.37702   0.41295
     Eigenvalues ---    0.53223
 En-DIIS/RFO-DIIS/Sim-DIIS IScMMF=       -3 using points:    21   20   19   18   17   16   15   14   13   12
 RFO step:  Lambda=-6.62604546D-08.
 DIIS inversion failure, remove point  10.
 DIIS inversion failure, remove point   9.
 DIIS inversion failure, remove point   8.
 DIIS inversion failure, remove point   7.
 DIIS inversion failure, remove point   6.
 RFO-DIIS uses    5 points instead of   10
 DidBck=F Rises=F RFO-DIIS coefs:    1.37715   -0.08893   -0.72266    0.74980   -0.31536
                  RFO-DIIS coefs:    0.00000    0.00000    0.00000    0.00000    0.00000
 Iteration  1 RMS(Cart)=  0.00041496 RMS(Int)=  0.00000090
 Iteration  2 RMS(Cart)=  0.00000012 RMS(Int)=  0.00000089
 Variable       Old X    -DE/DX   Delta X   Delta X   Delta X     New X
                                 (Linear)    (Quad)   (Total)
    R1        2.61994  -0.00001   0.00004  -0.00007  -0.00002   2.61992
    R2        2.62736   0.00000   0.00002   0.00000   0.00002   2.62738
    R3        2.62071  -0.00000   0.00003  -0.00004  -0.00001   2.62070
    R4        3.00272   0.00000  -0.00015   0.00016   0.00001   3.00273
    R5        2.77953   0.00001   0.00010  -0.00006   0.00005   2.77957
    R6        2.77879  -0.00000   0.00015  -0.00010   0.00005   2.77884
    R7        2.85410  -0.00000  -0.00003   0.00002  -0.00001   2.85409
    R8        2.07008   0.00000  -0.00000   0.00001   0.00001   2.07009
    R9        2.05879  -0.00000   0.00001  -0.00001  -0.00000   2.05879
   R10        2.07367   0.00000   0.00003  -0.00001   0.00001   2.07369
   R11        2.07166  -0.00000   0.00000  -0.00001  -0.00000   2.07165
   R12        2.07312  -0.00000   0.00000   0.00000   0.00000   2.07312
   R13        2.85204   0.00000   0.00001  -0.00002  -0.00001   2.85203
   R14        2.07102  -0.00000  -0.00001  -0.00000  -0.00001   2.07100
   R15        2.06613   0.00000  -0.00000   0.00001   0.00001   2.06613
   R16        2.07374   0.00000   0.00002  -0.00001   0.00001   2.07375
   R17        2.07071  -0.00000  -0.00000  -0.00000  -0.00000   2.07071
   R18        2.06728   0.00000   0.00001   0.00000   0.00001   2.06729
    A1        1.96598   0.00000  -0.00004   0.00005   0.00001   1.96600
    A2        1.95126  -0.00000  -0.00005   0.00005  -0.00000   1.95126
    A3        1.85140  -0.00002   0.00006  -0.00017  -0.00010   1.85129
    A4        1.96796   0.00000  -0.00008   0.00009   0.00001   1.96797
    A5        1.86133  -0.00001   0.00004  -0.00007  -0.00002   1.86131
    A6        1.85594   0.00003   0.00009   0.00001   0.00010   1.85605
    A7        2.08886   0.00003   0.00006   0.00012   0.00018   2.08904
    A8        2.05623  -0.00002   0.00003  -0.00009  -0.00007   2.05615
    A9        1.96033  -0.00001  -0.00007   0.00005  -0.00003   1.96030
   A10        1.91564  -0.00000  -0.00004  -0.00001  -0.00006   1.91558
   A11        1.86423  -0.00000  -0.00001  -0.00001  -0.00002   1.86421
   A12        1.85055   0.00000  -0.00002   0.00005   0.00003   1.85058
   A13        1.97099  -0.00000   0.00003  -0.00004  -0.00001   1.97098
   A14        1.95335  -0.00000  -0.00004   0.00005   0.00001   1.95336
   A15        1.90312   0.00000   0.00008  -0.00003   0.00005   1.90317
   A16        1.89323   0.00000   0.00002   0.00001   0.00003   1.89326
   A17        1.92976  -0.00000  -0.00001   0.00002   0.00001   1.92977
   A18        1.95343   0.00000   0.00002  -0.00002  -0.00000   1.95343
   A19        1.89590  -0.00000  -0.00002   0.00001  -0.00001   1.89589
   A20        1.88561  -0.00000  -0.00006  -0.00000  -0.00006   1.88556
   A21        1.90453   0.00000   0.00004  -0.00001   0.00003   1.90456
   A22        1.95742  -0.00001  -0.00009  -0.00001  -0.00009   1.95732
   A23        1.86551   0.00000  -0.00005   0.00004  -0.00000   1.86550
   A24        1.83239   0.00000  -0.00010   0.00008  -0.00002   1.83237
   A25        1.96328   0.00000   0.00005  -0.00001   0.00004   1.96332
   A26        1.92870   0.00000   0.00008  -0.00007   0.00001   1.92871
   A27        1.91091   0.00000   0.00010  -0.00002   0.00007   1.91098
   A28        1.86942   0.00001   0.00006   0.00005   0.00010   1.86952
   A29        1.93663  -0.00000   0.00002  -0.00005  -0.00003   1.93660
   A30        1.95956   0.00000   0.00000   0.00000   0.00000   1.95957
   A31        1.89478  -0.00000  -0.00004   0.00001  -0.00002   1.89475
   A32        1.89114  -0.00001  -0.00009   0.00003  -0.00007   1.89107
   A33        1.91032   0.00000   0.00005  -0.00004   0.00001   1.91033
    D1       -2.44741   0.00000   0.00068   0.00013   0.00081  -2.44660
    D2        1.34612   0.00001   0.00072  -0.00001   0.00070   1.34683
    D3        1.73635   0.00001   0.00067   0.00019   0.00086   1.73721
    D4       -0.75330   0.00001   0.00070   0.00005   0.00075  -0.75255
    D5       -0.36772   0.00000   0.00070   0.00011   0.00081  -0.36692
    D6       -2.85737   0.00000   0.00073  -0.00003   0.00070  -2.85667
    D7        2.19041   0.00000  -0.00019   0.00001  -0.00019   2.19022
    D8       -1.95037   0.00000  -0.00019  -0.00005  -0.00024  -1.95061
    D9        0.07758   0.00001  -0.00011  -0.00007  -0.00018   0.07740
   D10       -1.57003  -0.00000  -0.00019   0.00009  -0.00010  -1.57014
   D11        0.57237  -0.00000  -0.00019   0.00003  -0.00016   0.57221
   D12        2.60033  -0.00000  -0.00011   0.00001  -0.00010   2.60023
   D13       -0.99985   0.00001   0.00003  -0.00015  -0.00011  -0.99997
   D14        1.15949   0.00000   0.00001  -0.00014  -0.00013   1.15936
   D15       -3.09488   0.00001   0.00005  -0.00011  -0.00006  -3.09494
   D16        2.74801  -0.00001   0.00002  -0.00031  -0.00029   2.74772
   D17       -1.37584  -0.00001  -0.00001  -0.00030  -0.00031  -1.37614
   D18        0.65298  -0.00001   0.00003  -0.00027  -0.00024   0.65274
   D19        3.13775  -0.00000   0.00001  -0.00012  -0.00011   3.13764
   D20       -1.06822  -0.00000  -0.00000  -0.00010  -0.00010  -1.06832
   D21        1.05901  -0.00000   0.00005  -0.00011  -0.00006   1.05895
   D22        1.05985   0.00000   0.00003  -0.00007  -0.00004   1.05981
   D23        3.13706   0.00000   0.00002  -0.00005  -0.00003   3.13703
   D24       -1.01889   0.00000   0.00008  -0.00006   0.00001  -1.01887
   D25       -1.09576   0.00000  -0.00007  -0.00004  -0.00011  -1.09587
   D26        0.98145  -0.00000  -0.00008  -0.00002  -0.00010   0.98136
   D27        3.10869   0.00000  -0.00002  -0.00003  -0.00006   3.10863
   D28       -3.02848  -0.00000  -0.00003  -0.00020  -0.00023  -3.02871
   D29       -0.96317  -0.00000  -0.00003  -0.00018  -0.00021  -0.96338
   D30        1.18082  -0.00000   0.00005  -0.00026  -0.00021   1.18060
   D31        1.15111   0.00000   0.00006  -0.00024  -0.00018   1.15092
   D32       -3.06676   0.00000   0.00006  -0.00023  -0.00017  -3.06693
   D33       -0.92278   0.00000   0.00014  -0.00031  -0.00017  -0.92295
   D34       -0.99048  -0.00000  -0.00016  -0.00015  -0.00031  -0.99079
   D35        1.07484  -0.00000  -0.00016  -0.00013  -0.00029   1.07454
   D36       -3.06437  -0.00000  -0.00008  -0.00021  -0.00030  -3.06466
         Item               Value     Threshold  Converged?
 Maximum Force            0.000030     0.000450     YES
 RMS     Force            0.000006     0.000300     YES
 Maximum Displacement     0.001719     0.001800     YES
 RMS     Displacement     0.000415     0.001200     YES
 Predicted change in Energy=-2.408996D-08
 Optimization completed.
    -- Stationary point found.
                           ----------------------------
                           !   Optimized Parameters   !
                           ! (Angstroms and Degrees)  !
 --------------------------                            --------------------------
 ! Name  Definition              Value          Derivative Info.                !
 --------------------------------------------------------------------------------
 ! R1    R(1,2)                  1.3864         -DE/DX =    0.0                 !
 ! R2    R(1,3)                  1.3903         -DE/DX =    0.0                 !
 ! R3    R(1,4)                  1.3868         -DE/DX =    0.0                 !
 ! R4    R(1,5)                  1.589          -DE/DX =    0.0                 !
 ! R5    R(5,6)                  1.4709         -DE/DX =    0.0                 !
 ! R6    R(5,8)                  1.4705         -DE/DX =    0.0                 !
 ! R7    R(6,7)                  1.5103         -DE/DX =    0.0                 !
 ! R8    R(6,10)                 1.0954         -DE/DX =    0.0                 !
 ! R9    R(6,11)                 1.0895         -DE/DX =    0.0                 !
 ! R10   R(7,12)                 1.0973         -DE/DX =    0.0                 !
 ! R11   R(7,13)                 1.0963         -DE/DX =    0.0                 !
 ! R12   R(7,14)                 1.097          -DE/DX =    0.0                 !
 ! R13   R(8,9)                  1.5092         -DE/DX =    0.0                 !
 ! R14   R(8,15)                 1.0959         -DE/DX =    0.0                 !
 ! R15   R(8,16)                 1.0933         -DE/DX =    0.0                 !
 ! R16   R(9,17)                 1.0974         -DE/DX =    0.0                 !
 ! R17   R(9,18)                 1.0958         -DE/DX =    0.0                 !
 ! R18   R(9,19)                 1.094          -DE/DX =    0.0                 !
 ! A1    A(2,1,3)              112.6426         -DE/DX =    0.0                 !
 ! A2    A(2,1,4)              111.799          -DE/DX =    0.0                 !
 ! A3    A(2,1,5)              106.0772         -DE/DX =    0.0                 !
 ! A4    A(3,1,4)              112.7556         -DE/DX =    0.0                 !
 ! A5    A(3,1,5)              106.6465         -DE/DX =    0.0                 !
 ! A6    A(4,1,5)              106.3378         -DE/DX =    0.0                 !
 ! A7    A(1,5,6)              119.683          -DE/DX =    0.0                 !
 ! A8    A(1,5,8)              117.8132         -DE/DX =    0.0                 !
 ! A9    A(6,5,8)              112.3187         -DE/DX =    0.0                 !
 ! A10   A(5,6,7)              109.7581         -DE/DX =    0.0                 !
 ! A11   A(5,6,10)             106.8124         -DE/DX =    0.0                 !
 ! A12   A(5,6,11)             106.0289         -DE/DX =    0.0                 !
 ! A13   A(7,6,10)             112.9295         -DE/DX =    0.0                 !
 ! A14   A(7,6,11)             111.9185         -DE/DX =    0.0                 !
 ! A15   A(10,6,11)            109.0408         -DE/DX =    0.0                 !
 ! A16   A(6,7,12)             108.4743         -DE/DX =    0.0                 !
 ! A17   A(6,7,13)             110.5673         -DE/DX =    0.0                 !
 ! A18   A(6,7,14)             111.9233         -DE/DX =    0.0                 !
 ! A19   A(12,7,13)            108.627          -DE/DX =    0.0                 !
 ! A20   A(12,7,14)            108.0377         -DE/DX =    0.0                 !
 ! A21   A(13,7,14)            109.1216         -DE/DX =    0.0                 !
 ! A22   A(5,8,9)              112.1518         -DE/DX =    0.0                 !
 ! A23   A(5,8,15)             106.8856         -DE/DX =    0.0                 !
 ! A24   A(5,8,16)             104.9885         -DE/DX =    0.0                 !
 ! A25   A(9,8,15)             112.4876         -DE/DX =    0.0                 !
 ! A26   A(9,8,16)             110.5064         -DE/DX =    0.0                 !
 ! A27   A(15,8,16)            109.487          -DE/DX =    0.0                 !
 ! A28   A(8,9,17)             107.1099         -DE/DX =    0.0                 !
 ! A29   A(8,9,18)             110.9609         -DE/DX =    0.0                 !
 ! A30   A(8,9,19)             112.2748         -DE/DX =    0.0                 !
 ! A31   A(17,9,18)            108.5627         -DE/DX =    0.0                 !
 ! A32   A(17,9,19)            108.3542         -DE/DX =    0.0                 !
 ! A33   A(18,9,19)            109.4531         -DE/DX =    0.0                 !
 ! D1    D(2,1,5,6)           -140.2265         -DE/DX =    0.0                 !
 ! D2    D(2,1,5,8)             77.1272         -DE/DX =    0.0                 !
 ! D3    D(3,1,5,6)             99.4854         -DE/DX =    0.0                 !
 ! D4    D(3,1,5,8)            -43.1609         -DE/DX =    0.0                 !
 ! D5    D(4,1,5,6)            -21.0691         -DE/DX =    0.0                 !
 ! D6    D(4,1,5,8)           -163.7154         -DE/DX =    0.0                 !
 ! D7    D(1,5,6,7)            125.5013         -DE/DX =    0.0                 !
 ! D8    D(1,5,6,10)          -111.748          -DE/DX =    0.0                 !
 ! D9    D(1,5,6,11)             4.4453         -DE/DX =    0.0                 !
 ! D10   D(8,5,6,7)            -89.9561         -DE/DX =    0.0                 !
 ! D11   D(8,5,6,10)            32.7946         -DE/DX =    0.0                 !
 ! D12   D(8,5,6,11)           148.9879         -DE/DX =    0.0                 !
 ! D13   D(1,5,8,9)            -57.2874         -DE/DX =    0.0                 !
 ! D14   D(1,5,8,15)            66.4337         -DE/DX =    0.0                 !
 ! D15   D(1,5,8,16)          -177.3237         -DE/DX =    0.0                 !
 ! D16   D(6,5,8,9)            157.4492         -DE/DX =    0.0                 !
 ! D17   D(6,5,8,15)           -78.8297         -DE/DX =    0.0                 !
 ! D18   D(6,5,8,16)            37.4128         -DE/DX =    0.0                 !
 ! D19   D(5,6,7,12)           179.7798         -DE/DX =    0.0                 !
 ! D20   D(5,6,7,13)           -61.2047         -DE/DX =    0.0                 !
 ! D21   D(5,6,7,14)            60.6769         -DE/DX =    0.0                 !
 ! D22   D(10,6,7,12)           60.7249         -DE/DX =    0.0                 !
 ! D23   D(10,6,7,13)          179.7405         -DE/DX =    0.0                 !
 ! D24   D(10,6,7,14)          -58.3779         -DE/DX =    0.0                 !
 ! D25   D(11,6,7,12)          -62.7825         -DE/DX =    0.0                 !
 ! D26   D(11,6,7,13)           56.2331         -DE/DX =    0.0                 !
 ! D27   D(11,6,7,14)          178.1147         -DE/DX =    0.0                 !
 ! D28   D(5,8,9,17)          -173.5193         -DE/DX =    0.0                 !
 ! D29   D(5,8,9,18)           -55.1853         -DE/DX =    0.0                 !
 ! D30   D(5,8,9,19)            67.6558         -DE/DX =    0.0                 !
 ! D31   D(15,8,9,17)           65.9535         -DE/DX =    0.0                 !
 ! D32   D(15,8,9,18)         -175.7125         -DE/DX =    0.0                 !
 ! D33   D(15,8,9,19)          -52.8714         -DE/DX =    0.0                 !
 ! D34   D(16,8,9,17)          -56.7505         -DE/DX =    0.0                 !
 ! D35   D(16,8,9,18)           61.5835         -DE/DX =    0.0                 !
 ! D36   D(16,8,9,19)         -175.5753         -DE/DX =    0.0                 !
 --------------------------------------------------------------------------------
 GradGradGradGradGradGradGradGradGradGradGradGradGradGradGradGradGradGrad

                          Input orientation:                          
 ---------------------------------------------------------------------
 Center     Atomic      Atomic             Coordinates (Angstroms)
 Number     Number       Type             X           Y           Z
 ---------------------------------------------------------------------
      1          5           0       -1.761639    0.663965   -0.224322
      2          9           0       -1.547259    1.596291   -1.227794
      3          9           0       -2.118281    1.251056    0.984470
      4          9           0       -2.647689   -0.326040   -0.621901
      5          8           0       -0.364982   -0.055455    0.013607
      6          6           0       -0.324743   -1.505376    0.257629
      7          6           0        0.608034   -2.163820   -0.731037
      8          6           0        0.657654    0.668888    0.782908
      9          6           0        0.992893    2.005224    0.166782
     10          1           0       -0.010306   -1.642990    1.297908
     11          1           0       -1.349668   -1.857686    0.146543
     12          1           0        0.625206   -3.242063   -0.527930
     13          1           0        0.255340   -2.006341   -1.757011
     14          1           0        1.633660   -1.784904   -0.641463
     15          1           0        0.278606    0.762691    1.806918
     16          1           0        1.533005    0.013810    0.776585
     17          1           0        1.837764    2.418546    0.732103
     18          1           0        1.296710    1.889264   -0.879626
     19          1           0        0.159234    2.710920    0.228047
 ---------------------------------------------------------------------
                    Distance matrix (angstroms):
                    1          2          3          4          5
     1  B    0.000000
     2  F    1.386415   0.000000
     3  F    1.390341   2.310707   0.000000
     4  F    1.386818   2.296390   2.312560   0.000000
     5  O    1.588970   2.380571   2.392406   2.384919   0.000000
     6  C    2.646315   3.649844   3.367936   2.749634   1.470862
     7  C    3.724040   4.362394   4.694373   3.740198   2.438536
     8  C    2.620594   3.124842   2.843477   3.726750   1.470470
     9  C    3.088589   2.926507   3.304056   4.394389   2.472587
    10  H    3.272062   4.385697   3.594065   3.517928   2.072557
    11  H    2.581857   3.722607   3.310161   2.149722   2.057988
    12  H    4.587621   5.349681   5.477426   4.384503   3.380563
    13  H    3.680744   4.063052   4.874467   3.541111   2.706629
    14  H    4.207020   4.679157   5.092914   4.523120   2.722991
    15  H    2.880674   3.638427   2.580695   3.955718   2.073532
    16  H    3.504168   4.001226   3.860814   4.421478   2.046775
    17  H    4.116917   3.996959   4.132435   5.430044   3.389544
    18  H    3.359208   2.880141   3.942630   4.531256   2.709431
    19  H    2.843311   2.504794   2.808995   4.221890   2.823759
                    6          7          8          9         10
     6  C    0.000000
     7  C    1.510325   0.000000
     8  C    2.443040   3.212277   0.000000
     9  C    3.750830   4.281954   1.509235   0.000000
    10  H    1.095440   2.184085   2.460930   3.949091   0.000000
    11  H    1.089465   2.167132   3.289054   4.517751   1.779221
    12  H    2.129692   1.097340   4.124911   5.305831   2.508903
    13  H    2.155513   1.096273   3.710781   4.509725   3.087899
    14  H    2.172980   1.097046   3.000420   3.927966   2.546355
    15  H    2.812198   3.887699   1.095935   2.178105   2.475856
    16  H    2.455294   2.805453   1.093347   2.151584   2.323483
    17  H    4.505410   4.964987   2.111053   1.097374   4.497952
    18  H    3.930145   4.113860   2.159104   1.095775   4.350490
    19  H    4.244085   4.988421   2.173979   1.093958   4.486633
                   11         12         13         14         15
    11  H    0.000000
    12  H    2.504305   0.000000
    13  H    2.494327   1.781699   0.000000
    14  H    3.086502   1.775719   1.786966   0.000000
    15  H    3.503498   4.648624   4.513277   3.784308   0.000000
    16  H    3.494174   3.623060   3.483180   2.292676   1.787716
    17  H    5.365516   5.924565   5.317836   4.426888   2.515563
    18  H    4.700636   5.187015   4.126742   3.697266   3.085972
    19  H    4.812025   6.018857   5.118812   4.810656   2.510514
                   16         17         18         19
    16  H    0.000000
    17  H    2.424379   0.000000
    18  H    2.513205   1.780604   0.000000
    19  H    3.076124   1.776800   1.787710   0.000000
 Stoichiometry    C4H10BF3O
 Framework group  C1[X(C4H10BF3O)]
 Deg. of freedom    51
 Full point group                 C1      NOp   1
 Largest Abelian subgroup         C1      NOp   1
 Largest concise Abelian subgroup C1      NOp   1
                         Standard orientation:                         
 ---------------------------------------------------------------------
 Center     Atomic      Atomic             Coordinates (Angstroms)
 Number     Number       Type             X           Y           Z
 ---------------------------------------------------------------------
      1          5           0       -0.936966   -0.703694   -0.045189
      2          9           0       -1.564503   -0.271731   -1.203530
      3          9           0       -1.676515   -0.427205    1.099218
      4          9           0       -0.558212   -2.035060   -0.130470
      5          8           0        0.406728    0.136972    0.067033
      6          6           0        1.640739   -0.519787    0.524548
      7          6           0        2.739007   -0.306436   -0.490030
      8          6           0        0.308756    1.528186    0.533087
      9          6           0       -0.612091    2.354406   -0.331316
     10          1           0        1.879100   -0.097303    1.506730
     11          1           0        1.394521   -1.574589    0.641609
     12          1           0        3.648909   -0.800562   -0.126610
     13          1           0        2.462786   -0.747208   -1.455036
     14          1           0        2.964104    0.757800   -0.632310
     15          1           0       -0.018438    1.491430    1.578394
     16          1           0        1.330048    1.915433    0.483983
     17          1           0       -0.533755    3.393000    0.014251
     18          1           0       -0.305463    2.312454   -1.382478
     19          1           0       -1.656208    2.039983   -0.243550
 ---------------------------------------------------------------------
 Rotational constants (GHZ):           1.7490741           1.4179572           1.0071440

 **********************************************************************

            Population analysis using the SCF Density.

 **********************************************************************

 Orbital symmetries:
       Occupied  (A) (A) (A) (A) (A) (A) (A) (A) (A) (A) (A) (A)
                 (A) (A) (A) (A) (A) (A) (A) (A) (A) (A) (A) (A)
                 (A) (A) (A) (A) (A) (A) (A) (A) (A) (A) (A) (A)
                 (A)
       Virtual   (A) (A) (A) (A) (A) (A) (A) (A) (A) (A) (A) (A)
                 (A) (A) (A) (A) (A) (A) (A) (A) (A) (A) (A) (A)
                 (A) (A) (A) (A) (A) (A) (A) (A) (A) (A) (A) (A)
                 (A) (A) (A) (A) (A) (A) (A) (A) (A) (A) (A) (A)
                 (A) (A) (A) (A) (A) (A) (A) (A) (A) (A) (A) (A)
                 (A) (A) (A) (A) (A) (A) (A) (A) (A) (A) (A) (A)
                 (A) (A) (A) (A) (A) (A) (A) (A) (A) (A) (A) (A)
                 (A) (A) (A) (A) (A) (A) (A) (A) (A) (A) (A) (A)
                 (A) (A) (A) (A) (A) (A) (A) (A) (A) (A) (A) (A)
                 (A) (A) (A) (A) (A) (A) (A) (A) (A) (A) (A) (A)
                 (A) (A) (A) (A) (A) (A) (A) (A) (A) (A) (A) (A)
                 (A) (A) (A) (A) (A) (A) (A) (A) (A) (A) (A) (A)
                 (A) (A) (A) (A) (A) (A) (A) (A) (A) (A) (A) (A)
                 (A) (A) (A) (A) (A) (A) (A) (A) (A) (A) (A) (A)
                 (A) (A) (A) (A) (A) (A) (A) (A) (A) (A) (A) (A)
                 (A) (A) (A) (A) (A) (A) (A) (A) (A) (A) (A) (A)
                 (A) (A) (A) (A) (A) (A) (A) (A) (A) (A) (A) (A)
                 (A) (A) (A) (A) (A) (A) (A) (A) (A) (A) (A) (A)
                 (A) (A) (A) (A) (A) (A) (A) (A) (A) (A) (A) (A)
                 (A) (A) (A) (A) (A) (A) (A) (A) (A) (A) (A) (A)
                 (A) (A) (A) (A) (A) (A) (A) (A) (A) (A) (A) (A)
                 (A) (A) (A) (A) (A) (A) (A) (A)
 The electronic state is 1-A.
 Alpha  occ. eigenvalues --  -24.81434 -24.81143 -24.80874 -19.36071 -10.37488
 Alpha  occ. eigenvalues --  -10.37217 -10.30172 -10.29997  -6.99670  -1.32042
 Alpha  occ. eigenvalues --   -1.27713  -1.27357  -1.20736  -0.90221  -0.86330
 Alpha  occ. eigenvalues --   -0.75626  -0.74593  -0.67287  -0.63971  -0.62308
 Alpha  occ. eigenvalues --   -0.61033  -0.59145  -0.57826  -0.55315  -0.52610
 Alpha  occ. eigenvalues --   -0.51755  -0.51374  -0.50895  -0.48739  -0.48649
 Alpha  occ. eigenvalues --   -0.48637  -0.47264  -0.46811  -0.46353  -0.45317
 Alpha  occ. eigenvalues --   -0.44196  -0.41174
 Alpha virt. eigenvalues --    0.03796   0.04861   0.04948   0.05046   0.06868
 Alpha virt. eigenvalues --    0.06961   0.07145   0.07258   0.07561   0.09285
 Alpha virt. eigenvalues --    0.09578   0.09851   0.10975   0.11825   0.12866
 Alpha virt. eigenvalues --    0.13926   0.14537   0.15027   0.15146   0.15748
 Alpha virt. eigenvalues --    0.16532   0.17337   0.17631   0.18148   0.18458
 Alpha virt. eigenvalues --    0.18979   0.19596   0.19754   0.20476   0.20855
 Alpha virt. eigenvalues --    0.22793   0.22876   0.23578   0.24312   0.24758
 Alpha virt. eigenvalues --    0.25064   0.25873   0.26890   0.27592   0.28136
 Alpha virt. eigenvalues --    0.28925   0.29500   0.29952   0.31208   0.31688
 Alpha virt. eigenvalues --    0.31916   0.32816   0.33451   0.34144   0.35319
 Alpha virt. eigenvalues --    0.36344   0.36807   0.37580   0.38656   0.39066
 Alpha virt. eigenvalues --    0.39634   0.40473   0.40919   0.41347   0.41627
 Alpha virt. eigenvalues --    0.42389   0.42799   0.43089   0.43480   0.44039
 Alpha virt. eigenvalues --    0.44934   0.45724   0.46145   0.47547   0.47793
 Alpha virt. eigenvalues --    0.49830   0.50261   0.51093   0.51179   0.52329
 Alpha virt. eigenvalues --    0.53194   0.53542   0.54082   0.55087   0.55563
 Alpha virt. eigenvalues --    0.55744   0.56757   0.57214   0.58466   0.59302
 Alpha virt. eigenvalues --    0.59743   0.60439   0.61125   0.62230   0.63346
 Alpha virt. eigenvalues --    0.64257   0.64712   0.64918   0.65924   0.67070
 Alpha virt. eigenvalues --    0.68034   0.70028   0.70476   0.71444   0.71581
 Alpha virt. eigenvalues --    0.72517   0.73121   0.74076   0.74521   0.75839
 Alpha virt. eigenvalues --    0.76395   0.76864   0.78670   0.79118   0.79572
 Alpha virt. eigenvalues --    0.80698   0.82055   0.82836   0.83360   0.83851
 Alpha virt. eigenvalues --    0.86619   0.87534   0.88190   0.89215   0.91138
 Alpha virt. eigenvalues --    0.92571   0.94019   0.96293   0.97441   0.98708
 Alpha virt. eigenvalues --    1.00199   1.00835   1.04199   1.05036   1.06589
 Alpha virt. eigenvalues --    1.08485   1.09601   1.10782   1.12384   1.14426
 Alpha virt. eigenvalues --    1.15628   1.18229   1.21287   1.22371   1.25199
 Alpha virt. eigenvalues --    1.27100   1.30153   1.32195   1.33672   1.35056
 Alpha virt. eigenvalues --    1.35872   1.38685   1.38883   1.42226   1.42386
 Alpha virt. eigenvalues --    1.43510   1.44864   1.46673   1.47790   1.49403
 Alpha virt. eigenvalues --    1.49943   1.51731   1.53665   1.55226   1.57981
 Alpha virt. eigenvalues --    1.59957   1.61560   1.61970   1.63533   1.66089
 Alpha virt. eigenvalues --    1.66742   1.67802   1.69282   1.69492   1.71083
 Alpha virt. eigenvalues --    1.73589   1.74785   1.75051   1.76685   1.77686
 Alpha virt. eigenvalues --    1.78292   1.80163   1.81728   1.82507   1.83680
 Alpha virt. eigenvalues --    1.85813   1.87591   1.88330   1.90811   1.92258
 Alpha virt. eigenvalues --    1.93611   1.95988   1.97245   1.98466   1.99974
 Alpha virt. eigenvalues --    2.01708   2.02757   2.03799   2.05638   2.07367
 Alpha virt. eigenvalues --    2.07736   2.09570   2.10583   2.11756   2.12753
 Alpha virt. eigenvalues --    2.15507   2.17078   2.20059   2.23474   2.26389
 Alpha virt. eigenvalues --    2.28854   2.30584   2.32161   2.33503   2.35141
 Alpha virt. eigenvalues --    2.37877   2.39534   2.40329   2.41442   2.47225
 Alpha virt. eigenvalues --    2.47294   2.49073   2.52322   2.54957   2.55944
 Alpha virt. eigenvalues --    2.58501   2.61338   2.63986   2.65366   2.68013
 Alpha virt. eigenvalues --    2.72062   2.73170   2.76030   2.83044   2.84563
 Alpha virt. eigenvalues --    2.86546   2.88579   2.94166   2.99286   3.06892
 Alpha virt. eigenvalues --    3.07309   3.15671   3.20238   3.36428   3.62023
 Alpha virt. eigenvalues --    3.67384   3.70052   3.74055   3.90164   3.98045
 Alpha virt. eigenvalues --    4.61346   4.63630   4.65872   4.66348   4.68128
 Alpha virt. eigenvalues --    4.70271   4.72475   4.74437   4.75155   4.79276
 Alpha virt. eigenvalues --    4.81235   4.83740   4.86433   4.92208   4.94345
          Condensed to atoms (all electrons):
               1          2          3          4          5          6
     1  B    3.555946  -0.023380   0.063827   0.137219  -0.353454  -0.094846
     2  F   -0.023380   9.606811  -0.104471  -0.173952   0.292152   0.019946
     3  F    0.063827  -0.104471   9.729656  -0.144767   0.026544  -0.056494
     4  F    0.137219  -0.173952  -0.144767   9.999258  -0.153193  -0.097656
     5  O   -0.353454   0.292152   0.026544  -0.153193  10.081799   0.112334
     6  C   -0.094846   0.019946  -0.056494  -0.097656   0.112334   4.991995
     7  C   -0.028200   0.016900   0.001595   0.001209  -0.022529   0.233259
     8  C    0.047305  -0.110121   0.029661   0.021821  -0.105598  -0.056426
     9  C   -0.001214   0.015725  -0.034619   0.017358  -0.066807  -0.079041
    10  H    0.037282  -0.005998  -0.002226  -0.001723  -0.145170   0.005802
    11  H    0.022969   0.020520   0.003334  -0.090430  -0.321076   0.176906
    12  H    0.004497   0.001801   0.000573  -0.001717   0.132745   0.098775
    13  H    0.010009  -0.000914  -0.000380  -0.000259  -0.092931  -0.073659
    14  H   -0.016712   0.001639  -0.000948  -0.007051  -0.182971  -0.083324
    15  H    0.045536   0.007699   0.031525   0.016245  -0.055371   0.011634
    16  H    0.009041  -0.007190  -0.002072  -0.000689  -0.168826  -0.098250
    17  H    0.005710   0.001752   0.002475  -0.000045   0.061363   0.002227
    18  H    0.016610   0.006536  -0.002016   0.007075  -0.110799  -0.043936
    19  H    0.046550  -0.026512   0.033318   0.010758  -0.124689  -0.016756
               7          8          9         10         11         12
     1  B   -0.028200   0.047305  -0.001214   0.037282   0.022969   0.004497
     2  F    0.016900  -0.110121   0.015725  -0.005998   0.020520   0.001801
     3  F    0.001595   0.029661  -0.034619  -0.002226   0.003334   0.000573
     4  F    0.001209   0.021821   0.017358  -0.001723  -0.090430  -0.001717
     5  O   -0.022529  -0.105598  -0.066807  -0.145170  -0.321076   0.132745
     6  C    0.233259  -0.056426  -0.079041   0.005802   0.176906   0.098775
     7  C    4.466652  -0.025855   0.013247  -0.102084  -0.063222   0.267222
     8  C   -0.025855   5.029526   0.188815   0.029527  -0.026322  -0.028721
     9  C    0.013247   0.188815   4.658796   0.076211  -0.034365  -0.000444
    10  H   -0.102084   0.029527   0.076211   1.668490  -0.366747  -0.111935
    11  H   -0.063222  -0.026322  -0.034365  -0.366747   2.211120  -0.085682
    12  H    0.267222  -0.028721  -0.000444  -0.111935  -0.085682   1.404855
    13  H    0.305284   0.027811   0.013026   0.118590  -0.125472  -0.259442
    14  H    0.361010   0.006879  -0.024099  -0.077682   0.138777  -0.273854
    15  H    0.004539  -0.160056  -0.097077  -0.027290  -0.012287  -0.001578
    16  H    0.030543   0.002026  -0.070170   0.030761   0.006737  -0.000139
    17  H   -0.001778   0.106476   0.234525  -0.003776   0.000171  -0.000275
    18  H    0.009060  -0.119848   0.387955   0.007822  -0.011131  -0.000812
    19  H   -0.000485   0.015072   0.268022   0.007749  -0.001179  -0.000484
              13         14         15         16         17         18
     1  B    0.010009  -0.016712   0.045536   0.009041   0.005710   0.016610
     2  F   -0.000914   0.001639   0.007699  -0.007190   0.001752   0.006536
     3  F   -0.000380  -0.000948   0.031525  -0.002072   0.002475  -0.002016
     4  F   -0.000259  -0.007051   0.016245  -0.000689  -0.000045   0.007075
     5  O   -0.092931  -0.182971  -0.055371  -0.168826   0.061363  -0.110799
     6  C   -0.073659  -0.083324   0.011634  -0.098250   0.002227  -0.043936
     7  C    0.305284   0.361010   0.004539   0.030543  -0.001778   0.009060
     8  C    0.027811   0.006879  -0.160056   0.002026   0.106476  -0.119848
     9  C    0.013026  -0.024099  -0.097077  -0.070170   0.234525   0.387955
    10  H    0.118590  -0.077682  -0.027290   0.030761  -0.003776   0.007822
    11  H   -0.125472   0.138777  -0.012287   0.006737   0.000171  -0.011131
    12  H   -0.259442  -0.273854  -0.001578  -0.000139  -0.000275  -0.000812
    13  H    1.419666  -0.200589   0.001176  -0.009901  -0.000534   0.007784
    14  H   -0.200589   1.526011  -0.001389   0.040114   0.001347  -0.008428
    15  H    0.001176  -0.001389   2.087085  -0.386642  -0.098506   0.140181
    16  H   -0.009901   0.040114  -0.386642   2.193471  -0.071147  -0.151198
    17  H   -0.000534   0.001347  -0.098506  -0.071147   1.406357  -0.246126
    18  H    0.007784  -0.008428   0.140181  -0.151198  -0.246126   1.531922
    19  H    0.000244   0.000358  -0.127464   0.110106  -0.263227  -0.291844
              19
     1  B    0.046550
     2  F   -0.026512
     3  F    0.033318
     4  F    0.010758
     5  O   -0.124689
     6  C   -0.016756
     7  C   -0.000485
     8  C    0.015072
     9  C    0.268022
    10  H    0.007749
    11  H   -0.001179
    12  H   -0.000484
    13  H    0.000244
    14  H    0.000358
    15  H   -0.127464
    16  H    0.110106
    17  H   -0.263227
    18  H   -0.291844
    19  H    1.498105
 Mulliken charges:
               1
     1  B    1.515303
     2  F   -0.538942
     3  F   -0.574516
     4  F   -0.539462
     5  O   -0.803523
     6  C    1.047507
     7  C    0.533635
     8  C    1.128029
     9  C    0.534154
    10  H   -0.137604
    11  H   -0.442622
    12  H   -0.145386
    13  H   -0.139509
    14  H   -0.199090
    15  H   -0.377960
    16  H   -0.456575
    17  H   -0.136991
    18  H   -0.128807
    19  H   -0.137642
 Sum of Mulliken charges =  -0.00000
 Mulliken charges with hydrogens summed into heavy atoms:
               1
     1  B    1.515303
     2  F   -0.538942
     3  F   -0.574516
     4  F   -0.539462
     5  O   -0.803523
     6  C    0.467282
     7  C    0.049650
     8  C    0.293494
     9  C    0.130714
 Electronic spatial extent (au):  <R**2>=           1262.7532
 Charge=             -0.0000 electrons
 Dipole moment (field-independent basis, Debye):
    X=              6.6041    Y=              4.2623    Z=              1.6539  Tot=              8.0323
 Quadrupole moment (field-independent basis, Debye-Ang):
   XX=            -52.0317   YY=            -51.1750   ZZ=            -54.9680
   XY=             -3.2917   XZ=              1.2167   YZ=              0.5445
 Traceless Quadrupole moment (field-independent basis, Debye-Ang):
   XX=              0.6932   YY=              1.5499   ZZ=             -2.2431
   XY=             -3.2917   XZ=              1.2167   YZ=              0.5445
 Octapole moment (field-independent basis, Debye-Ang**2):
  XXX=              9.1118  YYY=              9.9071  ZZZ=              2.2456  XYY=              0.1098
  XXY=             -4.5638  XXZ=              1.6143  XZZ=              3.2941  YZZ=             -1.8896
  YYZ=              2.8558  XYZ=             -0.6279
 Hexadecapole moment (field-independent basis, Debye-Ang**3):
 XXXX=           -714.8239 YYYY=           -569.9753 ZZZZ=           -200.7647 XXXY=             -0.1169
 XXXZ=              8.1243 YYYX=              4.6443 YYYZ=              3.1353 ZZZX=              1.8536
 ZZZY=              3.3246 XXYY=           -214.0085 XXZZ=           -167.3382 YYZZ=           -129.3217
 XXYZ=              0.0649 YYXZ=              1.5297 ZZXY=              0.4487
 N-N= 5.238307839320D+02 E-N=-2.364217821508D+03  KE= 5.547992118689D+02
 Unable to Open any file for archive entry.
 1\1\GINC-B-DFT-4--7AE12935D740-YDFUZAEKBB\FOpt\RwB97XD\Aug-CC-pVDZ\C4H
 10B1F3O1\ROOT\24-May-2026\0\\# nmr=giao wb97xd/aug-cc-pvdz opt freq in
 tegral=(acc2e=12,grid=ultrafine) scrf=(cpcm,solvent=dmso)\\BF3OEt2_DMS
 O-d6 | solvent model: DMSO-d6 as DMSO\\0,1\B,-1.7616390763,0.663964819
 6,-0.2243220214\F,-1.5472591492,1.5962905343,-1.2277944261\F,-2.118281
 0166,1.2510559938,0.9844702099\F,-2.6476893678,-0.3260398197,-0.621901
 0852\O,-0.3649820274,-0.0554550839,0.0136066434\C,-0.3247426575,-1.505
 3755881,0.2576286294\C,0.6080336253,-2.1638198699,-0.7310369884\C,0.65
 76537821,0.6688881956,0.7829076975\C,0.9928925979,2.0052244367,0.16678
 22077\H,-0.0103058023,-1.6429895307,1.2979081807\H,-1.3496679363,-1.85
 76858802,0.1465434686\H,0.6252063966,-3.2420631408,-0.5279297292\H,0.2
 553399539,-2.0063411547,-1.7570108442\H,1.6336597522,-1.7849044216,-0.
 6414631508\H,0.2786061544,0.7626912917,1.8069183224\H,1.5330052333,0.0
 13810115,0.7765846406\H,1.8377643049,2.4185460551,0.732102728\H,1.2967
 098658,1.8892644057,-0.8796261489\H,0.1592343668,2.710919642,0.2280466
 661\\Version=ES64L-G16RevC.01\State=1-A\HF=-558.1521813\RMSD=6.665e-09
 \RMSF=5.782e-06\Dipole=2.6712073,-1.4325405,0.8938415\Quadrupole=-1.54
 90393,2.9245206,-1.3754812,1.216343,1.0569736,0.3741991\PG=C01 [X(C4H1
 0B1F3O1)]\\@
 The archive entry for this job was punched.


 EXPERIENCE IS THE FRUIT OF THE TREE OF ERRORS.
 Job cpu time:       0 days  4 hours 21 minutes 11.2 seconds.
 Elapsed time:       0 days  0 hours 13 minutes 23.4 seconds.
 File lengths (MBytes):  RWF=    304 Int=      0 D2E=      0 Chk=     32 Scr=     32
 Normal termination of Gaussian 16 at Sun May 24 17:26:01 2026.
 Link1:  Proceeding to internal job step number  2.
 ----------------------------------------------------------------------
 #N Geom=AllCheck Guess=TCheck SCRF=Check GenChk RwB97XD/Aug-CC-pVDZ Fr
 eq
 ----------------------------------------------------------------------
 1/10=4,29=7,30=1,38=1,40=1/1,3;
 2/12=2,40=1/2;
 3/5=16,7=10,11=2,14=-4,25=1,27=12,30=1,36=2,70=2,71=2,74=-58,75=-5,116=1,140=1/1,2,3;
 4/5=101/1;
 5/5=2,38=6,87=12,98=1/2;
 8/6=4,10=90,11=11,87=12/1;
 10/15=4,46=1,87=12/2;
 11/6=1,8=1,9=11,15=111,16=1,87=12/1,2,10;
 10/6=1,46=1,87=12/2;
 6/7=2,8=2,9=2,10=2,28=1,87=12/1;
 7/8=1,10=1,25=1,87=12/1,2,3,16;
 1/10=4,30=1/3;
 99//99;
 Structure from the checkpoint file:  "/inspire/hdd/project/materialscienceresearch/lipenghui-253107030018/g16/00-B-DFT-Shift/04-output/BF3OEt2_DMSO-d6/BF3OEt2_DMSO-d6.chk"
 ------------------------------------------------
 BF3OEt2_DMSO-d6 | solvent model: DMSO-d6 as DMSO
 ------------------------------------------------
 Charge =  0 Multiplicity = 1
 Redundant internal coordinates found in file.  (old form).
 B,0,-1.7616390763,0.6639648196,-0.2243220214
 F,0,-1.5472591492,1.5962905343,-1.2277944261
 F,0,-2.1182810166,1.2510559938,0.9844702099
 F,0,-2.6476893678,-0.3260398197,-0.6219010852
 O,0,-0.3649820274,-0.0554550839,0.0136066434
 C,0,-0.3247426575,-1.5053755881,0.2576286294
 C,0,0.6080336253,-2.1638198699,-0.7310369884
 C,0,0.6576537821,0.6688881956,0.7829076975
 C,0,0.9928925979,2.0052244367,0.1667822077
 H,0,-0.0103058023,-1.6429895307,1.2979081807
 H,0,-1.3496679363,-1.8576858802,0.1465434686
 H,0,0.6252063966,-3.2420631408,-0.5279297292
 H,0,0.2553399539,-2.0063411547,-1.7570108442
 H,0,1.6336597522,-1.7849044216,-0.6414631508
 H,0,0.2786061544,0.7626912917,1.8069183224
 H,0,1.5330052333,0.013810115,0.7765846406
 H,0,1.8377643049,2.4185460551,0.732102728
 H,0,1.2967098658,1.8892644057,-0.8796261489
 H,0,0.1592343668,2.710919642,0.2280466661
 Recover connectivity data from disk.

 GradGradGradGradGradGradGradGradGradGradGradGradGradGradGradGradGradGrad
 Berny optimization.
 Initialization pass.
                           ----------------------------
                           !    Initial Parameters    !
                           ! (Angstroms and Degrees)  !
 --------------------------                            --------------------------
 ! Name  Definition              Value          Derivative Info.                !
 --------------------------------------------------------------------------------
 ! R1    R(1,2)                  1.3864         calculate D2E/DX2 analytically  !
 ! R2    R(1,3)                  1.3903         calculate D2E/DX2 analytically  !
 ! R3    R(1,4)                  1.3868         calculate D2E/DX2 analytically  !
 ! R4    R(1,5)                  1.589          calculate D2E/DX2 analytically  !
 ! R5    R(5,6)                  1.4709         calculate D2E/DX2 analytically  !
 ! R6    R(5,8)                  1.4705         calculate D2E/DX2 analytically  !
 ! R7    R(6,7)                  1.5103         calculate D2E/DX2 analytically  !
 ! R8    R(6,10)                 1.0954         calculate D2E/DX2 analytically  !
 ! R9    R(6,11)                 1.0895         calculate D2E/DX2 analytically  !
 ! R10   R(7,12)                 1.0973         calculate D2E/DX2 analytically  !
 ! R11   R(7,13)                 1.0963         calculate D2E/DX2 analytically  !
 ! R12   R(7,14)                 1.097          calculate D2E/DX2 analytically  !
 ! R13   R(8,9)                  1.5092         calculate D2E/DX2 analytically  !
 ! R14   R(8,15)                 1.0959         calculate D2E/DX2 analytically  !
 ! R15   R(8,16)                 1.0933         calculate D2E/DX2 analytically  !
 ! R16   R(9,17)                 1.0974         calculate D2E/DX2 analytically  !
 ! R17   R(9,18)                 1.0958         calculate D2E/DX2 analytically  !
 ! R18   R(9,19)                 1.094          calculate D2E/DX2 analytically  !
 ! A1    A(2,1,3)              112.6426         calculate D2E/DX2 analytically  !
 ! A2    A(2,1,4)              111.799          calculate D2E/DX2 analytically  !
 ! A3    A(2,1,5)              106.0772         calculate D2E/DX2 analytically  !
 ! A4    A(3,1,4)              112.7556         calculate D2E/DX2 analytically  !
 ! A5    A(3,1,5)              106.6465         calculate D2E/DX2 analytically  !
 ! A6    A(4,1,5)              106.3378         calculate D2E/DX2 analytically  !
 ! A7    A(1,5,6)              119.683          calculate D2E/DX2 analytically  !
 ! A8    A(1,5,8)              117.8132         calculate D2E/DX2 analytically  !
 ! A9    A(6,5,8)              112.3187         calculate D2E/DX2 analytically  !
 ! A10   A(5,6,7)              109.7581         calculate D2E/DX2 analytically  !
 ! A11   A(5,6,10)             106.8124         calculate D2E/DX2 analytically  !
 ! A12   A(5,6,11)             106.0289         calculate D2E/DX2 analytically  !
 ! A13   A(7,6,10)             112.9295         calculate D2E/DX2 analytically  !
 ! A14   A(7,6,11)             111.9185         calculate D2E/DX2 analytically  !
 ! A15   A(10,6,11)            109.0408         calculate D2E/DX2 analytically  !
 ! A16   A(6,7,12)             108.4743         calculate D2E/DX2 analytically  !
 ! A17   A(6,7,13)             110.5673         calculate D2E/DX2 analytically  !
 ! A18   A(6,7,14)             111.9233         calculate D2E/DX2 analytically  !
 ! A19   A(12,7,13)            108.627          calculate D2E/DX2 analytically  !
 ! A20   A(12,7,14)            108.0377         calculate D2E/DX2 analytically  !
 ! A21   A(13,7,14)            109.1216         calculate D2E/DX2 analytically  !
 ! A22   A(5,8,9)              112.1518         calculate D2E/DX2 analytically  !
 ! A23   A(5,8,15)             106.8856         calculate D2E/DX2 analytically  !
 ! A24   A(5,8,16)             104.9885         calculate D2E/DX2 analytically  !
 ! A25   A(9,8,15)             112.4876         calculate D2E/DX2 analytically  !
 ! A26   A(9,8,16)             110.5064         calculate D2E/DX2 analytically  !
 ! A27   A(15,8,16)            109.487          calculate D2E/DX2 analytically  !
 ! A28   A(8,9,17)             107.1099         calculate D2E/DX2 analytically  !
 ! A29   A(8,9,18)             110.9609         calculate D2E/DX2 analytically  !
 ! A30   A(8,9,19)             112.2748         calculate D2E/DX2 analytically  !
 ! A31   A(17,9,18)            108.5627         calculate D2E/DX2 analytically  !
 ! A32   A(17,9,19)            108.3542         calculate D2E/DX2 analytically  !
 ! A33   A(18,9,19)            109.4531         calculate D2E/DX2 analytically  !
 ! D1    D(2,1,5,6)           -140.2265         calculate D2E/DX2 analytically  !
 ! D2    D(2,1,5,8)             77.1272         calculate D2E/DX2 analytically  !
 ! D3    D(3,1,5,6)             99.4854         calculate D2E/DX2 analytically  !
 ! D4    D(3,1,5,8)            -43.1609         calculate D2E/DX2 analytically  !
 ! D5    D(4,1,5,6)            -21.0691         calculate D2E/DX2 analytically  !
 ! D6    D(4,1,5,8)           -163.7154         calculate D2E/DX2 analytically  !
 ! D7    D(1,5,6,7)            125.5013         calculate D2E/DX2 analytically  !
 ! D8    D(1,5,6,10)          -111.748          calculate D2E/DX2 analytically  !
 ! D9    D(1,5,6,11)             4.4453         calculate D2E/DX2 analytically  !
 ! D10   D(8,5,6,7)            -89.9561         calculate D2E/DX2 analytically  !
 ! D11   D(8,5,6,10)            32.7946         calculate D2E/DX2 analytically  !
 ! D12   D(8,5,6,11)           148.9879         calculate D2E/DX2 analytically  !
 ! D13   D(1,5,8,9)            -57.2874         calculate D2E/DX2 analytically  !
 ! D14   D(1,5,8,15)            66.4337         calculate D2E/DX2 analytically  !
 ! D15   D(1,5,8,16)          -177.3237         calculate D2E/DX2 analytically  !
 ! D16   D(6,5,8,9)            157.4492         calculate D2E/DX2 analytically  !
 ! D17   D(6,5,8,15)           -78.8297         calculate D2E/DX2 analytically  !
 ! D18   D(6,5,8,16)            37.4128         calculate D2E/DX2 analytically  !
 ! D19   D(5,6,7,12)           179.7798         calculate D2E/DX2 analytically  !
 ! D20   D(5,6,7,13)           -61.2047         calculate D2E/DX2 analytically  !
 ! D21   D(5,6,7,14)            60.6769         calculate D2E/DX2 analytically  !
 ! D22   D(10,6,7,12)           60.7249         calculate D2E/DX2 analytically  !
 ! D23   D(10,6,7,13)          179.7405         calculate D2E/DX2 analytically  !
 ! D24   D(10,6,7,14)          -58.3779         calculate D2E/DX2 analytically  !
 ! D25   D(11,6,7,12)          -62.7825         calculate D2E/DX2 analytically  !
 ! D26   D(11,6,7,13)           56.2331         calculate D2E/DX2 analytically  !
 ! D27   D(11,6,7,14)          178.1147         calculate D2E/DX2 analytically  !
 ! D28   D(5,8,9,17)          -173.5193         calculate D2E/DX2 analytically  !
 ! D29   D(5,8,9,18)           -55.1853         calculate D2E/DX2 analytically  !
 ! D30   D(5,8,9,19)            67.6558         calculate D2E/DX2 analytically  !
 ! D31   D(15,8,9,17)           65.9535         calculate D2E/DX2 analytically  !
 ! D32   D(15,8,9,18)         -175.7125         calculate D2E/DX2 analytically  !
 ! D33   D(15,8,9,19)          -52.8714         calculate D2E/DX2 analytically  !
 ! D34   D(16,8,9,17)          -56.7505         calculate D2E/DX2 analytically  !
 ! D35   D(16,8,9,18)           61.5835         calculate D2E/DX2 analytically  !
 ! D36   D(16,8,9,19)         -175.5753         calculate D2E/DX2 analytically  !
 --------------------------------------------------------------------------------
 Trust Radius=3.00D-01 FncErr=1.00D-07 GrdErr=1.00D-07 EigMax=2.50D+02 EigMin=1.00D-04
 Number of steps in this run=      2 maximum allowed number of steps=      2.
 GradGradGradGradGradGradGradGradGradGradGradGradGradGradGradGradGradGrad

                          Input orientation:                          
 ---------------------------------------------------------------------
 Center     Atomic      Atomic             Coordinates (Angstroms)
 Number     Number       Type             X           Y           Z
 ---------------------------------------------------------------------
      1          5           0       -1.761639    0.663965   -0.224322
      2          9           0       -1.547259    1.596291   -1.227794
      3          9           0       -2.118281    1.251056    0.984470
      4          9           0       -2.647689   -0.326040   -0.621901
      5          8           0       -0.364982   -0.055455    0.013607
      6          6           0       -0.324743   -1.505376    0.257629
      7          6           0        0.608034   -2.163820   -0.731037
      8          6           0        0.657654    0.668888    0.782908
      9          6           0        0.992893    2.005224    0.166782
     10          1           0       -0.010306   -1.642990    1.297908
     11          1           0       -1.349668   -1.857686    0.146543
     12          1           0        0.625206   -3.242063   -0.527930
     13          1           0        0.255340   -2.006341   -1.757011
     14          1           0        1.633660   -1.784904   -0.641463
     15          1           0        0.278606    0.762691    1.806918
     16          1           0        1.533005    0.013810    0.776585
     17          1           0        1.837764    2.418546    0.732103
     18          1           0        1.296710    1.889264   -0.879626
     19          1           0        0.159234    2.710920    0.228047
 ---------------------------------------------------------------------
                    Distance matrix (angstroms):
                    1          2          3          4          5
     1  B    0.000000
     2  F    1.386415   0.000000
     3  F    1.390341   2.310707   0.000000
     4  F    1.386818   2.296390   2.312560   0.000000
     5  O    1.588970   2.380571   2.392406   2.384919   0.000000
     6  C    2.646315   3.649844   3.367936   2.749634   1.470862
     7  C    3.724040   4.362394   4.694373   3.740198   2.438536
     8  C    2.620594   3.124842   2.843477   3.726750   1.470470
     9  C    3.088589   2.926507   3.304056   4.394389   2.472587
    10  H    3.272062   4.385697   3.594065   3.517928   2.072557
    11  H    2.581857   3.722607   3.310161   2.149722   2.057988
    12  H    4.587621   5.349681   5.477426   4.384503   3.380563
    13  H    3.680744   4.063052   4.874467   3.541111   2.706629
    14  H    4.207020   4.679157   5.092914   4.523120   2.722991
    15  H    2.880674   3.638427   2.580695   3.955718   2.073532
    16  H    3.504168   4.001226   3.860814   4.421478   2.046775
    17  H    4.116917   3.996959   4.132435   5.430044   3.389544
    18  H    3.359208   2.880141   3.942630   4.531256   2.709431
    19  H    2.843311   2.504794   2.808995   4.221890   2.823759
                    6          7          8          9         10
     6  C    0.000000
     7  C    1.510325   0.000000
     8  C    2.443040   3.212277   0.000000
     9  C    3.750830   4.281954   1.509235   0.000000
    10  H    1.095440   2.184085   2.460930   3.949091   0.000000
    11  H    1.089465   2.167132   3.289054   4.517751   1.779221
    12  H    2.129692   1.097340   4.124911   5.305831   2.508903
    13  H    2.155513   1.096273   3.710781   4.509725   3.087899
    14  H    2.172980   1.097046   3.000420   3.927966   2.546355
    15  H    2.812198   3.887699   1.095935   2.178105   2.475856
    16  H    2.455294   2.805453   1.093347   2.151584   2.323483
    17  H    4.505410   4.964987   2.111053   1.097374   4.497952
    18  H    3.930145   4.113860   2.159104   1.095775   4.350490
    19  H    4.244085   4.988421   2.173979   1.093958   4.486633
                   11         12         13         14         15
    11  H    0.000000
    12  H    2.504305   0.000000
    13  H    2.494327   1.781699   0.000000
    14  H    3.086502   1.775719   1.786966   0.000000
    15  H    3.503498   4.648624   4.513277   3.784308   0.000000
    16  H    3.494174   3.623060   3.483180   2.292676   1.787716
    17  H    5.365516   5.924565   5.317836   4.426888   2.515563
    18  H    4.700636   5.187015   4.126742   3.697266   3.085972
    19  H    4.812025   6.018857   5.118812   4.810656   2.510514
                   16         17         18         19
    16  H    0.000000
    17  H    2.424379   0.000000
    18  H    2.513205   1.780604   0.000000
    19  H    3.076124   1.776800   1.787710   0.000000
 Stoichiometry    C4H10BF3O
 Framework group  C1[X(C4H10BF3O)]
 Deg. of freedom    51
 Full point group                 C1      NOp   1
 Largest Abelian subgroup         C1      NOp   1
 Largest concise Abelian subgroup C1      NOp   1
                         Standard orientation:                         
 ---------------------------------------------------------------------
 Center     Atomic      Atomic             Coordinates (Angstroms)
 Number     Number       Type             X           Y           Z
 ---------------------------------------------------------------------
      1          5           0       -0.936966   -0.703694   -0.045189
      2          9           0       -1.564503   -0.271731   -1.203530
      3          9           0       -1.676515   -0.427205    1.099218
      4          9           0       -0.558212   -2.035060   -0.130470
      5          8           0        0.406728    0.136972    0.067033
      6          6           0        1.640739   -0.519787    0.524548
      7          6           0        2.739007   -0.306436   -0.490030
      8          6           0        0.308756    1.528186    0.533087
      9          6           0       -0.612091    2.354406   -0.331316
     10          1           0        1.879100   -0.097303    1.506730
     11          1           0        1.394521   -1.574589    0.641609
     12          1           0        3.648909   -0.800562   -0.126610
     13          1           0        2.462786   -0.747208   -1.455036
     14          1           0        2.964104    0.757800   -0.632310
     15          1           0       -0.018438    1.491430    1.578394
     16          1           0        1.330048    1.915433    0.483983
     17          1           0       -0.533755    3.393000    0.014251
     18          1           0       -0.305463    2.312454   -1.382478
     19          1           0       -1.656208    2.039983   -0.243550
 ---------------------------------------------------------------------
 Rotational constants (GHZ):           1.7490741           1.4179572           1.0071440
 Standard basis: Aug-CC-pVDZ (5D, 7F)
 There are   315 symmetry adapted cartesian basis functions of A   symmetry.
 There are   297 symmetry adapted basis functions of A   symmetry.
   297 basis functions,   497 primitive gaussians,   315 cartesian basis functions
    37 alpha electrons       37 beta electrons
       nuclear repulsion energy       523.8428689076 Hartrees.
 NAtoms=   19 NActive=   19 NUniq=   19 SFac= 1.00D+00 NAtFMM=   60 NAOKFM=F Big=F
 Integral buffers will be    131072 words long.
 Raffenetti 2 integral format.
 Two-electron integral symmetry is turned on.
 Nuclear repulsion after empirical dispersion term =      523.8307839320 Hartrees.
 Force inversion solution in PCM.
 Force PCM accuracy= 1.00D-12.
 ------------------------------------------------------------------------------
 Polarizable Continuum Model (PCM)
 =================================
 Model                : C-PCM.
 Atomic radii         : UFF (Universal Force Field).
 Polarization charges : Total charges.
 Charge compensation  : None.
 Solution method      : Matrix inversion.
 Cavity type          : Scaled VdW (van der Waals Surface) (Alpha=1.100).
 Cavity algorithm     : GePol (No added spheres)
                        Default sphere list used, NSphG=   19.
                        Lebedev-Laikov grids with approx.  5.0 points / Ang**2.
                        Smoothing algorithm: York/Karplus (Gamma=1.0000).
                        Polarization charges: spherical gaussians, with
                                              point-specific exponents (IZeta= 3).
                        Self-potential: point-specific (ISelfS= 7).
                        Self-field    : sphere-specific E.n sum rule (ISelfD= 2).
 1st derivatives      : Analytical E(r).r(x)/FMM algorithm (CHGder, D1EAlg=3).
                        Cavity 1st derivative terms included.
 2nd derivatives      : Analytical E(r).r(xy)/FMM algorithm (CHGder, D2EAlg=3).
                        Cavity 2nd derivative terms included.
 Solvent              : DiMethylSulfoxide, Eps=  46.826000 Eps(inf)=   2.007889
 ------------------------------------------------------------------------------
 Spheres list:
 ISph  on   Nord     Re0    Alpha      Xe            Ye            Ze
    1   B      1    2.0415  1.100     -0.936966     -0.703694     -0.045189
    2   F      2    1.6820  1.100     -1.564503     -0.271731     -1.203530
    3   F      3    1.6820  1.100     -1.676515     -0.427205      1.099218
    4   F      4    1.6820  1.100     -0.558212     -2.035060     -0.130470
    5   O      5    1.7500  1.100      0.406728      0.136972      0.067033
    6   C      6    1.9255  1.100      1.640739     -0.519787      0.524548
    7   C      7    1.9255  1.100      2.739007     -0.306436     -0.490030
    8   C      8    1.9255  1.100      0.308756      1.528186      0.533087
    9   C      9    1.9255  1.100     -0.612091      2.354406     -0.331316
   10   H     10    1.4430  1.100      1.879100     -0.097303      1.506730
   11   H     11    1.4430  1.100      1.394521     -1.574589      0.641609
   12   H     12    1.4430  1.100      3.648909     -0.800562     -0.126610
   13   H     13    1.4430  1.100      2.462786     -0.747208     -1.455036
   14   H     14    1.4430  1.100      2.964104      0.757800     -0.632310
   15   H     15    1.4430  1.100     -0.018438      1.491430      1.578394
   16   H     16    1.4430  1.100      1.330048      1.915433      0.483983
   17   H     17    1.4430  1.100     -0.533755      3.393000      0.014251
   18   H     18    1.4430  1.100     -0.305463      2.312454     -1.382478
   19   H     19    1.4430  1.100     -1.656208      2.039983     -0.243550
 ------------------------------------------------------------------------------
 One-electron integrals computed using PRISM.
 NBasis=   297 RedAO= T EigKep=  2.73D-05  NBF=   297
 NBsUse=   297 1.00D-06 EigRej= -1.00D+00 NBFU=   297
 Initial guess from the checkpoint file:  "/inspire/hdd/project/materialscienceresearch/lipenghui-253107030018/g16/00-B-DFT-Shift/04-output/BF3OEt2_DMSO-d6/BF3OEt2_DMSO-d6.chk"
 B after Tr=     0.000000   -0.000000    0.000000
         Rot=    1.000000   -0.000000   -0.000000   -0.000000 Ang=   0.00 deg.
 Requested convergence on RMS density matrix=1.00D-08 within 128 cycles.
 Requested convergence on MAX density matrix=1.00D-06.
 Requested convergence on             energy=1.00D-06.
 No special actions if energy rises.
 Inv3:  Mode=1 IEnd=     7004352.
 Iteration    1 A*A^-1 deviation from unit magnitude is 5.11D-15 for   1526.
 Iteration    1 A*A^-1 deviation from orthogonality  is 1.64D-15 for   1526    950.
 Iteration    1 A^-1*A deviation from unit magnitude is 5.11D-15 for   1526.
 Iteration    1 A^-1*A deviation from orthogonality  is 2.37D-15 for   1491    715.
 Error on total polarization charges =  0.01120
 SCF Done:  E(RwB97XD) =  -558.152181311     A.U. after    1 cycles
            NFock=  1  Conv=0.30D-08     -V/T= 2.0060
 DoSCS=F DFT=T ScalE2(SS,OS)=  1.000000  1.000000
 Range of M.O.s used for correlation:     1   297
 NBasis=   297 NAE=    37 NBE=    37 NFC=     0 NFV=     0
 NROrb=    297 NOA=    37 NOB=    37 NVA=   260 NVB=   260

 **** Warning!!: The largest alpha MO coefficient is  0.28572910D+02

 NEqPCM:  Using equilibrium solvation (IEInf=0, Eps=  46.8260, EpsInf=   2.0079)
          Differentiating once with respect to magnetic field using GIAOs.
          Electric field/nuclear overlap derivatives assumed to be zero.
 FoFJK:  IHMeth= 1 ICntrl=    6127 DoSepK=T KAlg= 0 I1Cent=           0 FoldK=F
 IRaf=         1 NMat=       1 IRICut=       1 DoRegI=T DoRafI=F ISym2E= 0 IDoP0=0 IntGTp=1.
          There are     3 degrees of freedom in the 1st order CPHF.  IDoFFX=0 NUNeed=     3.
      3 vectors produced by pass  0 Test12= 3.21D-13 3.33D-08 XBig12= 1.50D+01 5.33D-01.
 AX will form     3 AO Fock derivatives at one time.
      3 vectors produced by pass  1 Test12= 3.21D-13 3.33D-08 XBig12= 1.14D-01 4.77D-02.
      3 vectors produced by pass  2 Test12= 3.21D-13 3.33D-08 XBig12= 7.65D-04 3.49D-03.
      3 vectors produced by pass  3 Test12= 3.21D-13 3.33D-08 XBig12= 5.69D-06 3.63D-04.
      3 vectors produced by pass  4 Test12= 3.21D-13 3.33D-08 XBig12= 5.14D-08 5.18D-05.
      3 vectors produced by pass  5 Test12= 3.21D-13 3.33D-08 XBig12= 5.12D-10 5.23D-06.
      3 vectors produced by pass  6 Test12= 3.21D-13 3.33D-08 XBig12= 3.95D-12 4.01D-07.
 InvSVY:  IOpt=1 It=  1 EMax= 8.88D-16
 Solved reduced A of dimension    21 with     3 vectors.
 Calculating GIAO nuclear magnetic shielding tensors.
 SCF GIAO Magnetic shielding tensor (ppm):
      1  B    Isotropic =   111.5008   Anisotropy =     7.6480
   XX=   105.8502   YX=    -5.1156   ZX=    -1.1290
   XY=    -5.0271   YY=   112.8357   ZY=    -1.2489
   XZ=    -0.1089   YZ=    -1.3598   ZZ=   115.8164
   Eigenvalues:   103.0800   114.8229   116.5995
      2  F    Isotropic =   340.3633   Anisotropy =    52.2638
   XX=   341.3992   YX=     7.8346   ZX=    25.8555
   XY=     4.0248   YY=   324.4552   ZY=   -11.6244
   XZ=    24.5930   YZ=   -12.3437   ZZ=   355.2357
   Eigenvalues:   311.0172   334.8670   375.2059
      3  F    Isotropic =   356.1008   Anisotropy =    51.3485
   XX=   353.7865   YX=     1.0526   ZX=   -14.3384
   XY=     0.9423   YY=   335.5628   ZY=     3.3262
   XZ=   -26.1696   YZ=     3.6136   ZZ=   378.9531
   Eigenvalues:   334.6185   343.3507   390.3331
      4  F    Isotropic =   348.1491   Anisotropy =    41.7456
   XX=   346.3474   YX=    -8.0694   ZX=     1.6243
   XY=    -4.2288   YY=   373.3203   ZY=     5.7818
   XZ=    -2.2279   YZ=    10.9232   ZZ=   324.7797
   Eigenvalues:   323.3596   345.1082   375.9795
      5  O    Isotropic =   265.4909   Anisotropy =    43.0906
   XX=   290.2881   YX=     9.6207   ZX=    12.7945
   XY=    -9.6214   YY=   268.9888   ZY=    -1.4465
   XZ=    17.1413   YZ=     2.5921   ZZ=   237.1958
   Eigenvalues:   233.2581   268.9965   294.2179
      6  C    Isotropic =   122.8569   Anisotropy =    92.5410
   XX=   155.1655   YX=   -40.2203   ZX=    24.3170
   XY=   -32.8072   YY=   108.3949   ZY=   -19.5704
   XZ=    19.3521   YZ=   -14.4664   ZZ=   105.0103
   Eigenvalues:    86.4636    97.5563   184.5509
      7  C    Isotropic =   182.1155   Anisotropy =    20.0536
   XX=   191.6280   YX=    -6.5209   ZX=    -3.6558
   XY=    -2.3682   YY=   168.3719   ZY=    -7.1921
   XZ=    -8.1859   YZ=    -4.4060   ZZ=   186.3466
   Eigenvalues:   165.2806   185.5813   195.4845
      8  C    Isotropic =   122.6136   Anisotropy =    83.7300
   XX=    92.7615   YX=   -12.6112   ZX=    21.0336
   XY=    -9.8786   YY=   169.7542   ZY=    26.0281
   XZ=    16.5813   YZ=    23.4910   ZZ=   105.3249
   Eigenvalues:    73.1992   116.2080   178.4335
      9  C    Isotropic =   180.0329   Anisotropy =    17.8893
   XX=   173.5914   YX=    -8.1643   ZX=     7.7886
   XY=    -5.7950   YY=   187.2543   ZY=    -0.0339
   XZ=     6.9730   YZ=    -3.2993   ZZ=   179.2529
   Eigenvalues:   167.2566   180.8829   191.9591
     10  H    Isotropic =    27.7937   Anisotropy =     7.3965
   XX=    29.2284   YX=    -1.1349   ZX=     3.1781
   XY=    -2.8003   YY=    23.8062   ZY=    -1.9140
   XZ=     1.7389   YZ=     0.1767   ZZ=    30.3465
   Eigenvalues:    23.1667    27.4897    32.7246
     11  H    Isotropic =    26.5989   Anisotropy =     5.5560
   XX=    29.5379   YX=    -1.7883   ZX=     1.1284
   XY=     0.4343   YY=    27.9771   ZY=    -2.1712
   XZ=     0.6753   YZ=    -3.1644   ZZ=    22.2815
   Eigenvalues:    21.1849    28.3088    30.3028
     12  H    Isotropic =    30.3849   Anisotropy =    11.3676
   XX=    36.4332   YX=    -3.8002   ZX=     1.0133
   XY=    -3.6669   YY=    27.8428   ZY=    -0.7132
   XZ=     1.0289   YZ=    -0.7870   ZZ=    26.8786
   Eigenvalues:    26.2219    26.9695    37.9633
     13  H    Isotropic =    30.1779   Anisotropy =     7.7891
   XX=    29.0493   YX=     0.2479   ZX=    -1.7169
   XY=    -0.0123   YY=    27.6672   ZY=     2.8554
   XZ=    -0.6767   YZ=     3.5823   ZZ=    33.8173
   Eigenvalues:    26.1690    28.9941    35.3706
     14  H    Isotropic =    29.9582   Anisotropy =     7.0260
   XX=    30.5152   YX=     2.5673   ZX=    -2.3217
   XY=     1.7747   YY=    32.6984   ZY=    -0.5692
   XZ=    -2.2117   YZ=    -1.6937   ZZ=    26.6608
   Eigenvalues:    25.6106    29.6217    34.6421
     15  H    Isotropic =    27.2015   Anisotropy =     6.7868
   XX=    23.6765   YX=    -0.5321   ZX=     0.9124
   XY=    -0.7484   YY=    28.2309   ZY=     3.8211
   XZ=    -0.2995   YZ=     1.4995   ZZ=    29.6970
   Eigenvalues:    23.4957    26.3827    31.7260
     16  H    Isotropic =    27.4214   Anisotropy =     6.0947
   XX=    28.6549   YX=    -0.5209   ZX=     1.0982
   XY=     1.7494   YY=    30.9626   ZY=     1.0587
   XZ=     2.3202   YZ=     1.6826   ZZ=    22.6467
   Eigenvalues:    22.0395    28.7402    31.4846
     17  H    Isotropic =    30.3124   Anisotropy =    11.1571
   XX=    26.9692   YX=    -1.3561   ZX=     0.3535
   XY=    -0.9654   YY=    37.4843   ZY=     1.3111
   XZ=     0.3045   YZ=     1.2809   ZZ=    26.4836
   Eigenvalues:    26.0661    27.1206    37.7505
     18  H    Isotropic =    30.1315   Anisotropy =     7.3366
   XX=    27.2880   YX=    -0.4166   ZX=    -0.0626
   XY=    -0.3300   YY=    29.0418   ZY=    -2.5851
   XZ=    -1.2625   YZ=    -2.1150   ZZ=    34.0646
   Eigenvalues:    26.9577    28.4141    35.0225
     19  H    Isotropic =    29.7850   Anisotropy =     5.9323
   XX=    33.6873   YX=     0.1362   ZX=     0.1010
   XY=    -0.6029   YY=    30.2360   ZY=    -0.8095
   XZ=     0.9072   YZ=    -0.5584   ZZ=    25.4315
   Eigenvalues:    25.3100    30.3051    33.7398
 End of Minotr F.D. properties file   721 does not exist.
 End of Minotr F.D. properties file   722 does not exist.
 End of Minotr F.D. properties file   788 does not exist.
 Symmetrizing basis deriv contribution to polar:
 IMax=3 JMax=2 DiffMx= 0.00D+00
 G2DrvN: will do    20 centers at a time, making    1 passes.
 Calling FoFCou, ICntrl=  3107 FMM=F I1Cent=   0 AccDes= 1.00D-12.
 NEqPCM:  Using equilibrium solvation (IEInf=0, Eps=  46.8260, EpsInf=   2.0079)
 G2PCM: DoFxE=T DoFxN=T DoGrad=T DoDP/DQ/DG/TGxP=FFFF NFrqRd=   0 IEInf=0 SqF1=F DoCFld=F IF1Alg=4.
 End of G2Drv F.D. properties file   721 does not exist.
 End of G2Drv F.D. properties file   722 does not exist.
 End of G2Drv F.D. properties file   788 does not exist.
          IDoAtm=1111111111111111111
 NEqPCM:  Using equilibrium solvation (IEInf=0, Eps=  46.8260, EpsInf=   2.0079)
          Differentiating once with respect to electric field.
                with respect to dipole field.
          Differentiating once with respect to nuclear coordinates.
 Keep R1 ints in memory in canonical form, NReq=1994496423.
          There are    60 degrees of freedom in the 1st order CPHF.  IDoFFX=5 NUNeed=    60.
     57 vectors produced by pass  0 Test12= 1.60D-14 1.67D-09 XBig12= 2.31D+01 8.65D-01.
 AX will form    57 AO Fock derivatives at one time.
     57 vectors produced by pass  1 Test12= 1.60D-14 1.67D-09 XBig12= 1.60D+00 1.65D-01.
     57 vectors produced by pass  2 Test12= 1.60D-14 1.67D-09 XBig12= 6.61D-02 2.44D-02.
     57 vectors produced by pass  3 Test12= 1.60D-14 1.67D-09 XBig12= 6.39D-04 2.56D-03.
     57 vectors produced by pass  4 Test12= 1.60D-14 1.67D-09 XBig12= 5.35D-06 2.29D-04.
     57 vectors produced by pass  5 Test12= 1.60D-14 1.67D-09 XBig12= 2.99D-08 1.56D-05.
     46 vectors produced by pass  6 Test12= 1.60D-14 1.67D-09 XBig12= 1.64D-10 9.89D-07.
      8 vectors produced by pass  7 Test12= 1.60D-14 1.67D-09 XBig12= 8.53D-13 8.20D-08.
      3 vectors produced by pass  8 Test12= 1.60D-14 1.67D-09 XBig12= 3.93D-15 5.09D-09.
 InvSVY:  IOpt=1 It=  1 EMax= 7.99D-15
 Solved reduced A of dimension   399 with    60 vectors.
 Isotropic polarizability for W=    0.000000       88.37 Bohr**3.
 Dipole-magnetic dipole polarizability for W=    0.000000:
                 1             2             3 
      1  -0.309486D+01  0.281737D+01 -0.309759D+02
      2  -0.496408D+01  0.185030D+01  0.396943D+02
      3   0.319959D+02 -0.423396D+02  0.173177D+01
 DQ contribution to OR G for W=    0.000000:
                 1             2             3 
      1  -0.340651D+01 -0.218149D+01 -0.100162D+03
      2   0.274608D+01  0.298340D+00  0.130430D+03
      3   0.110632D+03 -0.140179D+03  0.310817D+01
 Optical Rotation G' tensor for W=    0.000000:
                 1             2             3 
      1   0.939406D+00  0.607250D+00  0.105370D+01
      2   0.607250D+00 -0.606963D+00 -0.557252D+00
      3   0.105370D+01 -0.557252D+00  0.154761D+00
 OR G Eigenvalues:    -1.4018     0.2013     1.6877  Iso=    -0.1624
 Eigenvectors:
   (1)  -0.432557   0.715278   0.548883
   (2)   0.338424   0.693077  -0.636485
   (3)   0.835682   0.089561   0.541862
 w=    0.000000 a.u., Optical Rotation Beta=     -0.1624 au.
 Molar Mass =    141.9276 grams/mole, [Alpha]D (static) =      -44.23 deg.
 AAT (total):
 -0.0372 -0.0353  0.9541
  0.0760  0.0198 -1.1651
 -0.8255  1.0375  0.0148
  0.0734  0.2796 -0.1674
 -0.4953  0.0821  0.6034
  0.2467 -0.6650 -0.1732
 -0.0740 -0.2382 -0.2037
  0.4148 -0.0653  0.5800
  0.2719 -0.7061  0.1540
  0.0436  0.0351 -0.8469
 -0.0397 -0.0214  0.4534
  0.6041 -0.1516 -0.0161
 -0.1119 -0.1067 -0.0231
  0.0885  0.1396 -0.2680
  0.0689 -0.0228 -0.0284
  0.1202  0.1143 -0.1153
  0.0540 -0.0866  0.1001
  0.0355 -0.1628 -0.0162
  0.0087  0.0563  0.0674
 -0.0709 -0.0842 -0.0262
  0.0179  0.1855  0.0610
  0.0236 -0.0317 -0.1863
 -0.1015 -0.1062  0.2583
  0.0988 -0.0427  0.0661
 -0.0654  0.0512  0.1014
 -0.0865 -0.0022  0.0761
 -0.1389 -0.0879  0.0831
 -0.0535  0.0404  0.0072
 -0.0484  0.1283  0.0462
  0.1156  0.0193 -0.0391
  0.0312 -0.0328  0.0861
  0.0060 -0.0323  0.0189
 -0.1401 -0.0406 -0.0158
  0.0239  0.1399  0.1752
 -0.0632 -0.0808  0.2044
 -0.0692 -0.1704  0.0537
 -0.0153 -0.0711  0.0117
  0.1151  0.1281 -0.0061
 -0.0812  0.2107 -0.0986
 -0.0277 -0.0557 -0.2003
 -0.0606 -0.0201 -0.1932
  0.1285 -0.0918  0.0381
  0.0513  0.1259 -0.0367
  0.0331 -0.0376 -0.0346
 -0.0951  0.1195 -0.0149
  0.0022 -0.1002  0.0228
  0.0008  0.0336  0.0521
  0.1082 -0.0812 -0.0564
 -0.0371  0.0368 -0.2373
 -0.1567 -0.0148  0.0745
  0.2031  0.0018  0.0548
  0.0606 -0.1095 -0.0265
  0.1491  0.0011  0.0008
 -0.1599 -0.1229 -0.0450
 -0.0162  0.0669  0.2049
  0.0233  0.0218 -0.1257
  0.0241  0.1266 -0.0199
 End of Minotr F.D. properties file   721 does not exist.
 End of Minotr F.D. properties file   722 does not exist.
 End of Minotr F.D. properties file   788 does not exist.

 **********************************************************************

            Population analysis using the SCF Density.

 **********************************************************************

 Orbital symmetries:
       Occupied  (A) (A) (A) (A) (A) (A) (A) (A) (A) (A) (A) (A)
                 (A) (A) (A) (A) (A) (A) (A) (A) (A) (A) (A) (A)
                 (A) (A) (A) (A) (A) (A) (A) (A) (A) (A) (A) (A)
                 (A)
       Virtual   (A) (A) (A) (A) (A) (A) (A) (A) (A) (A) (A) (A)
                 (A) (A) (A) (A) (A) (A) (A) (A) (A) (A) (A) (A)
                 (A) (A) (A) (A) (A) (A) (A) (A) (A) (A) (A) (A)
                 (A) (A) (A) (A) (A) (A) (A) (A) (A) (A) (A) (A)
                 (A) (A) (A) (A) (A) (A) (A) (A) (A) (A) (A) (A)
                 (A) (A) (A) (A) (A) (A) (A) (A) (A) (A) (A) (A)
                 (A) (A) (A) (A) (A) (A) (A) (A) (A) (A) (A) (A)
                 (A) (A) (A) (A) (A) (A) (A) (A) (A) (A) (A) (A)
                 (A) (A) (A) (A) (A) (A) (A) (A) (A) (A) (A) (A)
                 (A) (A) (A) (A) (A) (A) (A) (A) (A) (A) (A) (A)
                 (A) (A) (A) (A) (A) (A) (A) (A) (A) (A) (A) (A)
                 (A) (A) (A) (A) (A) (A) (A) (A) (A) (A) (A) (A)
                 (A) (A) (A) (A) (A) (A) (A) (A) (A) (A) (A) (A)
                 (A) (A) (A) (A) (A) (A) (A) (A) (A) (A) (A) (A)
                 (A) (A) (A) (A) (A) (A) (A) (A) (A) (A) (A) (A)
                 (A) (A) (A) (A) (A) (A) (A) (A) (A) (A) (A) (A)
                 (A) (A) (A) (A) (A) (A) (A) (A) (A) (A) (A) (A)
                 (A) (A) (A) (A) (A) (A) (A) (A) (A) (A) (A) (A)
                 (A) (A) (A) (A) (A) (A) (A) (A) (A) (A) (A) (A)
                 (A) (A) (A) (A) (A) (A) (A) (A) (A) (A) (A) (A)
                 (A) (A) (A) (A) (A) (A) (A) (A) (A) (A) (A) (A)
                 (A) (A) (A) (A) (A) (A) (A) (A)
 The electronic state is 1-A.
 Alpha  occ. eigenvalues --  -24.81434 -24.81143 -24.80874 -19.36071 -10.37488
 Alpha  occ. eigenvalues --  -10.37217 -10.30172 -10.29997  -6.99670  -1.32042
 Alpha  occ. eigenvalues --   -1.27713  -1.27357  -1.20736  -0.90221  -0.86330
 Alpha  occ. eigenvalues --   -0.75626  -0.74593  -0.67287  -0.63971  -0.62308
 Alpha  occ. eigenvalues --   -0.61033  -0.59145  -0.57826  -0.55315  -0.52610
 Alpha  occ. eigenvalues --   -0.51755  -0.51374  -0.50895  -0.48739  -0.48649
 Alpha  occ. eigenvalues --   -0.48637  -0.47264  -0.46811  -0.46353  -0.45317
 Alpha  occ. eigenvalues --   -0.44196  -0.41174
 Alpha virt. eigenvalues --    0.03796   0.04861   0.04948   0.05046   0.06868
 Alpha virt. eigenvalues --    0.06961   0.07145   0.07258   0.07561   0.09285
 Alpha virt. eigenvalues --    0.09578   0.09851   0.10975   0.11825   0.12866
 Alpha virt. eigenvalues --    0.13926   0.14537   0.15027   0.15146   0.15748
 Alpha virt. eigenvalues --    0.16532   0.17337   0.17631   0.18148   0.18458
 Alpha virt. eigenvalues --    0.18979   0.19596   0.19754   0.20476   0.20855
 Alpha virt. eigenvalues --    0.22793   0.22876   0.23578   0.24312   0.24758
 Alpha virt. eigenvalues --    0.25064   0.25873   0.26890   0.27592   0.28136
 Alpha virt. eigenvalues --    0.28925   0.29500   0.29952   0.31208   0.31688
 Alpha virt. eigenvalues --    0.31916   0.32816   0.33451   0.34144   0.35319
 Alpha virt. eigenvalues --    0.36344   0.36807   0.37580   0.38656   0.39066
 Alpha virt. eigenvalues --    0.39634   0.40473   0.40919   0.41347   0.41627
 Alpha virt. eigenvalues --    0.42389   0.42799   0.43089   0.43480   0.44039
 Alpha virt. eigenvalues --    0.44934   0.45724   0.46145   0.47547   0.47793
 Alpha virt. eigenvalues --    0.49830   0.50261   0.51093   0.51179   0.52329
 Alpha virt. eigenvalues --    0.53194   0.53542   0.54082   0.55087   0.55563
 Alpha virt. eigenvalues --    0.55744   0.56757   0.57214   0.58466   0.59302
 Alpha virt. eigenvalues --    0.59743   0.60439   0.61125   0.62230   0.63346
 Alpha virt. eigenvalues --    0.64257   0.64712   0.64918   0.65924   0.67070
 Alpha virt. eigenvalues --    0.68034   0.70028   0.70476   0.71444   0.71581
 Alpha virt. eigenvalues --    0.72517   0.73121   0.74076   0.74521   0.75839
 Alpha virt. eigenvalues --    0.76395   0.76864   0.78670   0.79118   0.79572
 Alpha virt. eigenvalues --    0.80698   0.82055   0.82836   0.83360   0.83851
 Alpha virt. eigenvalues --    0.86619   0.87534   0.88190   0.89215   0.91138
 Alpha virt. eigenvalues --    0.92571   0.94019   0.96293   0.97441   0.98708
 Alpha virt. eigenvalues --    1.00199   1.00835   1.04199   1.05036   1.06589
 Alpha virt. eigenvalues --    1.08485   1.09601   1.10782   1.12384   1.14426
 Alpha virt. eigenvalues --    1.15628   1.18229   1.21287   1.22371   1.25199
 Alpha virt. eigenvalues --    1.27100   1.30153   1.32195   1.33672   1.35056
 Alpha virt. eigenvalues --    1.35872   1.38685   1.38883   1.42226   1.42386
 Alpha virt. eigenvalues --    1.43510   1.44864   1.46673   1.47790   1.49403
 Alpha virt. eigenvalues --    1.49943   1.51731   1.53665   1.55226   1.57981
 Alpha virt. eigenvalues --    1.59957   1.61560   1.61970   1.63533   1.66089
 Alpha virt. eigenvalues --    1.66742   1.67802   1.69282   1.69492   1.71083
 Alpha virt. eigenvalues --    1.73589   1.74785   1.75051   1.76685   1.77686
 Alpha virt. eigenvalues --    1.78292   1.80163   1.81728   1.82507   1.83680
 Alpha virt. eigenvalues --    1.85813   1.87591   1.88330   1.90811   1.92258
 Alpha virt. eigenvalues --    1.93611   1.95988   1.97245   1.98466   1.99974
 Alpha virt. eigenvalues --    2.01708   2.02757   2.03799   2.05638   2.07367
 Alpha virt. eigenvalues --    2.07736   2.09570   2.10583   2.11756   2.12753
 Alpha virt. eigenvalues --    2.15507   2.17078   2.20059   2.23474   2.26389
 Alpha virt. eigenvalues --    2.28854   2.30584   2.32161   2.33503   2.35141
 Alpha virt. eigenvalues --    2.37877   2.39534   2.40329   2.41442   2.47225
 Alpha virt. eigenvalues --    2.47294   2.49073   2.52322   2.54957   2.55944
 Alpha virt. eigenvalues --    2.58501   2.61338   2.63986   2.65366   2.68013
 Alpha virt. eigenvalues --    2.72062   2.73170   2.76030   2.83044   2.84563
 Alpha virt. eigenvalues --    2.86546   2.88579   2.94166   2.99286   3.06892
 Alpha virt. eigenvalues --    3.07309   3.15671   3.20238   3.36428   3.62023
 Alpha virt. eigenvalues --    3.67384   3.70052   3.74055   3.90164   3.98045
 Alpha virt. eigenvalues --    4.61346   4.63630   4.65872   4.66348   4.68128
 Alpha virt. eigenvalues --    4.70271   4.72475   4.74437   4.75155   4.79276
 Alpha virt. eigenvalues --    4.81235   4.83740   4.86433   4.92208   4.94345
          Condensed to atoms (all electrons):
               1          2          3          4          5          6
     1  B    3.555947  -0.023380   0.063827   0.137219  -0.353454  -0.094846
     2  F   -0.023380   9.606810  -0.104471  -0.173952   0.292152   0.019946
     3  F    0.063827  -0.104471   9.729656  -0.144767   0.026544  -0.056494
     4  F    0.137219  -0.173952  -0.144767   9.999258  -0.153193  -0.097656
     5  O   -0.353454   0.292152   0.026544  -0.153193  10.081798   0.112334
     6  C   -0.094846   0.019946  -0.056494  -0.097656   0.112334   4.991995
     7  C   -0.028200   0.016900   0.001595   0.001209  -0.022529   0.233259
     8  C    0.047305  -0.110121   0.029661   0.021821  -0.105598  -0.056426
     9  C   -0.001214   0.015725  -0.034619   0.017358  -0.066807  -0.079041
    10  H    0.037282  -0.005998  -0.002226  -0.001723  -0.145170   0.005802
    11  H    0.022969   0.020520   0.003334  -0.090430  -0.321076   0.176905
    12  H    0.004497   0.001801   0.000573  -0.001717   0.132745   0.098775
    13  H    0.010009  -0.000914  -0.000380  -0.000259  -0.092931  -0.073658
    14  H   -0.016712   0.001639  -0.000948  -0.007051  -0.182971  -0.083324
    15  H    0.045536   0.007699   0.031525   0.016245  -0.055371   0.011634
    16  H    0.009041  -0.007190  -0.002072  -0.000689  -0.168826  -0.098250
    17  H    0.005710   0.001752   0.002475  -0.000045   0.061363   0.002227
    18  H    0.016610   0.006536  -0.002016   0.007075  -0.110799  -0.043936
    19  H    0.046550  -0.026512   0.033318   0.010758  -0.124689  -0.016756
               7          8          9         10         11         12
     1  B   -0.028200   0.047305  -0.001214   0.037282   0.022969   0.004497
     2  F    0.016900  -0.110121   0.015725  -0.005998   0.020520   0.001801
     3  F    0.001595   0.029661  -0.034619  -0.002226   0.003334   0.000573
     4  F    0.001209   0.021821   0.017358  -0.001723  -0.090430  -0.001717
     5  O   -0.022529  -0.105598  -0.066807  -0.145170  -0.321076   0.132745
     6  C    0.233259  -0.056426  -0.079041   0.005802   0.176905   0.098775
     7  C    4.466652  -0.025855   0.013247  -0.102084  -0.063222   0.267222
     8  C   -0.025855   5.029527   0.188815   0.029527  -0.026322  -0.028721
     9  C    0.013247   0.188815   4.658797   0.076211  -0.034365  -0.000444
    10  H   -0.102084   0.029527   0.076211   1.668490  -0.366747  -0.111935
    11  H   -0.063222  -0.026322  -0.034365  -0.366747   2.211120  -0.085682
    12  H    0.267222  -0.028721  -0.000444  -0.111935  -0.085682   1.404855
    13  H    0.305284   0.027811   0.013026   0.118590  -0.125472  -0.259442
    14  H    0.361010   0.006879  -0.024099  -0.077682   0.138777  -0.273854
    15  H    0.004539  -0.160057  -0.097077  -0.027290  -0.012287  -0.001578
    16  H    0.030543   0.002026  -0.070170   0.030761   0.006737  -0.000139
    17  H   -0.001778   0.106476   0.234525  -0.003776   0.000171  -0.000275
    18  H    0.009060  -0.119848   0.387955   0.007822  -0.011131  -0.000812
    19  H   -0.000485   0.015072   0.268022   0.007749  -0.001179  -0.000484
              13         14         15         16         17         18
     1  B    0.010009  -0.016712   0.045536   0.009041   0.005710   0.016610
     2  F   -0.000914   0.001639   0.007699  -0.007190   0.001752   0.006536
     3  F   -0.000380  -0.000948   0.031525  -0.002072   0.002475  -0.002016
     4  F   -0.000259  -0.007051   0.016245  -0.000689  -0.000045   0.007075
     5  O   -0.092931  -0.182971  -0.055371  -0.168826   0.061363  -0.110799
     6  C   -0.073658  -0.083324   0.011634  -0.098250   0.002227  -0.043936
     7  C    0.305284   0.361010   0.004539   0.030543  -0.001778   0.009060
     8  C    0.027811   0.006879  -0.160057   0.002026   0.106476  -0.119848
     9  C    0.013026  -0.024099  -0.097077  -0.070170   0.234525   0.387955
    10  H    0.118590  -0.077682  -0.027290   0.030761  -0.003776   0.007822
    11  H   -0.125472   0.138777  -0.012287   0.006737   0.000171  -0.011131
    12  H   -0.259442  -0.273854  -0.001578  -0.000139  -0.000275  -0.000812
    13  H    1.419666  -0.200589   0.001176  -0.009901  -0.000534   0.007784
    14  H   -0.200589   1.526011  -0.001389   0.040114   0.001347  -0.008428
    15  H    0.001176  -0.001389   2.087086  -0.386642  -0.098506   0.140181
    16  H   -0.009901   0.040114  -0.386642   2.193471  -0.071147  -0.151198
    17  H   -0.000534   0.001347  -0.098506  -0.071147   1.406357  -0.246126
    18  H    0.007784  -0.008428   0.140181  -0.151198  -0.246126   1.531922
    19  H    0.000244   0.000358  -0.127464   0.110106  -0.263227  -0.291844
              19
     1  B    0.046550
     2  F   -0.026512
     3  F    0.033318
     4  F    0.010758
     5  O   -0.124689
     6  C   -0.016756
     7  C   -0.000485
     8  C    0.015072
     9  C    0.268022
    10  H    0.007749
    11  H   -0.001179
    12  H   -0.000484
    13  H    0.000244
    14  H    0.000358
    15  H   -0.127464
    16  H    0.110106
    17  H   -0.263227
    18  H   -0.291844
    19  H    1.498105
 Mulliken charges:
               1
     1  B    1.515303
     2  F   -0.538942
     3  F   -0.574516
     4  F   -0.539462
     5  O   -0.803523
     6  C    1.047508
     7  C    0.533635
     8  C    1.128029
     9  C    0.534154
    10  H   -0.137604
    11  H   -0.442622
    12  H   -0.145386
    13  H   -0.139509
    14  H   -0.199090
    15  H   -0.377960
    16  H   -0.456575
    17  H   -0.136991
    18  H   -0.128807
    19  H   -0.137642
 Sum of Mulliken charges =  -0.00000
 Mulliken charges with hydrogens summed into heavy atoms:
               1
     1  B    1.515303
     2  F   -0.538942
     3  F   -0.574516
     4  F   -0.539462
     5  O   -0.803523
     6  C    0.467282
     7  C    0.049650
     8  C    0.293494
     9  C    0.130714
 APT charges:
               1
     1  B    2.248773
     2  F   -0.795883
     3  F   -0.795958
     4  F   -0.797665
     5  O   -1.174837
     6  C    0.619873
     7  C   -0.002967
     8  C    0.634087
     9  C    0.000285
    10  H   -0.016139
    11  H    0.038736
    12  H    0.014264
    13  H    0.001971
    14  H    0.002257
    15  H   -0.016848
    16  H   -0.001764
    17  H    0.013198
    18  H    0.006961
    19  H    0.021653
 Sum of APT charges =  -0.00000
 APT charges with hydrogens summed into heavy atoms:
               1
     1  B    2.248773
     2  F   -0.795883
     3  F   -0.795958
     4  F   -0.797665
     5  O   -1.174837
     6  C    0.642471
     7  C    0.015525
     8  C    0.615475
     9  C    0.042098
 Electronic spatial extent (au):  <R**2>=           1262.7532
 Charge=              0.0000 electrons
 Dipole moment (field-independent basis, Debye):
    X=              6.6041    Y=              4.2623    Z=              1.6539  Tot=              8.0323
 Quadrupole moment (field-independent basis, Debye-Ang):
   XX=            -52.0317   YY=            -51.1750   ZZ=            -54.9680
   XY=             -3.2917   XZ=              1.2167   YZ=              0.5445
 Traceless Quadrupole moment (field-independent basis, Debye-Ang):
   XX=              0.6932   YY=              1.5499   ZZ=             -2.2431
   XY=             -3.2917   XZ=              1.2167   YZ=              0.5445
 Octapole moment (field-independent basis, Debye-Ang**2):
  XXX=              9.1118  YYY=              9.9071  ZZZ=              2.2456  XYY=              0.1098
  XXY=             -4.5638  XXZ=              1.6143  XZZ=              3.2941  YZZ=             -1.8896
  YYZ=              2.8558  XYZ=             -0.6279
 Hexadecapole moment (field-independent basis, Debye-Ang**3):
 XXXX=           -714.8240 YYYY=           -569.9753 ZZZZ=           -200.7647 XXXY=             -0.1169
 XXXZ=              8.1243 YYYX=              4.6443 YYYZ=              3.1353 ZZZX=              1.8536
 ZZZY=              3.3246 XXYY=           -214.0085 XXZZ=           -167.3382 YYZZ=           -129.3217
 XXYZ=              0.0649 YYXZ=              1.5297 ZZXY=              0.4487
 N-N= 5.238307839320D+02 E-N=-2.364217820986D+03  KE= 5.547992118805D+02
  Exact polarizability:      91.179      -3.871      90.340       0.439      -0.255      83.585
 Approx polarizability:      72.846      -1.582      73.601       0.661       0.346      70.433
 D2PCM: C-PCM CHGder 2nd derivatives, FixD1E=F FixD2E=F DoIter=F DoCFld=F I1PDM=0
 Calling FoFJK, ICntrl=    100127 FMM=F ISym2X=0 I1Cent= 0 IOpClX= 0 NMat=1 NMatS=1 NMatT=0.
 Full mass-weighted force constant matrix:
 Low frequencies ---  -12.4415    0.0006    0.0012    0.0013    4.1973   12.4585
 Low frequencies ---   26.0317   50.8049   74.4433
 Diagonal vibrational polarizability:
       53.0088960      44.4841510      24.0720064
 Harmonic frequencies (cm**-1), IR intensities (KM/Mole), Raman scattering
 activities (A**4/AMU), depolarization ratios for plane and unpolarized
 incident light, reduced masses (AMU), force constants (mDyne/A),
 Dipole strengths (10**-40 esu**2-cm**2),
 Rotational strengths (10**-44 esu**2-cm**2),
 E-M angle = Angle between electric and magnetic dipole transition moments (deg),
 and normal coordinates:
                      1                      2                      3
                      A                      A                      A
 Frequencies --     25.6443                50.7626                74.4296
 Red. masses --      6.7968                 2.3756                 2.8332
 Frc consts  --      0.0026                 0.0036                 0.0092
 IR Inten    --      0.4002                 1.2404                 1.0983
 Dip. str.   --     62.2563                97.4834                58.8676
 Rot. str.   --      1.1740                 9.3393                -1.4975
 E-M angle   --     81.7982                41.1223               100.8413
  Atom  AN      X      Y      Z        X      Y      Z        X      Y      Z
     1   5    -0.00  -0.00   0.00    -0.03  -0.03   0.02     0.01  -0.01   0.02
     2   9     0.19  -0.13  -0.15    -0.05  -0.02   0.03     0.03   0.02   0.02
     3   9    -0.17   0.18  -0.15    -0.00  -0.00   0.03    -0.06  -0.11   0.00
     4   9    -0.04  -0.03   0.24    -0.07  -0.03   0.02     0.08   0.01  -0.03
     5   8     0.00  -0.02   0.09    -0.02  -0.04  -0.02    -0.04   0.03   0.13
     6   6     0.07  -0.03  -0.12    -0.00  -0.05  -0.07     0.01   0.05   0.04
     7   6    -0.06   0.09  -0.23     0.05   0.22   0.04    -0.14  -0.06  -0.13
     8   6     0.01  -0.05   0.16    -0.02  -0.06   0.03    -0.07   0.04   0.09
     9   6    -0.00  -0.03   0.18     0.16   0.02  -0.10     0.15   0.06  -0.12
    10   1     0.18  -0.10  -0.11    -0.09  -0.23   0.03     0.14   0.16  -0.04
    11   1     0.11  -0.04  -0.17     0.05  -0.09  -0.31     0.01   0.07   0.19
    12   1     0.00   0.09  -0.39     0.05   0.18  -0.00    -0.07   0.01  -0.20
    13   1    -0.16   0.17  -0.24     0.14   0.40  -0.07    -0.27  -0.18  -0.04
    14   1    -0.11   0.11  -0.17     0.03   0.25   0.27    -0.19  -0.07  -0.29
    15   1     0.00  -0.09   0.15    -0.20  -0.09  -0.03    -0.28   0.07   0.02
    16   1     0.00  -0.04   0.17     0.00  -0.10   0.22    -0.04  -0.01   0.29
    17   1    -0.07  -0.05   0.25     0.16   0.01  -0.06     0.13   0.07  -0.14
    18   1     0.04   0.05   0.19     0.34   0.02  -0.05     0.37   0.01  -0.06
    19   1     0.01  -0.09   0.13     0.13   0.07  -0.28     0.12   0.11  -0.34
                      4                      5                      6
                      A                      A                      A
 Frequencies --    168.4374               212.5666               220.6701
 Red. masses --      2.5832                 1.9088                 1.5504
 Frc consts  --      0.0432                 0.0508                 0.0445
 IR Inten    --      3.4995                 1.5941                 2.4406
 Dip. str.   --     82.8856                29.9172                44.1227
 Rot. str.   --    -10.5164                15.8505                -9.8879
 E-M angle   --    113.3359                57.7211               121.3147
  Atom  AN      X      Y      Z        X      Y      Z        X      Y      Z
     1   5    -0.01   0.01   0.04     0.02   0.01  -0.00    -0.04  -0.02  -0.00
     2   9     0.08   0.12   0.03     0.05   0.09   0.01    -0.04  -0.04  -0.00
     3   9    -0.09  -0.06   0.00     0.06   0.06   0.02    -0.07  -0.05  -0.02
     4   9    -0.04   0.00  -0.03    -0.09  -0.01  -0.03     0.01  -0.01   0.01
     5   8     0.00  -0.05   0.14     0.03  -0.04   0.00    -0.02  -0.01  -0.01
     6   6     0.04  -0.03   0.02     0.05   0.00   0.01    -0.01   0.01  -0.00
     7   6    -0.02   0.10  -0.02     0.02   0.01  -0.02     0.00   0.04   0.01
     8   6     0.09   0.02  -0.08    -0.09  -0.07   0.04     0.11   0.01  -0.05
     9   6    -0.04  -0.12  -0.08    -0.05  -0.10  -0.04     0.07   0.07   0.05
    10   1     0.08  -0.10   0.05     0.05   0.06  -0.01    -0.02   0.04  -0.01
    11   1     0.08  -0.05  -0.06     0.08   0.00   0.07     0.03   0.01   0.02
    12   1    -0.00   0.02  -0.16     0.18   0.46   0.18     0.15   0.49   0.25
    13   1    -0.10   0.25  -0.07     0.21  -0.40   0.11     0.24  -0.36   0.13
    14   1     0.01   0.11   0.11    -0.35   0.05  -0.37    -0.35   0.08  -0.32
    15   1     0.27   0.21  -0.02    -0.20  -0.12   0.01     0.22   0.06  -0.01
    16   1     0.09   0.00  -0.31    -0.11  -0.01   0.16     0.12  -0.05  -0.16
    17   1     0.14  -0.04  -0.36    -0.10  -0.09  -0.05     0.18   0.06   0.05
    18   1    -0.30  -0.42  -0.14     0.04  -0.11  -0.01    -0.05   0.05   0.02
    19   1    -0.05  -0.00   0.26    -0.05  -0.12  -0.12     0.06   0.13   0.17
                      7                      8                      9
                      A                      A                      A
 Frequencies --    274.9955               291.4428               306.2769
 Red. masses --      3.8673                 2.3319                 1.9398
 Frc consts  --      0.1723                 0.1167                 0.1072
 IR Inten    --      4.1501                 4.4404                 0.4924
 Dip. str.   --     60.2067                60.7824                 6.4141
 Rot. str.   --     -7.6823                 9.8097                -0.7897
 E-M angle   --    113.4921                59.4833                94.4824
  Atom  AN      X      Y      Z        X      Y      Z        X      Y      Z
     1   5     0.01  -0.06   0.04     0.04  -0.03  -0.03    -0.01  -0.01   0.01
     2   9     0.20   0.09  -0.01     0.07  -0.06  -0.06     0.02   0.06   0.02
     3   9     0.01  -0.15   0.06     0.16   0.03   0.03    -0.07  -0.07  -0.02
     4   9    -0.17  -0.12   0.07    -0.06  -0.06  -0.03     0.00  -0.01   0.08
     5   8    -0.01   0.00  -0.06    -0.04   0.01  -0.01     0.01   0.03  -0.07
     6   6    -0.02   0.05  -0.02    -0.09   0.00   0.05     0.03   0.03  -0.08
     7   6     0.00   0.00  -0.00    -0.14   0.04   0.02     0.13  -0.06  -0.01
     8   6    -0.01   0.05  -0.12    -0.02   0.01   0.02    -0.10  -0.01   0.05
     9   6    -0.03   0.17  -0.00     0.03   0.07   0.03    -0.01   0.05   0.00
    10   1    -0.03   0.08  -0.02    -0.10   0.00   0.05     0.02   0.05  -0.09
    11   1    -0.02   0.05   0.02    -0.08   0.00   0.04     0.02   0.04  -0.06
    12   1    -0.03  -0.06   0.00    -0.09   0.06  -0.07     0.04  -0.13   0.12
    13   1    -0.01   0.02  -0.01    -0.20   0.07   0.02     0.22  -0.09  -0.03
    14   1     0.07  -0.01   0.00    -0.19   0.06   0.03     0.24  -0.09  -0.02
    15   1     0.06   0.07  -0.10    -0.01  -0.00   0.02    -0.21  -0.11   0.01
    16   1    -0.00   0.03  -0.18    -0.00  -0.04   0.02    -0.10   0.01   0.19
    17   1    -0.26   0.04   0.43     0.45   0.14  -0.28     0.38   0.12  -0.30
    18   1     0.12   0.64   0.03    -0.24  -0.32  -0.03    -0.22  -0.33  -0.04
    19   1     0.01  -0.03  -0.26    -0.05   0.42   0.37    -0.10   0.40   0.27
                     10                     11                     12
                      A                      A                      A
 Frequencies --    331.6422               376.8594               416.1352
 Red. masses --      4.2731                 3.2385                 4.9476
 Frc consts  --      0.2769                 0.2710                 0.5048
 IR Inten    --      1.8076                 3.4217                 7.0092
 Dip. str.   --     21.7435                36.2222                67.1954
 Rot. str.   --      0.3273                -6.0203                 6.2229
 E-M angle   --     85.8894               138.2856                47.0328
  Atom  AN      X      Y      Z        X      Y      Z        X      Y      Z
     1   5     0.07   0.07   0.03    -0.02   0.05   0.03     0.07  -0.07   0.09
     2   9     0.11   0.11   0.01     0.05  -0.12  -0.07     0.04  -0.05   0.13
     3   9     0.00  -0.02   0.03     0.03  -0.04   0.09    -0.05   0.19  -0.03
     4   9     0.21   0.10   0.11    -0.07   0.04  -0.06     0.08  -0.09  -0.16
     5   8    -0.07  -0.03  -0.09    -0.03   0.13   0.13    -0.05  -0.12   0.16
     6   6    -0.18  -0.22  -0.09    -0.04  -0.08  -0.14     0.07  -0.11  -0.03
     7   6    -0.13  -0.01   0.03     0.09  -0.06  -0.01     0.08  -0.03  -0.02
     8   6    -0.04  -0.04  -0.05     0.02   0.17   0.09    -0.14   0.01  -0.11
     9   6    -0.04  -0.00  -0.03    -0.04  -0.01  -0.04    -0.09   0.23  -0.03
    10   1    -0.26  -0.45   0.03     0.03  -0.37  -0.03     0.10  -0.21   0.00
    11   1    -0.24  -0.23  -0.37    -0.17  -0.08  -0.40     0.08  -0.13  -0.13
    12   1    -0.05   0.22   0.13     0.05   0.06   0.27     0.08   0.01   0.05
    13   1     0.07  -0.08   0.01     0.37  -0.20  -0.03     0.17  -0.05  -0.04
    14   1    -0.37   0.04   0.05     0.05  -0.06  -0.06     0.05  -0.02   0.01
    15   1    -0.04  -0.08  -0.05     0.02   0.25   0.09    -0.13   0.13  -0.10
    16   1    -0.03  -0.07  -0.03     0.02   0.16   0.05    -0.12  -0.04  -0.14
    17   1    -0.04  -0.03   0.04    -0.22   0.05  -0.19     0.17   0.14   0.18
    18   1    -0.03   0.06  -0.03     0.03  -0.12  -0.02    -0.18   0.40  -0.06
    19   1    -0.04  -0.01  -0.05     0.01  -0.16  -0.06    -0.16   0.44   0.00
                     13                     14                     15
                      A                      A                      A
 Frequencies --    472.0418               493.4526               531.4270
 Red. masses --      8.3705                 6.5695                 4.1117
 Frc consts  --      1.0989                 0.9425                 0.6842
 IR Inten    --      9.5961                 8.1306                23.8426
 Dip. str.   --     81.1002                65.7330               178.9857
 Rot. str.   --    -10.8776                20.5824                20.9037
 E-M angle   --    112.8936                37.6764                42.3630
  Atom  AN      X      Y      Z        X      Y      Z        X      Y      Z
     1   5    -0.14   0.03   0.22     0.09  -0.15   0.07     0.11   0.10   0.06
     2   9     0.25  -0.15  -0.01     0.07   0.03   0.26     0.01  -0.12   0.07
     3   9    -0.19   0.08   0.28    -0.09   0.11  -0.14    -0.10  -0.06  -0.02
     4   9     0.03   0.15  -0.23     0.02  -0.24  -0.08    -0.10   0.09  -0.04
     5   8    -0.07  -0.04  -0.19     0.03   0.18  -0.15     0.22   0.06  -0.14
     6   6    -0.05   0.17  -0.04    -0.17   0.08  -0.08     0.12  -0.17   0.13
     7   6     0.01   0.02  -0.00    -0.08  -0.00   0.03    -0.06  -0.00   0.01
     8   6     0.02  -0.18  -0.04     0.11   0.13   0.11    -0.01   0.06  -0.01
     9   6     0.08  -0.10   0.05     0.04  -0.11   0.01    -0.06   0.07  -0.02
    10   1    -0.12   0.41  -0.12    -0.18  -0.05  -0.03     0.04  -0.23   0.18
    11   1     0.06   0.17   0.20    -0.24   0.09  -0.17    -0.04  -0.15  -0.01
    12   1    -0.10  -0.13   0.09    -0.13  -0.01   0.13     0.18   0.17  -0.37
    13   1     0.01   0.02   0.00    -0.01  -0.04   0.02    -0.31   0.09   0.04
    14   1     0.21  -0.03  -0.03    -0.05  -0.01  -0.01    -0.38   0.07   0.05
    15   1     0.04  -0.27  -0.03     0.11   0.01   0.11    -0.21  -0.13  -0.08
    16   1     0.02  -0.18  -0.01     0.11   0.13   0.12    -0.05   0.20   0.23
    17   1     0.15  -0.11   0.07    -0.24  -0.00  -0.24    -0.01   0.07  -0.06
    18   1     0.07  -0.10   0.04     0.13  -0.32   0.05    -0.14   0.04  -0.05
    19   1     0.06  -0.03   0.04     0.13  -0.37   0.00    -0.06   0.09   0.06
                     16                     17                     18
                      A                      A                      A
 Frequencies --    634.5735               781.0837               813.4383
 Red. masses --      6.9458                 2.0442                 1.2397
 Frc consts  --      1.6479                 0.7348                 0.4833
 IR Inten    --    241.9805               296.6896                66.2963
 Dip. str.   --   1521.2684              1515.3471               325.1411
 Rot. str.   --    -34.1245               -93.7471                -2.3429
 E-M angle   --    156.2733               109.8502                91.4853
  Atom  AN      X      Y      Z        X      Y      Z        X      Y      Z
     1   5     0.41   0.25   0.04     0.12   0.07   0.01    -0.06  -0.04  -0.01
     2   9     0.02  -0.12   0.17    -0.03   0.02  -0.06     0.02  -0.01   0.03
     3   9     0.05  -0.09  -0.20    -0.04   0.01   0.06     0.02  -0.00  -0.03
     4   9    -0.15   0.16   0.00     0.01  -0.07  -0.01    -0.01   0.03   0.00
     5   8    -0.16  -0.08   0.06    -0.09  -0.06  -0.07     0.02  -0.00   0.03
     6   6    -0.08   0.10  -0.08     0.04  -0.10   0.01    -0.04  -0.03  -0.05
     7   6    -0.01   0.02  -0.01     0.02  -0.02  -0.02    -0.03  -0.02  -0.01
     8   6    -0.03  -0.09  -0.03    -0.00   0.10   0.08     0.04   0.01  -0.03
     9   6     0.04  -0.06   0.03    -0.01   0.03   0.01     0.02   0.00  -0.02
    10   1    -0.09   0.26  -0.15     0.11   0.35  -0.21     0.21   0.26  -0.22
    11   1     0.02   0.10   0.08     0.03  -0.04   0.47    -0.08   0.03   0.36
    12   1    -0.20  -0.11   0.29     0.10   0.13  -0.03    -0.00   0.11   0.12
    13   1     0.19  -0.05  -0.03     0.19   0.19  -0.16     0.27   0.19  -0.19
    14   1     0.24  -0.03  -0.01    -0.17   0.06   0.29    -0.15   0.05   0.32
    15   1     0.14  -0.02   0.02     0.22   0.02   0.14    -0.29  -0.00  -0.13
    16   1     0.01  -0.24  -0.24     0.02  -0.01  -0.17     0.06  -0.01   0.31
    17   1     0.15  -0.10   0.12    -0.13   0.12  -0.22    -0.08  -0.02   0.08
    18   1     0.10   0.01   0.04     0.19  -0.19   0.08    -0.26   0.12  -0.10
    19   1     0.01   0.03  -0.03     0.00  -0.05  -0.14     0.07  -0.12   0.24
                     19                     20                     21
                      A                      A                      A
 Frequencies --    824.6748               875.5372               924.2164
 Red. masses --      1.6299                 2.7084                 2.7536
 Frc consts  --      0.6531                 1.2233                 1.3858
 IR Inten    --    156.2968                36.2801                36.9044
 Dip. str.   --    756.0920               165.3108               159.2988
 Rot. str.   --     50.8428                35.4392                -9.0571
 E-M angle   --     59.6090                56.4868                95.6446
  Atom  AN      X      Y      Z        X      Y      Z        X      Y      Z
     1   5     0.13   0.08   0.01     0.13   0.09   0.00     0.02  -0.03  -0.00
     2   9    -0.04   0.02  -0.06    -0.05   0.02  -0.07    -0.02   0.00  -0.02
     3   9    -0.04   0.01   0.06    -0.06   0.01   0.07    -0.02  -0.00   0.02
     4   9     0.01  -0.07  -0.00     0.01  -0.10  -0.01    -0.00   0.03   0.00
     5   8    -0.04  -0.04  -0.00     0.12   0.13   0.06     0.18  -0.18   0.01
     6   6     0.01   0.03   0.01    -0.02   0.03  -0.05    -0.03   0.07  -0.10
     7   6     0.00   0.02   0.00    -0.08  -0.02   0.00    -0.16   0.04   0.04
     8   6     0.05   0.04  -0.03    -0.04  -0.09  -0.07     0.05   0.05   0.07
     9   6     0.04   0.00  -0.02     0.01  -0.11   0.00    -0.07   0.09  -0.02
    10   1    -0.13  -0.08   0.09     0.20   0.02  -0.10     0.13   0.00  -0.11
    11   1     0.09  -0.01  -0.16    -0.21   0.08   0.01     0.27  -0.01  -0.09
    12   1    -0.07  -0.10   0.02    -0.14   0.04   0.24    -0.45  -0.16   0.49
    13   1    -0.11  -0.12   0.10     0.20   0.06  -0.10     0.10  -0.13   0.05
    14   1     0.14  -0.03  -0.18    -0.07   0.01   0.22     0.20  -0.05   0.00
    15   1    -0.39  -0.02  -0.17     0.02   0.03  -0.04     0.11  -0.20   0.07
    16   1     0.13  -0.14   0.41    -0.14   0.16  -0.15     0.03   0.09   0.04
    17   1    -0.18  -0.01   0.07     0.44  -0.24   0.34    -0.14   0.16  -0.23
    18   1    -0.34   0.10  -0.12     0.06   0.19   0.01     0.08  -0.08   0.03
    19   1     0.15  -0.26   0.36    -0.11   0.30  -0.06    -0.07   0.04  -0.17
                     22                     23                     24
                      A                      A                      A
 Frequencies --   1025.2705              1046.1568              1114.9950
 Red. masses --      2.8752                 2.3070                 2.3499
 Frc consts  --      1.7807                 1.4876                 1.7213
 IR Inten    --    145.5608                33.4671                51.4951
 Dip. str.   --    566.3869               127.6230               184.2470
 Rot. str.   --    -18.6084               -10.9032              -120.2748
 E-M angle   --     99.2785               116.8242               122.5827
  Atom  AN      X      Y      Z        X      Y      Z        X      Y      Z
     1   5    -0.05   0.02   0.02    -0.04  -0.05   0.01    -0.08   0.11  -0.03
     2   9     0.01  -0.00   0.01     0.01   0.00   0.01     0.02  -0.01   0.03
     3   9     0.02  -0.00  -0.02     0.01  -0.00  -0.01     0.01  -0.01  -0.01
     4   9    -0.00  -0.02  -0.00    -0.00   0.03   0.00     0.01  -0.04  -0.00
     5   8    -0.11   0.14  -0.04    -0.03  -0.06  -0.07     0.01   0.01  -0.03
     6   6     0.27  -0.07   0.02     0.07  -0.05  -0.02    -0.08  -0.09   0.18
     7   6    -0.16   0.03   0.03    -0.05   0.03   0.03     0.01   0.10  -0.17
     8   6    -0.01  -0.11  -0.03    -0.08   0.23  -0.00     0.05   0.00   0.05
     9   6     0.02   0.05   0.01     0.07  -0.15   0.03    -0.04  -0.02  -0.05
    10   1     0.39  -0.06  -0.02     0.04   0.04  -0.06    -0.09  -0.03   0.16
    11   1     0.20  -0.07  -0.15     0.31  -0.11  -0.00    -0.03  -0.11   0.22
    12   1    -0.39  -0.11   0.47    -0.15  -0.09   0.13    -0.23  -0.09   0.24
    13   1     0.11  -0.16   0.05    -0.04  -0.10   0.09     0.44  -0.12  -0.19
    14   1     0.14  -0.03   0.16     0.08  -0.02  -0.04     0.52  -0.01  -0.19
    15   1     0.04   0.02  -0.00    -0.18   0.37  -0.03     0.02  -0.02   0.05
    16   1     0.01  -0.15  -0.02    -0.10   0.25  -0.10     0.05   0.03   0.08
    17   1    -0.21   0.11  -0.14     0.38  -0.28   0.37     0.09  -0.06   0.07
    18   1    -0.07  -0.11  -0.01     0.10   0.15   0.04    -0.04   0.16  -0.06
    19   1     0.08  -0.17   0.01     0.00   0.14   0.17    -0.11   0.18  -0.05
                     25                     26                     27
                      A                      A                      A
 Frequencies --   1122.2543              1125.1207              1149.8231
 Red. masses --      6.1922                 2.6736                 3.6911
 Frc consts  --      4.5949                 1.9941                 2.8752
 IR Inten    --    424.6166               123.2012               369.9635
 Dip. str.   --   1509.4306               436.8409              1283.6162
 Rot. str.   --    -76.9895               146.4560                72.0443
 E-M angle   --     95.8065                56.9556                82.9449
  Atom  AN      X      Y      Z        X      Y      Z        X      Y      Z
     1   5    -0.11   0.13   0.57     0.04  -0.09   0.21    -0.20   0.34  -0.06
     2   9    -0.05   0.03  -0.13    -0.04   0.02  -0.07     0.04  -0.04   0.06
     3   9     0.10  -0.04  -0.16     0.02  -0.00  -0.04     0.03  -0.02  -0.03
     4   9     0.02  -0.06  -0.03    -0.01   0.03  -0.01     0.04  -0.12  -0.01
     5   8    -0.01  -0.01  -0.02     0.03  -0.02   0.01     0.01  -0.05   0.05
     6   6     0.01   0.00  -0.07    -0.04   0.02   0.11     0.01   0.01  -0.07
     7   6     0.01  -0.01   0.07    -0.00  -0.00  -0.10     0.01  -0.01   0.06
     8   6     0.10  -0.03   0.12    -0.09   0.05  -0.16     0.01   0.05  -0.15
     9   6    -0.08  -0.02  -0.11     0.06   0.01   0.15    -0.01  -0.01   0.13
    10   1    -0.06   0.15  -0.12     0.05  -0.20   0.19     0.01   0.10  -0.11
    11   1     0.08  -0.00   0.04    -0.18   0.02  -0.07     0.00   0.02  -0.02
    12   1     0.07  -0.03  -0.12    -0.05   0.07   0.14     0.05  -0.03  -0.09
    13   1    -0.22  -0.00   0.13     0.32   0.04  -0.21    -0.19  -0.01   0.11
    14   1    -0.11   0.00  -0.05     0.14  -0.00   0.08    -0.11   0.00  -0.03
    15   1     0.12  -0.01   0.14    -0.18  -0.08  -0.20    -0.27  -0.25  -0.26
    16   1     0.10  -0.03   0.16    -0.10   0.09  -0.03    -0.05   0.25   0.19
    17   1     0.13  -0.11   0.15    -0.07   0.12  -0.18     0.04   0.09  -0.20
    18   1    -0.19   0.31  -0.16     0.27  -0.40   0.22     0.35  -0.30   0.24
    19   1    -0.17   0.28  -0.06     0.15  -0.28  -0.02    -0.02  -0.05  -0.19
                     28                     29                     30
                      A                      A                      A
 Frequencies --   1188.0436              1207.1078              1325.3213
 Red. masses --      1.9781                 1.8244                 1.0975
 Frc consts  --      1.6450                 1.5663                 1.1358
 IR Inten    --    187.7151                25.2073                11.5524
 Dip. str.   --    630.3391                83.3081                34.7742
 Rot. str.   --     -1.4374                16.4525                 5.7003
 E-M angle   --     90.7326                81.3592                80.4922
  Atom  AN      X      Y      Z        X      Y      Z        X      Y      Z
     1   5     0.08  -0.13   0.00     0.00  -0.00  -0.02     0.00  -0.00  -0.00
     2   9    -0.01   0.01  -0.02     0.01  -0.00   0.01     0.00  -0.00   0.00
     3   9    -0.01   0.01   0.01     0.00   0.00   0.00     0.00   0.00   0.00
     4   9    -0.02   0.04   0.00     0.00   0.01   0.00     0.00   0.00   0.00
     5   8    -0.06   0.07   0.03    -0.07  -0.05  -0.03    -0.02  -0.03  -0.02
     6   6    -0.00  -0.09  -0.03     0.07   0.13   0.06    -0.01   0.00   0.01
     7   6     0.02   0.06   0.03    -0.04  -0.11  -0.04     0.01   0.04   0.04
     8   6     0.14  -0.00  -0.07     0.10   0.05   0.02    -0.00   0.04   0.00
     9   6    -0.10  -0.03   0.04    -0.08  -0.04  -0.01    -0.02  -0.01  -0.01
    10   1    -0.07   0.17  -0.13     0.04  -0.26   0.24     0.72  -0.17  -0.08
    11   1     0.12  -0.09   0.23    -0.00   0.10  -0.38    -0.53   0.13   0.02
    12   1    -0.05  -0.14  -0.05     0.09   0.23   0.10     0.01  -0.04  -0.07
    13   1    -0.12  -0.12   0.14     0.18   0.19  -0.23    -0.08  -0.03   0.10
    14   1     0.10   0.01  -0.19    -0.19  -0.02   0.36     0.09  -0.00  -0.18
    15   1    -0.20  -0.28  -0.19    -0.05  -0.18  -0.04     0.02  -0.08   0.00
    16   1     0.10   0.18   0.37     0.14  -0.01   0.25     0.10  -0.23   0.03
    17   1     0.24   0.00  -0.11     0.19  -0.06   0.00     0.04  -0.03   0.02
    18   1     0.25  -0.02   0.14     0.11   0.13   0.03     0.06   0.03   0.01
    19   1    -0.20   0.20  -0.32    -0.17   0.22  -0.15    -0.03   0.03   0.02
                     31                     32                     33
                      A                      A                      A
 Frequencies --   1330.1725              1384.8001              1395.1114
 Red. masses --      1.1009                 1.2018                 1.2243
 Frc consts  --      1.1477                 1.3579                 1.4040
 IR Inten    --      4.6334                 1.1981                 9.9980
 Dip. str.   --     13.8963                 3.4515                28.5897
 Rot. str.   --     12.6264                -0.7500                -9.1259
 E-M angle   --     67.8917                95.9442               109.9943
  Atom  AN      X      Y      Z        X      Y      Z        X      Y      Z
     1   5    -0.00   0.01  -0.00    -0.00   0.01   0.00    -0.01   0.00  -0.00
     2   9    -0.00  -0.00  -0.00    -0.00  -0.00   0.00     0.00  -0.00   0.00
     3   9    -0.00  -0.00   0.00    -0.00  -0.00   0.00     0.00  -0.00  -0.00
     4   9     0.00  -0.00  -0.00    -0.00  -0.00  -0.00     0.00  -0.00   0.00
     5   8     0.04  -0.00  -0.02     0.00   0.04   0.00     0.01   0.01   0.01
     6   6    -0.00   0.01  -0.01    -0.06   0.01   0.02     0.02  -0.01  -0.01
     7   6    -0.01  -0.00   0.00    -0.06  -0.03   0.07     0.03   0.01  -0.04
     8   6     0.02  -0.03  -0.00    -0.01   0.01  -0.01    -0.01   0.02  -0.01
     9   6    -0.05  -0.00   0.05    -0.03   0.02  -0.02    -0.07   0.06  -0.08
    10   1    -0.08   0.01   0.00     0.26   0.00  -0.06    -0.15  -0.02   0.04
    11   1    -0.01   0.01   0.03     0.55  -0.15  -0.11    -0.04   0.02   0.09
    12   1     0.00   0.02   0.01     0.20   0.12  -0.36    -0.10  -0.05   0.22
    13   1     0.01   0.03  -0.02     0.34   0.14  -0.13    -0.19  -0.03   0.04
    14   1     0.01  -0.01  -0.01     0.20  -0.12  -0.23    -0.13   0.06   0.11
    15   1    -0.25   0.74  -0.05     0.02  -0.11  -0.00     0.14  -0.12   0.04
    16   1     0.19  -0.49   0.06     0.07  -0.20  -0.01     0.10  -0.26   0.11
    17   1     0.03   0.04  -0.08     0.10  -0.04   0.14     0.28  -0.13   0.42
    18   1     0.11  -0.07   0.09     0.12  -0.13   0.03     0.35  -0.35   0.07
    19   1    -0.09   0.06  -0.18     0.02  -0.11   0.09     0.07  -0.29   0.27
                     34                     35                     36
                      A                      A                      A
 Frequencies --   1415.3652              1438.2302              1456.9237
 Red. masses --      1.2796                 1.2695                 1.0398
 Frc consts  --      1.5103                 1.5471                 1.3004
 IR Inten    --     31.3326                11.7620                 7.4230
 Dip. str.   --     88.3153                32.6258                20.3259
 Rot. str.   --      7.1755                 1.8343                 1.0460
 E-M angle   --     76.9476                83.1013                87.8540
  Atom  AN      X      Y      Z        X      Y      Z        X      Y      Z
     1   5     0.00   0.01   0.00     0.02   0.00  -0.00     0.00  -0.00   0.00
     2   9    -0.00  -0.00  -0.00    -0.00   0.00  -0.00    -0.00   0.00  -0.00
     3   9    -0.00  -0.00   0.00    -0.00   0.00   0.00    -0.00   0.00  -0.00
     4   9    -0.00  -0.00  -0.00    -0.00  -0.00   0.00    -0.00   0.00   0.00
     5   8    -0.00   0.03  -0.01    -0.03  -0.03  -0.03     0.00   0.00   0.00
     6   6    -0.09  -0.00   0.04    -0.03   0.01   0.03    -0.01  -0.02  -0.01
     7   6     0.10  -0.02  -0.05     0.02   0.00   0.00    -0.02  -0.03  -0.02
     8   6    -0.01   0.00  -0.01     0.07  -0.07   0.04     0.01  -0.00   0.01
     9   6     0.02  -0.02   0.02    -0.02   0.07  -0.02     0.00   0.01  -0.00
    10   1     0.37  -0.08  -0.03     0.26   0.06  -0.06     0.03   0.06  -0.06
    11   1     0.49  -0.15  -0.05    -0.03  -0.01  -0.19    -0.00  -0.02  -0.00
    12   1    -0.14  -0.11   0.41    -0.02  -0.07  -0.00     0.21   0.58   0.25
    13   1    -0.37   0.20  -0.01     0.00   0.03  -0.01    -0.44   0.08   0.06
    14   1    -0.34   0.08  -0.03    -0.08   0.02  -0.05     0.52  -0.11   0.10
    15   1     0.01  -0.03  -0.01    -0.20   0.36  -0.03    -0.13  -0.04  -0.04
    16   1     0.03  -0.12  -0.02    -0.17   0.57  -0.04    -0.01   0.03  -0.13
    17   1    -0.06   0.03  -0.12     0.12  -0.05   0.30    -0.04  -0.01   0.05
    18   1    -0.07   0.10  -0.01    -0.12  -0.37  -0.03    -0.00  -0.06  -0.00
    19   1    -0.02   0.07  -0.06     0.04  -0.18  -0.17    -0.01   0.03  -0.00
                     37                     38                     39
                      A                      A                      A
 Frequencies --   1463.4524              1470.6145              1472.2199
 Red. masses --      1.0567                 1.0793                 1.0706
 Frc consts  --      1.3333                 1.3752                 1.3672
 IR Inten    --     10.3309                 1.7271                 3.2447
 Dip. str.   --     28.1622                 4.6853                 8.7925
 Rot. str.   --     -7.8747                 0.2875                 1.2711
 E-M angle   --    111.6852                85.0237                75.5084
  Atom  AN      X      Y      Z        X      Y      Z        X      Y      Z
     1   5     0.00  -0.01  -0.00     0.00   0.00  -0.00     0.01  -0.00   0.01
     2   9    -0.00  -0.00   0.00    -0.00  -0.00   0.00    -0.00   0.00  -0.00
     3   9    -0.00   0.00   0.00    -0.00  -0.00   0.00    -0.00  -0.00  -0.00
     4   9    -0.00   0.00   0.00     0.00  -0.00   0.00    -0.00   0.00  -0.00
     5   8     0.00   0.00   0.00     0.00   0.00  -0.00    -0.00   0.00   0.00
     6   6     0.01   0.00  -0.01    -0.05   0.01   0.02    -0.01  -0.00   0.02
     7   6    -0.00  -0.00   0.00     0.01   0.03  -0.05     0.01   0.01  -0.01
     8   6     0.00   0.03  -0.03    -0.02   0.01  -0.02     0.04  -0.03   0.02
     9   6     0.05  -0.01  -0.00     0.01  -0.00   0.01    -0.01  -0.01  -0.04
    10   1    -0.04  -0.07   0.04     0.16   0.10  -0.08     0.06   0.13  -0.06
    11   1     0.01   0.01   0.08     0.15  -0.06  -0.17     0.01  -0.02  -0.16
    12   1    -0.02  -0.03   0.00     0.09   0.01  -0.24    -0.01  -0.07  -0.06
    13   1     0.03   0.03  -0.02    -0.01  -0.58   0.25     0.03  -0.12   0.04
    14   1    -0.03  -0.00  -0.04     0.07   0.09   0.59    -0.07   0.04   0.11
    15   1     0.06  -0.07  -0.01     0.12   0.02   0.03    -0.28   0.03  -0.09
    16   1     0.06  -0.11   0.10     0.03  -0.09   0.13    -0.02   0.08  -0.24
    17   1    -0.47  -0.11   0.41     0.03  -0.01   0.02    -0.36   0.03  -0.04
    18   1    -0.16  -0.47  -0.04    -0.11  -0.03  -0.02     0.48   0.05   0.11
    19   1    -0.13   0.49  -0.18    -0.00  -0.01  -0.13    -0.06   0.31   0.52
                     40                     41                     42
                      A                      A                      A
 Frequencies --   1495.3266              1505.6360              3064.7101
 Red. masses --      1.0812                 1.0945                 1.0361
 Frc consts  --      1.4243                 1.4619                 5.7338
 IR Inten    --     18.0757                22.4474                13.1567
 Dip. str.   --     48.2243                59.4775                17.1264
 Rot. str.   --     29.0389               -12.6433                -3.1951
 E-M angle   --     37.7174               109.5881                96.5704
  Atom  AN      X      Y      Z        X      Y      Z        X      Y      Z
     1   5     0.01   0.00  -0.00    -0.01  -0.01  -0.00     0.00   0.00   0.00
     2   9    -0.00   0.00  -0.00     0.00   0.00   0.00    -0.00  -0.00  -0.00
     3   9    -0.00   0.00   0.00     0.00   0.00  -0.00    -0.00  -0.00   0.00
     4   9    -0.00   0.00   0.00     0.00   0.00   0.00    -0.00  -0.00  -0.00
     5   8    -0.01  -0.02  -0.01     0.02  -0.00   0.01    -0.00   0.00   0.00
     6   6    -0.01  -0.01   0.01     0.01  -0.04   0.06     0.00   0.00  -0.00
     7   6    -0.00  -0.01   0.01     0.00  -0.00   0.00    -0.04  -0.01   0.03
     8   6    -0.03  -0.03  -0.06    -0.01   0.03  -0.00     0.00   0.00   0.00
     9   6    -0.00  -0.01  -0.01     0.00  -0.01   0.01    -0.00   0.00  -0.00
    10   1     0.05   0.08  -0.05    -0.09   0.64  -0.23    -0.00  -0.00  -0.00
    11   1    -0.02  -0.02  -0.09    -0.21  -0.05  -0.59    -0.00  -0.00   0.00
    12   1     0.04   0.10   0.05    -0.04  -0.04   0.08     0.46  -0.26   0.19
    13   1    -0.06   0.10  -0.03     0.01   0.12  -0.06    -0.15  -0.23  -0.49
    14   1     0.10  -0.04  -0.08    -0.06  -0.01  -0.12     0.12   0.59  -0.07
    15   1     0.51   0.32   0.14     0.02  -0.13   0.01     0.01   0.00  -0.01
    16   1    -0.08   0.22   0.61     0.07  -0.19  -0.01    -0.02  -0.01   0.00
    17   1    -0.13   0.02  -0.07     0.04  -0.02   0.03    -0.00  -0.00  -0.00
    18   1     0.19   0.07   0.05    -0.09  -0.02  -0.02    -0.00   0.00   0.00
    19   1    -0.01   0.10   0.22    -0.01  -0.00  -0.11     0.00   0.00  -0.00
                     43                     44                     45
                      A                      A                      A
 Frequencies --   3073.0558              3106.8674              3116.5437
 Red. masses --      1.0369                 1.0604                 1.0691
 Frc consts  --      5.7695                 6.0307                 6.1183
 IR Inten    --     13.6867                16.1462                28.0167
 Dip. str.   --     17.7679                20.7327                35.8634
 Rot. str.   --      0.0060                 2.2245                 2.3970
 E-M angle   --     89.9748                85.6357                86.2624
  Atom  AN      X      Y      Z        X      Y      Z        X      Y      Z
     1   5     0.00   0.00   0.00     0.00   0.00  -0.00     0.00   0.00  -0.00
     2   9    -0.00   0.00  -0.00    -0.00  -0.00  -0.00    -0.00  -0.00  -0.00
     3   9    -0.00   0.00  -0.00    -0.00   0.00   0.00    -0.00   0.00   0.00
     4   9    -0.00  -0.00  -0.00    -0.00  -0.00  -0.00     0.00  -0.00   0.00
     5   8     0.00   0.00   0.00     0.00  -0.00  -0.00    -0.00   0.00  -0.00
     6   6    -0.00  -0.00  -0.00     0.00   0.00   0.01    -0.01  -0.00  -0.07
     7   6    -0.00  -0.00   0.00    -0.00   0.00  -0.00     0.01   0.00   0.01
     8   6    -0.00   0.00  -0.00    -0.02  -0.01  -0.06     0.00  -0.00  -0.01
     9   6     0.02  -0.04   0.03     0.00   0.01   0.01    -0.00   0.00   0.00
    10   1    -0.00   0.00  -0.00    -0.03  -0.06  -0.12     0.20   0.37   0.82
    11   1     0.00   0.00  -0.00     0.01   0.05  -0.00    -0.08  -0.32   0.02
    12   1     0.00  -0.00   0.00     0.03  -0.01   0.01    -0.07   0.04  -0.03
    13   1    -0.00  -0.00  -0.00    -0.00  -0.00  -0.01    -0.03  -0.05  -0.10
    14   1     0.00   0.01  -0.00     0.00   0.01  -0.00    -0.00  -0.02   0.01
    15   1     0.00  -0.00  -0.01    -0.25  -0.04   0.76    -0.05  -0.00   0.14
    16   1    -0.02  -0.01   0.00     0.53   0.20  -0.04     0.04   0.02  -0.00
    17   1     0.05   0.62   0.21    -0.01  -0.06  -0.02    -0.00  -0.01  -0.00
    18   1     0.17  -0.03  -0.56     0.02  -0.00  -0.07     0.01  -0.00  -0.02
    19   1    -0.46  -0.15   0.04    -0.02  -0.01   0.01     0.00   0.00   0.00
                     46                     47                     48
                      A                      A                      A
 Frequencies --   3150.2585              3157.4286              3159.0705
 Red. masses --      1.1029                 1.1010                 1.1025
 Frc consts  --      6.4487                 6.4669                 6.4829
 IR Inten    --     23.1393                21.0555                31.0576
 Dip. str.   --     29.3029                26.6035                39.2207
 Rot. str.   --    -12.7666                 6.3141                13.8443
 E-M angle   --     97.5503                84.6293                82.5049
  Atom  AN      X      Y      Z        X      Y      Z        X      Y      Z
     1   5    -0.00  -0.00  -0.00    -0.00   0.00  -0.00     0.00   0.00  -0.00
     2   9    -0.00   0.00  -0.00    -0.00  -0.00   0.00    -0.00  -0.00  -0.00
     3   9     0.00   0.00   0.00    -0.00  -0.00   0.00    -0.00  -0.00   0.00
     4   9     0.00   0.00   0.00     0.00  -0.00   0.00     0.00  -0.00   0.00
     5   8    -0.00   0.00   0.00    -0.00   0.00   0.00     0.00  -0.00   0.00
     6   6     0.00   0.01   0.00     0.00   0.00   0.00    -0.00   0.01  -0.01
     7   6     0.02  -0.09   0.01     0.00  -0.00   0.00    -0.06  -0.02  -0.07
     8   6     0.00   0.00  -0.00    -0.01  -0.00  -0.00     0.00   0.00  -0.00
     9   6    -0.00   0.00   0.00    -0.01  -0.06  -0.07    -0.00  -0.00  -0.00
    10   1    -0.01  -0.02  -0.04    -0.00  -0.00  -0.00     0.02   0.04   0.10
    11   1    -0.02  -0.09   0.01     0.00  -0.00   0.00    -0.03  -0.11   0.01
    12   1    -0.49   0.25  -0.20    -0.04   0.02  -0.02     0.47  -0.27   0.18
    13   1     0.07   0.08   0.22    -0.01  -0.02  -0.03     0.19   0.31   0.68
    14   1     0.16   0.74  -0.09     0.00   0.01  -0.00     0.03   0.18  -0.03
    15   1    -0.01  -0.00   0.03    -0.01  -0.00   0.05    -0.01  -0.00   0.03
    16   1    -0.03  -0.01   0.00     0.11   0.04  -0.01    -0.01  -0.00   0.00
    17   1    -0.00  -0.02  -0.01     0.05   0.68   0.22     0.00   0.04   0.01
    18   1     0.01  -0.00  -0.02    -0.18   0.02   0.61    -0.01   0.00   0.03
    19   1     0.01   0.00  -0.00     0.20   0.05  -0.03     0.03   0.01  -0.00
                     49                     50                     51
                      A                      A                      A
 Frequencies --   3168.9629              3187.9384              3222.0936
 Red. masses --      1.1056                 1.1072                 1.1014
 Frc consts  --      6.5416                 6.6298                 6.7370
 IR Inten    --      0.0705                29.1339                 5.2836
 Dip. str.   --      0.0887                36.4583                 6.5418
 Rot. str.   --     -1.3494                -0.8510                 1.3357
 E-M angle   --    114.6273                90.6829                77.7354
  Atom  AN      X      Y      Z        X      Y      Z        X      Y      Z
     1   5    -0.00  -0.00  -0.00    -0.00   0.00   0.00     0.00  -0.00   0.00
     2   9     0.00  -0.00  -0.00     0.00  -0.00  -0.00     0.00   0.00   0.00
     3   9     0.00   0.00   0.00     0.00  -0.00  -0.00     0.00   0.00  -0.00
     4   9    -0.00  -0.00  -0.00     0.00  -0.00   0.00    -0.00  -0.00  -0.00
     5   8    -0.00   0.00  -0.00     0.00   0.00  -0.00     0.00   0.00   0.00
     6   6    -0.00  -0.00   0.00     0.00   0.00  -0.00    -0.02  -0.09  -0.02
     7   6     0.00   0.00   0.00    -0.00  -0.00   0.00    -0.00  -0.01  -0.00
     8   6     0.06   0.02  -0.03    -0.05  -0.02   0.03    -0.00  -0.00   0.00
     9   6    -0.05  -0.03   0.02    -0.06  -0.02   0.03    -0.00  -0.00   0.00
    10   1    -0.01  -0.01  -0.03     0.00   0.01   0.01     0.07   0.13   0.30
    11   1     0.01   0.04  -0.00    -0.01  -0.04   0.00     0.22   0.90  -0.09
    12   1     0.00  -0.00   0.00    -0.00   0.00  -0.00    -0.02   0.01  -0.00
    13   1    -0.01  -0.01  -0.03     0.00   0.00   0.00     0.02   0.03   0.07
    14   1    -0.01  -0.04   0.00     0.00   0.02  -0.00     0.02   0.10  -0.02
    15   1    -0.12  -0.02   0.38     0.11   0.02  -0.37     0.00   0.00  -0.02
    16   1    -0.55  -0.20   0.03     0.53   0.19  -0.02     0.03   0.01  -0.00
    17   1     0.00   0.15   0.06    -0.00   0.10   0.04    -0.00  -0.00  -0.00
    18   1     0.08  -0.02  -0.28     0.10  -0.02  -0.37     0.00  -0.00  -0.00
    19   1     0.57   0.18  -0.05     0.58   0.18  -0.04     0.01   0.00  -0.00

 -------------------
 - Thermochemistry -
 -------------------
 Temperature   298.150 Kelvin.  Pressure   1.00000 Atm.
 Atom     1 has atomic number  5 and mass  11.00931
 Atom     2 has atomic number  9 and mass  18.99840
 Atom     3 has atomic number  9 and mass  18.99840
 Atom     4 has atomic number  9 and mass  18.99840
 Atom     5 has atomic number  8 and mass  15.99491
 Atom     6 has atomic number  6 and mass  12.00000
 Atom     7 has atomic number  6 and mass  12.00000
 Atom     8 has atomic number  6 and mass  12.00000
 Atom     9 has atomic number  6 and mass  12.00000
 Atom    10 has atomic number  1 and mass   1.00783
 Atom    11 has atomic number  1 and mass   1.00783
 Atom    12 has atomic number  1 and mass   1.00783
 Atom    13 has atomic number  1 and mass   1.00783
 Atom    14 has atomic number  1 and mass   1.00783
 Atom    15 has atomic number  1 and mass   1.00783
 Atom    16 has atomic number  1 and mass   1.00783
 Atom    17 has atomic number  1 and mass   1.00783
 Atom    18 has atomic number  1 and mass   1.00783
 Atom    19 has atomic number  1 and mass   1.00783
 Molecular mass:   142.07768 amu.
 Principal axes and moments of inertia in atomic units:
                           1         2         3
     Eigenvalues --  1031.826641272.775501791.93955
           X            0.98914  -0.14692  -0.00368
           Y            0.14690   0.98913  -0.00591
           Z            0.00451   0.00531   0.99998
 This molecule is an asymmetric top.
 Rotational symmetry number  1.
 Warning -- assumption of classical behavior for rotation
           may cause significant error
 Rotational temperatures (Kelvin)      0.08394     0.06805     0.04834
 Rotational constants (GHZ):           1.74907     1.41796     1.00714
 Zero-point vibrational energy     398590.8 (Joules/Mol)
                                   95.26550 (Kcal/Mol)
 Warning -- explicit consideration of  15 degrees of freedom as
           vibrations may cause significant error
 Vibrational temperatures:     36.90    73.04   107.09   242.34   305.84
          (Kelvin)            317.50   395.66   419.32   440.66   477.16
                              542.22   598.73   679.16   709.97   764.60
                              913.01  1123.81  1170.36  1186.52  1259.70
                             1329.74  1475.14  1505.19  1604.23  1614.67
                             1618.80  1654.34  1709.33  1736.76  1906.84
                             1913.82  1992.42  2007.25  2036.39  2069.29
                             2096.19  2105.58  2115.89  2118.20  2151.44
                             2166.27  4409.43  4421.44  4470.09  4484.01
                             4532.52  4542.84  4545.20  4559.43  4586.73
                             4635.87
 
 Zero-point correction=                           0.151815 (Hartree/Particle)
 Thermal correction to Energy=                    0.162565
 Thermal correction to Enthalpy=                  0.163509
 Thermal correction to Gibbs Free Energy=         0.114591
 Sum of electronic and zero-point Energies=           -558.000366
 Sum of electronic and thermal Energies=              -557.989616
 Sum of electronic and thermal Enthalpies=            -557.988672
 Sum of electronic and thermal Free Energies=         -558.037590
 
                     E (Thermal)             CV                S
                      KCal/Mol        Cal/Mol-Kelvin    Cal/Mol-Kelvin
 Total                  102.011             37.973            102.957
 Electronic               0.000              0.000              0.000
 Translational            0.889              2.981             40.765
 Rotational               0.889              2.981             29.244
 Vibrational            100.234             32.011             32.948
 Vibration     1          0.593              1.985              6.141
 Vibration     2          0.595              1.977              4.787
 Vibration     3          0.599              1.966              4.033
 Vibration     4          0.625              1.881              2.453
 Vibration     5          0.644              1.822              2.022
 Vibration     6          0.647              1.810              1.954
 Vibration     7          0.677              1.720              1.565
 Vibration     8          0.687              1.690              1.466
 Vibration     9          0.697              1.662              1.382
 Vibration    10          0.714              1.612              1.252
 Vibration    11          0.747              1.519              1.052
 Vibration    12          0.779              1.435              0.905
 Vibration    13          0.829              1.312              0.732
 Vibration    14          0.849              1.265              0.675
 Vibration    15          0.886              1.180              0.584
                       Q            Log10(Q)             Ln(Q)
 Total Bot       0.195771D-52        -52.708251       -121.365234
 Total V=0       0.132387D+18         17.121845         39.424506
 Vib (Bot)       0.535574D-66        -66.271181       -152.595032
 Vib (Bot)    1  0.807558D+01          0.907174          2.088845
 Vib (Bot)    2  0.407204D+01          0.609812          1.404144
 Vib (Bot)    3  0.276926D+01          0.442364          1.018580
 Vib (Bot)    4  0.119705D+01          0.078112          0.179860
 Vib (Bot)    5  0.933405D+00         -0.029930         -0.068916
 Vib (Bot)    6  0.896124D+00         -0.047632         -0.109676
 Vib (Bot)    7  0.700977D+00         -0.154296         -0.355280
 Vib (Bot)    8  0.655643D+00         -0.183333         -0.422139
 Vib (Bot)    9  0.618719D+00         -0.208507         -0.480104
 Vib (Bot)   10  0.562826D+00         -0.249626         -0.574784
 Vib (Bot)   11  0.480819D+00         -0.318018         -0.732264
 Vib (Bot)   12  0.423195D+00         -0.373459         -0.859922
 Vib (Bot)   13  0.356713D+00         -0.447681         -1.030823
 Vib (Bot)   14  0.334998D+00         -0.474958         -1.093632
 Vib (Bot)   15  0.300542D+00         -0.522095         -1.202168
 Vib (V=0)       0.362173D+04          3.558916          8.194707
 Vib (V=0)    1  0.859105D+01          0.934046          2.150721
 Vib (V=0)    2  0.460262D+01          0.663005          1.526626
 Vib (V=0)    3  0.331404D+01          0.520357          1.198167
 Vib (V=0)    4  0.179728D+01          0.254615          0.586273
 Vib (V=0)    5  0.155889D+01          0.192815          0.443973
 Vib (V=0)    6  0.152618D+01          0.183605          0.422766
 Vib (V=0)    7  0.136103D+01          0.133867          0.308240
 Vib (V=0)    8  0.132454D+01          0.122065          0.281066
 Vib (V=0)    9  0.129550D+01          0.112436          0.258893
 Vib (V=0)   10  0.125284D+01          0.097897          0.225416
 Vib (V=0)   11  0.119368D+01          0.076887          0.177038
 Vib (V=0)   12  0.115505D+01          0.062602          0.144146
 Vib (V=0)   13  0.111420D+01          0.046964          0.108139
 Vib (V=0)   14  0.110185D+01          0.042122          0.096991
 Vib (V=0)   15  0.108337D+01          0.034778          0.080080
 Electronic      0.100000D+01          0.000000          0.000000
 Translational   0.665645D+08          7.823243         18.013682
 Rotational      0.549144D+06          5.739687         13.216117
 ***** Axes restored to original set *****
 -------------------------------------------------------------------
 Center     Atomic                   Forces (Hartrees/Bohr)
 Number     Number              X              Y              Z
 -------------------------------------------------------------------
      1        5          -0.000005078   -0.000001347   -0.000001530
      2        9          -0.000000519   -0.000014057    0.000004535
      3        9           0.000005699    0.000004053    0.000006743
      4        9          -0.000007316    0.000004910    0.000003290
      5        8          -0.000007750    0.000015215   -0.000005931
      6        6           0.000009151   -0.000013939   -0.000004604
      7        6          -0.000002396    0.000012632   -0.000000320
      8        6          -0.000000374   -0.000004215    0.000012923
      9        6          -0.000001717   -0.000008180   -0.000002634
     10        1           0.000007463    0.000002515    0.000002375
     11        1           0.000008368   -0.000004290   -0.000000883
     12        1           0.000005478   -0.000002234    0.000000098
     13        1          -0.000001782   -0.000001618    0.000000620
     14        1           0.000001754   -0.000003096    0.000000025
     15        1          -0.000001758    0.000002083   -0.000004375
     16        1          -0.000000161   -0.000001746   -0.000005056
     17        1          -0.000002443    0.000009075   -0.000005324
     18        1          -0.000002241    0.000000479   -0.000000091
     19        1          -0.000004380    0.000003759    0.000000141
 -------------------------------------------------------------------
 Cartesian Forces:  Max     0.000015215 RMS     0.000005782
 FormGI is forming the generalized inverse of G from B-inverse, IUseBI=4.

 GradGradGradGradGradGradGradGradGradGradGradGradGradGradGradGradGradGrad
 Berny optimization.
 Internal  Forces:  Max     0.000030110 RMS     0.000006475
 Search for a local minimum.
 Step number   1 out of a maximum of    2
 All quantities printed in internal units (Hartrees-Bohrs-Radians)
 Second derivative matrix not updated -- analytic derivatives used.
 ITU=  0
     Eigenvalues ---    0.00082   0.00144   0.00241   0.00320   0.00442
     Eigenvalues ---    0.00948   0.04097   0.04129   0.04187   0.04310
     Eigenvalues ---    0.04348   0.04373   0.05040   0.05413   0.07269
     Eigenvalues ---    0.07802   0.09127   0.09842   0.10058   0.11892
     Eigenvalues ---    0.12219   0.12394   0.12469   0.12950   0.13596
     Eigenvalues ---    0.15615   0.16188   0.16424   0.18698   0.19946
     Eigenvalues ---    0.22882   0.25011   0.26807   0.29732   0.30277
     Eigenvalues ---    0.30933   0.31752   0.33728   0.34426   0.34488
     Eigenvalues ---    0.34635   0.34714   0.34875   0.34928   0.35070
     Eigenvalues ---    0.35155   0.35498   0.35733   0.39156   0.39939
     Eigenvalues ---    0.41681
 Angle between quadratic step and forces=  74.09 degrees.
 Linear search not attempted -- first point.
 Iteration  1 RMS(Cart)=  0.00332776 RMS(Int)=  0.00000702
 Iteration  2 RMS(Cart)=  0.00000781 RMS(Int)=  0.00000040
 Iteration  3 RMS(Cart)=  0.00000000 RMS(Int)=  0.00000040
 Variable       Old X    -DE/DX   Delta X   Delta X   Delta X     New X
                                 (Linear)    (Quad)   (Total)
    R1        2.61994  -0.00001   0.00000   0.00008   0.00008   2.62003
    R2        2.62736   0.00000   0.00000   0.00000   0.00000   2.62737
    R3        2.62071  -0.00000   0.00000  -0.00007  -0.00007   2.62063
    R4        3.00272   0.00000   0.00000  -0.00001  -0.00001   3.00271
    R5        2.77953   0.00001   0.00000  -0.00016  -0.00016   2.77936
    R6        2.77879  -0.00000   0.00000  -0.00012  -0.00012   2.77867
    R7        2.85410  -0.00000   0.00000   0.00002   0.00002   2.85411
    R8        2.07008   0.00000   0.00000   0.00002   0.00002   2.07010
    R9        2.05879  -0.00000   0.00000  -0.00002  -0.00002   2.05877
   R10        2.07367   0.00000   0.00000   0.00001   0.00001   2.07369
   R11        2.07166  -0.00000   0.00000  -0.00000  -0.00000   2.07166
   R12        2.07312  -0.00000   0.00000   0.00000   0.00000   2.07312
   R13        2.85204   0.00000   0.00000   0.00002   0.00002   2.85206
   R14        2.07102  -0.00000   0.00000  -0.00004  -0.00004   2.07098
   R15        2.06613   0.00000   0.00000  -0.00001  -0.00001   2.06611
   R16        2.07374   0.00000   0.00000  -0.00001  -0.00001   2.07373
   R17        2.07071  -0.00000   0.00000   0.00001   0.00001   2.07072
   R18        2.06728   0.00000   0.00000   0.00004   0.00004   2.06732
    A1        1.96598   0.00000   0.00000  -0.00011  -0.00011   1.96587
    A2        1.95126  -0.00000   0.00000   0.00010   0.00010   1.95136
    A3        1.85140  -0.00002   0.00000  -0.00022  -0.00022   1.85118
    A4        1.96796   0.00000   0.00000  -0.00004  -0.00004   1.96792
    A5        1.86133  -0.00001   0.00000  -0.00011  -0.00011   1.86122
    A6        1.85594   0.00003   0.00000   0.00038   0.00038   1.85632
    A7        2.08886   0.00003   0.00000   0.00138   0.00137   2.09024
    A8        2.05623  -0.00002   0.00000  -0.00019  -0.00020   2.05603
    A9        1.96033  -0.00001   0.00000   0.00062   0.00062   1.96095
   A10        1.91564  -0.00000   0.00000   0.00005   0.00005   1.91569
   A11        1.86423  -0.00000   0.00000  -0.00005  -0.00005   1.86418
   A12        1.85055   0.00000   0.00000  -0.00007  -0.00007   1.85048
   A13        1.97099  -0.00000   0.00000   0.00002   0.00002   1.97101
   A14        1.95335  -0.00000   0.00000   0.00002   0.00002   1.95336
   A15        1.90312   0.00000   0.00000   0.00002   0.00002   1.90314
   A16        1.89323   0.00000   0.00000   0.00000   0.00000   1.89323
   A17        1.92976  -0.00000   0.00000   0.00000   0.00000   1.92976
   A18        1.95343   0.00000   0.00000   0.00006   0.00006   1.95349
   A19        1.89590  -0.00000   0.00000  -0.00002  -0.00002   1.89588
   A20        1.88561  -0.00000   0.00000  -0.00007  -0.00007   1.88555
   A21        1.90453   0.00000   0.00000   0.00002   0.00002   1.90455
   A22        1.95742  -0.00001   0.00000  -0.00046  -0.00046   1.95696
   A23        1.86551   0.00000   0.00000   0.00005   0.00005   1.86555
   A24        1.83239   0.00000   0.00000   0.00016   0.00016   1.83255
   A25        1.96328   0.00000   0.00000   0.00011   0.00011   1.96339
   A26        1.92870   0.00000   0.00000   0.00008   0.00008   1.92878
   A27        1.91091   0.00000   0.00000   0.00007   0.00007   1.91097
   A28        1.86942   0.00001   0.00000   0.00029   0.00029   1.86971
   A29        1.93663  -0.00000   0.00000  -0.00011  -0.00011   1.93652
   A30        1.95956   0.00000   0.00000  -0.00012  -0.00012   1.95944
   A31        1.89478  -0.00000   0.00000   0.00003   0.00003   1.89480
   A32        1.89114  -0.00001   0.00000  -0.00004  -0.00004   1.89110
   A33        1.91032   0.00000   0.00000  -0.00003  -0.00003   1.91029
    D1       -2.44741   0.00000   0.00000   0.00760   0.00760  -2.43981
    D2        1.34612   0.00001   0.00000   0.00447   0.00447   1.35059
    D3        1.73635   0.00001   0.00000   0.00790   0.00790   1.74424
    D4       -0.75330   0.00001   0.00000   0.00476   0.00476  -0.74854
    D5       -0.36772   0.00000   0.00000   0.00780   0.00780  -0.35992
    D6       -2.85737   0.00000   0.00000   0.00467   0.00467  -2.85271
    D7        2.19041   0.00000   0.00000  -0.00106  -0.00106   2.18935
    D8       -1.95037   0.00000   0.00000  -0.00104  -0.00104  -1.95141
    D9        0.07758   0.00001   0.00000  -0.00107  -0.00107   0.07651
   D10       -1.57003  -0.00000   0.00000   0.00161   0.00161  -1.56842
   D11        0.57237  -0.00000   0.00000   0.00163   0.00163   0.57401
   D12        2.60033  -0.00000   0.00000   0.00160   0.00160   2.60193
   D13       -0.99985   0.00001   0.00000  -0.00046  -0.00046  -1.00031
   D14        1.15949   0.00000   0.00000  -0.00058  -0.00058   1.15891
   D15       -3.09488   0.00001   0.00000  -0.00041  -0.00041  -3.09529
   D16        2.74801  -0.00001   0.00000  -0.00368  -0.00368   2.74433
   D17       -1.37584  -0.00001   0.00000  -0.00379  -0.00379  -1.37963
   D18        0.65298  -0.00001   0.00000  -0.00362  -0.00362   0.64935
   D19        3.13775  -0.00000   0.00000   0.00012   0.00012   3.13787
   D20       -1.06822  -0.00000   0.00000   0.00010   0.00010  -1.06812
   D21        1.05901  -0.00000   0.00000   0.00017   0.00017   1.05918
   D22        1.05985   0.00000   0.00000   0.00013   0.00013   1.05998
   D23        3.13706   0.00000   0.00000   0.00011   0.00011   3.13717
   D24       -1.01889   0.00000   0.00000   0.00017   0.00017  -1.01871
   D25       -1.09576   0.00000   0.00000   0.00007   0.00007  -1.09569
   D26        0.98145  -0.00000   0.00000   0.00005   0.00005   0.98150
   D27        3.10869   0.00000   0.00000   0.00012   0.00012   3.10881
   D28       -3.02848  -0.00000   0.00000  -0.00122  -0.00122  -3.02970
   D29       -0.96317  -0.00000   0.00000  -0.00107  -0.00107  -0.96424
   D30        1.18082  -0.00000   0.00000  -0.00128  -0.00128   1.17954
   D31        1.15111   0.00000   0.00000  -0.00103  -0.00103   1.15008
   D32       -3.06676   0.00000   0.00000  -0.00089  -0.00089  -3.06765
   D33       -0.92278   0.00000   0.00000  -0.00109  -0.00109  -0.92387
   D34       -0.99048  -0.00000   0.00000  -0.00125  -0.00125  -0.99173
   D35        1.07484  -0.00000   0.00000  -0.00111  -0.00111   1.07373
   D36       -3.06437  -0.00000   0.00000  -0.00131  -0.00131  -3.06568
         Item               Value     Threshold  Converged?
 Maximum Force            0.000030     0.000450     YES
 RMS     Force            0.000006     0.000300     YES
 Maximum Displacement     0.013837     0.001800     NO 
 RMS     Displacement     0.003328     0.001200     NO 
 Predicted change in Energy=-1.465434D-07
                           ----------------------------
                           ! Non-Optimized Parameters !
                           ! (Angstroms and Degrees)  !
 --------------------------                            --------------------------
 ! Name  Definition              Value          Derivative Info.                !
 --------------------------------------------------------------------------------
 ! R1    R(1,2)                  1.3865         -DE/DX =    0.0                 !
 ! R2    R(1,3)                  1.3903         -DE/DX =    0.0                 !
 ! R3    R(1,4)                  1.3868         -DE/DX =    0.0                 !
 ! R4    R(1,5)                  1.589          -DE/DX =    0.0                 !
 ! R5    R(5,6)                  1.4708         -DE/DX =    0.0                 !
 ! R6    R(5,8)                  1.4704         -DE/DX =    0.0                 !
 ! R7    R(6,7)                  1.5103         -DE/DX =    0.0                 !
 ! R8    R(6,10)                 1.0955         -DE/DX =    0.0                 !
 ! R9    R(6,11)                 1.0895         -DE/DX =    0.0                 !
 ! R10   R(7,12)                 1.0973         -DE/DX =    0.0                 !
 ! R11   R(7,13)                 1.0963         -DE/DX =    0.0                 !
 ! R12   R(7,14)                 1.097          -DE/DX =    0.0                 !
 ! R13   R(8,9)                  1.5092         -DE/DX =    0.0                 !
 ! R14   R(8,15)                 1.0959         -DE/DX =    0.0                 !
 ! R15   R(8,16)                 1.0933         -DE/DX =    0.0                 !
 ! R16   R(9,17)                 1.0974         -DE/DX =    0.0                 !
 ! R17   R(9,18)                 1.0958         -DE/DX =    0.0                 !
 ! R18   R(9,19)                 1.094          -DE/DX =    0.0                 !
 ! A1    A(2,1,3)              112.6363         -DE/DX =    0.0                 !
 ! A2    A(2,1,4)              111.8048         -DE/DX =    0.0                 !
 ! A3    A(2,1,5)              106.0648         -DE/DX =    0.0                 !
 ! A4    A(3,1,4)              112.7535         -DE/DX =    0.0                 !
 ! A5    A(3,1,5)              106.6402         -DE/DX =    0.0                 !
 ! A6    A(4,1,5)              106.3594         -DE/DX =    0.0                 !
 ! A7    A(1,5,6)              119.7618         -DE/DX =    0.0                 !
 ! A8    A(1,5,8)              117.802          -DE/DX =    0.0                 !
 ! A9    A(6,5,8)              112.354          -DE/DX =    0.0                 !
 ! A10   A(5,6,7)              109.7612         -DE/DX =    0.0                 !
 ! A11   A(5,6,10)             106.8098         -DE/DX =    0.0                 !
 ! A12   A(5,6,11)             106.0246         -DE/DX =    0.0                 !
 ! A13   A(7,6,10)             112.9305         -DE/DX =    0.0                 !
 ! A14   A(7,6,11)             111.9194         -DE/DX =    0.0                 !
 ! A15   A(10,6,11)            109.0421         -DE/DX =    0.0                 !
 ! A16   A(6,7,12)             108.4744         -DE/DX =    0.0                 !
 ! A17   A(6,7,13)             110.5674         -DE/DX =    0.0                 !
 ! A18   A(6,7,14)             111.9265         -DE/DX =    0.0                 !
 ! A19   A(12,7,13)            108.6259         -DE/DX =    0.0                 !
 ! A20   A(12,7,14)            108.0339         -DE/DX =    0.0                 !
 ! A21   A(13,7,14)            109.1228         -DE/DX =    0.0                 !
 ! A22   A(5,8,9)              112.1255         -DE/DX =    0.0                 !
 ! A23   A(5,8,15)             106.8883         -DE/DX =    0.0                 !
 ! A24   A(5,8,16)             104.9976         -DE/DX =    0.0                 !
 ! A25   A(9,8,15)             112.4941         -DE/DX =    0.0                 !
 ! A26   A(9,8,16)             110.511          -DE/DX =    0.0                 !
 ! A27   A(15,8,16)            109.4907         -DE/DX =    0.0                 !
 ! A28   A(8,9,17)             107.1263         -DE/DX =    0.0                 !
 ! A29   A(8,9,18)             110.9545         -DE/DX =    0.0                 !
 ! A30   A(8,9,19)             112.2677         -DE/DX =    0.0                 !
 ! A31   A(17,9,18)            108.5642         -DE/DX =    0.0                 !
 ! A32   A(17,9,19)            108.352          -DE/DX =    0.0                 !
 ! A33   A(18,9,19)            109.4516         -DE/DX =    0.0                 !
 ! D1    D(2,1,5,6)           -139.7909         -DE/DX =    0.0                 !
 ! D2    D(2,1,5,8)             77.3832         -DE/DX =    0.0                 !
 ! D3    D(3,1,5,6)             99.9378         -DE/DX =    0.0                 !
 ! D4    D(3,1,5,8)            -42.8881         -DE/DX =    0.0                 !
 ! D5    D(4,1,5,6)            -20.6222         -DE/DX =    0.0                 !
 ! D6    D(4,1,5,8)           -163.4481         -DE/DX =    0.0                 !
 ! D7    D(1,5,6,7)            125.4403         -DE/DX =    0.0                 !
 ! D8    D(1,5,6,10)          -111.8075         -DE/DX =    0.0                 !
 ! D9    D(1,5,6,11)             4.384          -DE/DX =    0.0                 !
 ! D10   D(8,5,6,7)            -89.864          -DE/DX =    0.0                 !
 ! D11   D(8,5,6,10)            32.8882         -DE/DX =    0.0                 !
 ! D12   D(8,5,6,11)           149.0797         -DE/DX =    0.0                 !
 ! D13   D(1,5,8,9)            -57.3138         -DE/DX =    0.0                 !
 ! D14   D(1,5,8,15)            66.4005         -DE/DX =    0.0                 !
 ! D15   D(1,5,8,16)          -177.3471         -DE/DX =    0.0                 !
 ! D16   D(6,5,8,9)            157.2386         -DE/DX =    0.0                 !
 ! D17   D(6,5,8,15)           -79.0471         -DE/DX =    0.0                 !
 ! D18   D(6,5,8,16)            37.2052         -DE/DX =    0.0                 !
 ! D19   D(5,6,7,12)           179.7866         -DE/DX =    0.0                 !
 ! D20   D(5,6,7,13)           -61.199          -DE/DX =    0.0                 !
 ! D21   D(5,6,7,14)            60.6864         -DE/DX =    0.0                 !
 ! D22   D(10,6,7,12)           60.7322         -DE/DX =    0.0                 !
 ! D23   D(10,6,7,13)          179.7466         -DE/DX =    0.0                 !
 ! D24   D(10,6,7,14)          -58.3679         -DE/DX =    0.0                 !
 ! D25   D(11,6,7,12)          -62.7784         -DE/DX =    0.0                 !
 ! D26   D(11,6,7,13)           56.236          -DE/DX =    0.0                 !
 ! D27   D(11,6,7,14)          178.1215         -DE/DX =    0.0                 !
 ! D28   D(5,8,9,17)          -173.589          -DE/DX =    0.0                 !
 ! D29   D(5,8,9,18)           -55.2469         -DE/DX =    0.0                 !
 ! D30   D(5,8,9,19)            67.5826         -DE/DX =    0.0                 !
 ! D31   D(15,8,9,17)           65.8946         -DE/DX =    0.0                 !
 ! D32   D(15,8,9,18)         -175.7632         -DE/DX =    0.0                 !
 ! D33   D(15,8,9,19)          -52.9338         -DE/DX =    0.0                 !
 ! D34   D(16,8,9,17)          -56.8221         -DE/DX =    0.0                 !
 ! D35   D(16,8,9,18)           61.52           -DE/DX =    0.0                 !
 ! D36   D(16,8,9,19)         -175.6506         -DE/DX =    0.0                 !
 --------------------------------------------------------------------------------
 GradGradGradGradGradGradGradGradGradGradGradGradGradGradGradGradGradGrad


 ----------------------------------------------------------------------

 Electric dipole moment (input orientation):
 (Debye = 10**-18 statcoulomb cm , SI units = C m)
                  (au)            (Debye)         (10**-30 SI)
   Tot        0.316014D+01      0.803227D+01      0.267928D+02
   x          0.267121D+01      0.678953D+01      0.226474D+02
   y         -0.143254D+01     -0.364115D+01     -0.121456D+02
   z          0.893841D+00      0.227192D+01      0.757830D+01

 Dipole polarizability, Alpha (input orientation).
 (esu units = cm**3 , SI units = C**2 m**2 J**-1)
 Alpha(0;0):
               (au)            (10**-24 esu)      (10**-40 SI)
   iso        0.883679D+02      0.130948D+02      0.145699D+02
   aniso      0.988542D+01      0.146487D+01      0.162989D+01
   xx         0.869546D+02      0.128853D+02      0.143369D+02
   yx         0.116694D+01      0.172923D+00      0.192403D+00
   yy         0.942835D+02      0.139714D+02      0.155453D+02
   zx         0.786429D+00      0.116537D+00      0.129665D+00
   zy         0.140107D+01      0.207617D+00      0.231005D+00
   zz         0.838657D+02      0.124276D+02      0.138276D+02

 ----------------------------------------------------------------------

 Dipole orientation:
     5         -0.74177523         -0.13279818         -3.50263847
     9          1.56685645          0.60820831         -4.49523112
     9         -2.63984319          1.63312201         -3.92914084
     9         -1.40732545         -2.54466732         -4.28240029
     8         -0.35860484         -0.28236641         -0.52822643
     6         -1.53311291         -2.35166247          0.90854520
     6          0.45540885         -3.71705212          2.43411968
     6         -0.32242635          2.10342227          0.89597516
     6          1.69670515          3.88563721         -0.04261660
     1         -3.00922950         -1.50142623          2.08473356
     1         -2.41261591         -3.58446481         -0.48619209
     1         -0.46326236         -5.24455925          3.49378206
     1          1.88785771         -4.54510183          1.18745123
     1          1.38487705         -2.46005886          3.79568741
     1         -2.22252825          2.91554705          0.75748770
     1          0.05077247          1.55247798          2.85200698
     1          1.73432901          5.50275168          1.25503880
     1          3.55709358          2.97669832         -0.01728960
     1          1.29922269          4.58751066         -1.94604396

 Electric dipole moment (dipole orientation):
 (Debye = 10**-18 statcoulomb cm , SI units = C m)
                  (au)            (Debye)         (10**-30 SI)
   Tot        0.316014D+01      0.803227D+01      0.267928D+02
   x          0.000000D+00      0.000000D+00      0.000000D+00
   y          0.000000D+00      0.000000D+00      0.000000D+00
   z          0.316014D+01      0.803227D+01      0.267928D+02

 Dipole polarizability, Alpha (dipole orientation).
 (esu units = cm**3 , SI units = C**2 m**2 J**-1)
 Alpha(0;0):
               (au)            (10**-24 esu)      (10**-40 SI)
   iso        0.883679D+02      0.130948D+02      0.145699D+02
   aniso      0.988542D+01      0.146487D+01      0.162989D+01
   xx         0.844138D+02      0.125088D+02      0.139180D+02
   yx         0.271482D+01      0.402295D+00      0.447614D+00
   yy         0.933540D+02      0.138336D+02      0.153920D+02
   zx        -0.171346D-02     -0.253908D-03     -0.282511D-03
   zy        -0.210311D+01     -0.311649D+00     -0.346756D+00
   zz         0.873360D+02      0.129419D+02      0.143998D+02

 ----------------------------------------------------------------------
 Unable to Open any file for archive entry.
 1\1\GINC-B-DFT-4--7AE12935D740-YDFUZAEKBB\Freq\RwB97XD\Aug-CC-pVDZ\C4H
 10B1F3O1\ROOT\24-May-2026\0\\#N Geom=AllCheck Guess=TCheck SCRF=Check 
 GenChk RwB97XD/Aug-CC-pVDZ Freq\\BF3OEt2_DMSO-d6 | solvent model: DMSO
 -d6 as DMSO\\0,1\B,-1.7616390763,0.6639648196,-0.2243220214\F,-1.54725
 91492,1.5962905343,-1.2277944261\F,-2.1182810166,1.2510559938,0.984470
 2099\F,-2.6476893678,-0.3260398197,-0.6219010852\O,-0.3649820274,-0.05
 54550839,0.0136066434\C,-0.3247426575,-1.5053755881,0.2576286294\C,0.6
 080336253,-2.1638198699,-0.7310369884\C,0.6576537821,0.6688881956,0.78
 29076975\C,0.9928925979,2.0052244367,0.1667822077\H,-0.0103058023,-1.6
 429895307,1.2979081807\H,-1.3496679363,-1.8576858802,0.1465434686\H,0.
 6252063966,-3.2420631408,-0.5279297292\H,0.2553399539,-2.0063411547,-1
 .7570108442\H,1.6336597522,-1.7849044216,-0.6414631508\H,0.2786061544,
 0.7626912917,1.8069183224\H,1.5330052333,0.013810115,0.7765846406\H,1.
 8377643049,2.4185460551,0.732102728\H,1.2967098658,1.8892644057,-0.879
 6261489\H,0.1592343668,2.710919642,0.2280466661\\Version=ES64L-G16RevC
 .01\State=1-A\HF=-558.1521813\RMSD=2.976e-09\RMSF=5.782e-06\ZeroPoint=
 0.1518152\Thermal=0.1625652\ETot=-557.9896162\HTot=-557.988672\GTot=-5
 58.0375901\Dipole=2.6712074,-1.4325406,0.893841\DipoleDeriv=2.442005,-
 0.1799881,0.1230499,-0.1853359,2.163441,-0.079279,0.0728305,-0.0512818
 ,2.1408728,-0.6205473,-0.0246088,0.0150362,0.0025258,-0.8674013,0.3397
 87,-0.0287542,0.3737188,-0.8997004,-0.7091979,0.1403693,0.1490476,0.14
 0048,-0.6830414,-0.217335,0.2137464,-0.2783069,-0.9956345,-0.953374,-0
 .261652,-0.1761219,-0.2496839,-0.859372,-0.1271096,-0.1871004,-0.11735
 73,-0.5802482,-1.2755652,0.0212501,-0.305371,0.1334442,-1.6142244,-0.1
 02516,-0.3104979,-0.0892812,-0.6347202,0.21772,-0.1618246,-0.0594757,-
 0.1490153,1.2714318,0.0757318,-0.0613747,-0.0329161,0.3704686,0.036905
 2,0.097678,0.0636405,0.0401599,-0.0636304,-0.0332417,0.0835456,-0.0656
 915,0.0178242,0.6883788,0.488797,0.1956656,0.3863942,0.6632657,0.18307
 69,0.2307473,0.2865205,0.5506166,0.0286661,-0.1040023,-0.015316,-0.088
 0169,-0.0830564,0.0162304,-0.0019713,0.0213241,0.0552466,0.0795074,0.0
 515417,-0.0501697,0.0195475,-0.0034331,-0.0651765,-0.0172066,0.0276832
 ,-0.124491,0.0061587,-0.0682044,0.0388847,-0.0226818,0.0074409,-0.0240
 211,0.0120702,-0.0294119,0.1026098,0.0972852,0.0021218,0.0242934,0.013
 3451,-0.1285724,0.0274723,0.0195088,0.0354341,0.0740796,0.03968,0.0333
 917,-0.0719654,0.0287689,0.0891231,0.041477,-0.0328415,-0.0026806,-0.1
 228892,-0.120119,-0.0630021,0.0070036,-0.101799,0.0665847,-0.01846,-0.
 0233228,-0.042483,0.0603039,0.0290138,-0.0624805,0.1015338,-0.0611723,
 0.0223093,0.0160488,0.0052361,-0.0192113,-0.1018668,-0.0378601,0.04440
 91,-0.026846,0.0827439,-0.0431713,0.0120837,0.0005658,-0.0331761,0.075
 7399,-0.0313005,-0.0856499,-0.0946177,-0.0654623,0.035879,-0.0218764,-
 0.1004445,-0.0232764,0.0350155,0.0916376,0.0102488,0.0561309,0.0066887
 ,0.0410352,-0.0383751,0.0789393,0.0175058,-0.111789,-0.0089939,0.12160
 53,0.0255972,0.0695012,-0.0146079,0.0154826,0.0463238,0.0228877,0.0885
 618\Polar=86.9545866,1.1669446,94.2835051,0.786429,1.4010657,83.865745
 3\AAT=0.0275344,-0.1702173,-0.4920716,0.2388776,-0.0113665,-1.4047858,
 0.4695865,1.229304,-0.0187476,-0.0215593,0.4473967,0.5190639,-0.343636
 ,0.1785555,0.4611682,-0.4595345,-0.4318121,-0.17469,0.0278089,-0.30544
 1,0.3109139,0.2807309,-0.1235202,0.4857813,-0.4277447,-0.7047059,0.110
 4448,-0.0246385,0.1178435,-0.0621584,-0.2528586,-0.0292213,0.9277938,0
 .1609403,-0.5854638,0.0600138,0.0908646,0.0661678,-0.2097544,0.224836,
 -0.0062514,-0.0794846,0.0748423,-0.0568915,-0.0852801,0.0648397,-0.082
 3177,0.0224225,-0.1631726,-0.0160712,0.1248884,-0.1313313,-0.1306499,-
 0.0313672,-0.0895689,0.0112991,-0.0090948,-0.1107759,-0.0097577,-0.102
 4951,0.1241939,0.0729043,0.0847917,-0.1452243,0.00768,0.0826329,-0.110
 7336,0.0192682,0.2712644,-0.0358568,-0.1143195,0.1094429,-0.0286755,0.
 0749337,0.1134444,0.0019453,-0.0338455,-0.0661871,-0.169852,0.0679997,
 0.0779267,0.0481734,0.1305868,0.0791517,0.0211054,0.0091508,0.0294911,
 0.0982086,-0.0599376,-0.0217013,-0.0177389,-0.0672377,0.0522152,0.0237
 778,0.0194924,-0.054903,-0.1080396,0.094128,-0.0186406,-0.0271905,0.00
 25564,0.2568403,-0.1239646,-0.0249462,-0.0777747,-0.2166738,-0.0421465
 ,0.0490117,0.0783695,-0.0706526,0.0200974,0.1218593,-0.0241509,0.01937
 8,0.1843551,0.1814399,-0.0400062,-0.026674,0.0995707,-0.2694442,0.0167
 767,0.0397248,0.0747577,-0.0158234,-0.1424928,-0.0227622,0.0590032,-0.
 0439634,-0.0440713,-0.1281376,-0.0668789,-0.0166351,0.0414097,0.129623
 7,0.0066907,-0.0296153,-0.0028378,0.0609734,0.0822968,0.0717105,0.0423
 333,0.0081991,-0.1165268,-0.0627483,-0.0798748,0.1700116,-0.0626536,-0
 .1137214,0.0123762,0.2186917,0.0719537,-0.1528623,0.0703855,0.0677712,
 -0.1721985,-0.0222428,0.1149762,0.0104258,0.0518741,-0.1547766,0.05329
 12,-0.0614896,0.0292453,0.0099055,0.0156421,-0.0032519,-0.01525,-0.243
 6519,0.1288092,0.0483049,-0.0283584\GPTens=-0.2467685,-6.0213913,-19.7
 433441,12.0156185,-0.3955117,-48.3509717,18.3407536,46.4109461,1.12948
 41\OptRot=0.3610306,-0.756636,0.0186361,-0.756636,0.3534083,-1.3041077
 ,0.0186361,-1.3041077,-0.2272351\DQPolar=117.061675,-53.122771,-63.938
 904,-27.7796346,8.8595807,4.1823757,33.185404,-61.1213614,27.9359574,1
 14.141083,3.8067555,4.6135998,-3.3700048,-13.5513524,16.9213572,3.8305
 778,89.0120369,-30.3729892\Quadrupole=-1.5490393,2.9245209,-1.3754816,
 1.2163426,1.0569735,0.3741985\PG=C01 [X(C4H10B1F3O1)]\NImag=0\\0.25425
 461,0.09601021,0.38822140,-0.02282413,0.01628272,0.40928266,-0.0452349
 8,-0.01994771,0.01988228,0.05706845,-0.02423541,-0.12367889,0.08885823
 ,0.03252998,0.17506851,0.02357582,0.08603546,-0.13992507,-0.02895665,-
 0.13106596,0.19233568,-0.05270366,0.01675019,0.04133949,0.00553508,-0.
 00052620,0.01396151,0.06781006,0.01585271,-0.07421846,-0.06586517,-0.0
 0343835,0.00850853,0.01407755,-0.02904573,0.09694315,0.03692723,-0.061
 78285,-0.17593838,0.01658433,0.00474281,-0.04983496,-0.06070611,0.0984
 4771,0.24948200,-0.11386891,-0.08457820,-0.03227777,-0.00577501,-0.023
 56845,0.00570459,0.00594075,-0.00618849,-0.00689263,0.16231622,-0.0808
 8899,-0.13576808,-0.03666992,-0.02936097,-0.03715671,0.01208468,-0.012
 64710,-0.02002806,-0.02911096,0.12025930,0.19300199,-0.03222151,-0.037
 72543,-0.05852013,0.01110295,0.01834251,0.00615881,-0.01428934,-0.0319
 2031,-0.02102784,0.05218817,0.05135743,0.07321370,-0.03171220,-0.01508
 610,0.00738753,-0.00556247,0.01795115,-0.01103466,-0.02500423,0.025623
 41,0.01478902,-0.04087391,-0.00592988,-0.01284817,0.33610884,-0.011969
 76,-0.04995084,-0.01097590,0.02331503,-0.02308702,0.02170006,0.0257710
 7,-0.01231897,-0.01337514,-0.01084631,0.00414597,-0.00137271,0.0027317
 1,0.43103375,0.00042479,-0.00597150,-0.02613148,-0.01350768,0.01880019
 ,-0.00708990,0.01448796,-0.01247447,-0.00092700,-0.01794679,-0.0019359
 0,-0.00083987,0.10935004,0.01085935,0.20493099,0.00878943,0.01382867,-
 0.00108248,-0.00189456,0.00190672,-0.00209182,-0.00256617,0.00031502,0
 .00158376,-0.00110834,0.00050151,-0.00075416,-0.09208832,0.00661529,-0
 .02130944,0.63716220,0.03572459,-0.01732031,0.01088858,-0.00445838,0.0
 0613244,-0.00553062,-0.00695369,0.00526665,0.00373771,-0.00551252,-0.0
 0777403,-0.00136529,-0.00469107,-0.13433507,0.01185755,0.04424914,0.38
 576866,-0.00050185,0.00142437,-0.00445567,-0.00215971,0.00220993,-0.00
 099167,0.00268155,-0.00108452,-0.00111821,-0.00106142,0.00238051,0.000
 38769,-0.01816351,0.03097695,-0.06539743,0.05101601,0.01397816,0.59282
 064,-0.00108830,-0.00047962,0.00011117,0.00019783,-0.00008725,0.000072
 94,0.00021078,-0.00006573,-0.00010327,-0.00006017,0.00074414,-0.000536
 10,0.00257647,0.00364667,-0.00108806,-0.14417263,0.03479400,0.06233357
 ,0.55616682,-0.00636746,-0.00055384,-0.00260979,0.00063196,-0.00066087
 ,0.00093692,0.00212053,-0.00103659,-0.00099501,0.00064092,0.00130894,0
 .00001109,0.02687239,-0.04310807,-0.01952983,0.02653783,-0.08455298,-0
 .03466964,0.02577445,0.56003932,0.00204384,-0.00067425,0.00060324,-0.0
 0018343,0.00049316,-0.00057683,-0.00072953,0.00050569,0.00056268,-0.00
 051945,0.00042870,-0.00026964,-0.00572779,0.00605904,0.00783236,0.0652
 3758,-0.04398716,-0.15365601,0.03122866,-0.03012630,0.55245014,-0.0274
 2825,0.00165590,-0.01184726,0.00207961,-0.00356605,0.00304478,0.003753
 70,-0.00364141,-0.00383054,0.00196184,0.00080693,0.00063757,-0.1068392
 3,-0.00741241,-0.03635971,0.00126898,-0.02411461,0.00477705,0.00080292
 ,0.00427429,-0.00143793,0.52085059,-0.01626571,0.02281135,0.00071986,0
 .00061224,-0.00560529,0.00248398,0.00334982,-0.00428149,-0.00235888,0.
 00902934,0.00125189,0.00217924,0.00835508,-0.09855761,-0.00400487,-0.0
 2334672,-0.02939382,-0.01409520,-0.00020644,0.00025595,-0.00049979,-0.
 10664119,0.53657751,-0.01454585,0.00773099,-0.00310436,0.00171841,-0.0
 0155144,0.00162479,0.00239119,-0.00313731,-0.00366290,0.00470495,0.000
 73747,0.00211723,-0.05208875,-0.02514445,-0.09749992,0.01011398,-0.006
 65237,0.00239131,0.00064587,0.00047946,-0.00151797,-0.07738428,-0.0331
 9996,0.55267777,0.00056661,-0.00177312,0.00013871,-0.00279096,-0.00048
 905,-0.00092480,-0.00071928,0.00029137,0.00044198,-0.00035814,-0.00007
 559,-0.00019170,-0.01057982,-0.03269581,0.00455729,-0.00401226,0.00218
 846,-0.00147973,0.00009467,-0.00040917,0.00003362,-0.08063772,-0.01039
 687,0.01349031,0.57704497,-0.00018363,0.00158842,-0.00076644,-0.002507
 01,-0.00118828,-0.00166182,-0.00048754,-0.00052584,0.00063961,-0.00019
 840,-0.00023067,0.00001493,-0.00842672,-0.01783808,0.00143134,-0.00215
 164,0.00065018,-0.00028440,-0.00011548,-0.00004094,0.00008795,-0.01797
 071,-0.19239539,0.05909087,-0.03445386,0.52081703,0.00253388,-0.000570
 77,0.00073899,-0.00225696,-0.00094705,-0.00157572,-0.00056004,0.000393
 84,0.00046744,-0.00063709,-0.00022516,-0.00025702,-0.00666647,-0.02514
 756,0.00859025,-0.00409593,0.00102177,-0.00176148,0.00002694,-0.000343
 12,0.00035204,0.01765345,0.06887469,-0.11365560,0.00944681,0.02510521,
 0.57977137,0.00011033,-0.00121613,-0.00060220,-0.00002425,0.00038112,-
 0.00024627,-0.00009159,0.00014907,0.00032917,-0.00066387,0.00138941,-0
 .00003154,0.00000226,-0.00073967,-0.00033817,-0.07740852,0.01041610,-0
 .07919140,0.00752461,-0.00211692,0.02141541,-0.00043486,-0.00198248,0.
 00083130,-0.00001188,0.00009690,0.00004621,0.07675201,-0.00619748,0.00
 065707,0.00069996,0.00143217,-0.00160871,0.00114028,0.00056210,-0.0003
 7788,-0.00060182,0.00038245,0.00102808,0.00003098,0.01361912,-0.027565
 86,0.03354177,0.00225043,-0.04760820,0.01843707,-0.00526884,0.00377670
 ,-0.01428287,0.00293764,0.00182413,0.00396059,-0.00027996,-0.00008629,
 -0.00040027,-0.01036596,0.06777202,0.00180732,-0.00085697,-0.00028429,
 -0.00022524,0.00038713,-0.00021475,-0.00024259,0.00019425,0.00023757,-
 0.00023871,0.00002479,-0.00009107,-0.00211185,0.00487895,-0.00197641,-
 0.07707781,0.02864094,-0.29790124,-0.00715458,0.00139495,-0.01762443,-
 0.00218939,-0.00155824,0.00184919,0.00043711,-0.00022353,0.00015030,0.
 08246215,-0.03120560,0.31668226,0.00048737,0.00101225,0.00001910,-0.00
 006682,-0.00032338,0.00010248,0.00006249,-0.00031190,-0.00024551,-0.00
 504392,0.00531694,-0.00260670,0.00435061,0.00187400,0.00012726,-0.3105
 8239,-0.09337331,-0.03028460,-0.01606958,-0.00454802,-0.00231429,-0.00
 003185,0.00072147,0.00027852,0.00031278,0.00023184,0.00003539,-0.00477
 592,-0.00143009,0.00044073,0.33042085,-0.00431519,-0.00325316,-0.00111
 905,0.00052787,0.00050123,-0.00011416,0.00052821,0.00027272,0.00033548
 ,0.00260438,0.00000563,0.00091975,-0.03219947,-0.02567112,-0.00640156,
 -0.07680319,-0.07164413,-0.00706519,0.01511641,0.00666930,0.00155326,0
 .00251010,-0.00328262,0.00516734,-0.00145818,-0.00052462,-0.00155513,0
 .00386400,0.00335675,-0.00026044,0.08899327,0.09429151,0.00075029,0.00
 082716,0.00128072,-0.00008928,-0.00026546,0.00005815,-0.00011822,0.000
 00713,-0.00019797,-0.00197382,0.00128584,-0.00117019,0.00561123,0.0053
 7011,0.00055024,-0.03443963,-0.01338798,-0.05601416,0.02327862,0.00693
 474,0.00280329,-0.00109041,-0.00058281,-0.00062777,0.00043043,0.000072
 95,0.00017163,-0.02715526,-0.00984455,-0.00076586,0.03227105,0.0109445
 4,0.05475462,0.00154536,-0.00029350,0.00039114,-0.00018169,0.00026470,
 -0.00025396,-0.00040030,0.00023826,0.00025981,-0.00023465,-0.00015055,
 -0.00001540,-0.00275777,0.00570542,0.00277851,0.00026503,0.01708714,-0
 .00663866,-0.04428368,0.00269507,0.00126566,-0.00121156,-0.00012958,-0
 .00040251,0.00018912,0.00003144,0.00015023,0.00053432,-0.00020938,0.00
 010841,0.00025619,-0.00058322,-0.00067020,0.04518047,-0.00168010,0.000
 62200,-0.00060010,0.00014297,-0.00023936,0.00023101,0.00046819,-0.0002
 8594,-0.00026000,0.00028634,0.00008680,0.00009865,0.00253626,-0.002365
 30,-0.00206970,-0.00252664,-0.01323852,0.00517573,0.00499778,-0.311417
 57,0.04945379,0.00092973,0.00070295,0.00055160,-0.00005537,-0.00003474
 ,-0.00007788,-0.00017485,0.00041268,-0.00023291,0.00016962,0.00041693,
 0.00008608,-0.00608187,0.33637436,-0.00173814,0.00019055,-0.00060641,0
 .00021333,-0.00028149,0.00032398,0.00048935,-0.00026206,-0.00028665,0.
 00026102,0.00014669,0.00011615,0.00416858,-0.00638862,-0.00188220,-0.0
 0279485,-0.01836013,0.00441520,0.00070821,0.05196342,-0.05524513,0.000
 96283,0.00031589,0.00057398,-0.00011986,-0.00002981,-0.00015675,-0.000
 78661,0.00061584,0.00024358,-0.00000403,0.00029970,0.00058088,-0.00166
 378,-0.05350102,0.05576335,0.00002826,0.00010810,0.00003024,-0.0000271
 8,-0.00000755,0.00001154,0.00003016,-0.00004137,-0.00005594,0.00006730
 ,-0.00010825,-0.00004245,0.00072077,-0.00108347,-0.00109588,0.00674277
 ,-0.00408285,0.02326487,-0.07823945,0.01394339,-0.08771781,-0.00023752
 ,-0.00001572,-0.00028774,0.00007657,0.00001681,-0.00006591,-0.00216478
 ,0.00281237,0.00276718,0.00108366,-0.00067823,-0.00030514,-0.00126730,
 -0.00032197,0.00038051,0.08080815,0.00048989,-0.00008986,0.00003027,-0
 .00008955,0.00010106,-0.00006872,-0.00011289,0.00007517,0.00009915,-0.
 00012603,-0.00004992,0.00001760,-0.00106756,0.00240483,0.00015322,-0.0
 0404995,-0.00048875,-0.01623711,0.01276119,-0.05105093,0.04004620,-0.0
 0041863,-0.00021145,-0.00039700,0.00004378,0.00001152,0.00007073,0.002
 12058,-0.00062518,-0.00209832,-0.00035762,0.00013459,0.00079917,0.0100
 7925,-0.00229378,0.02857809,-0.01627488,0.05101249,-0.00036554,0.00016
 134,-0.00020277,0.00006442,-0.00009419,0.00010047,0.00004367,-0.000025
 37,-0.00001889,0.00010802,-0.00012371,0.00009308,-0.00031838,-0.000159
 73,0.00177334,-0.00728228,0.00475020,-0.02158691,-0.08434594,0.0372572
 0,-0.28571950,0.00010532,0.00021883,0.00023459,0.00000255,-0.00001806,
 -0.00003947,0.00310739,-0.00215134,-0.00131802,-0.00013871,0.00010582,
 0.00090730,-0.00093135,-0.00054028,-0.00328670,0.08930309,-0.03985894,
 0.30981865,-0.00004036,-0.00057415,-0.00012626,0.00000798,0.00013549,-
 0.00007129,0.00006797,0.00006030,0.00008428,-0.00013097,0.00042111,-0.
 00012526,0.00116432,-0.00006747,-0.00048488,-0.01908549,-0.00814278,-0
 .00214272,-0.28365199,-0.08922540,-0.02285311,-0.00044573,0.00010405,-
 0.00057119,0.00015541,0.00004683,0.00003935,0.00087098,0.00026459,-0.0
 0006996,-0.00060670,0.00202695,0.00315087,0.00196542,0.00133963,-0.000
 00187,-0.00773609,-0.00319677,0.00051796,0.30661283,0.00068935,-0.0000
 3749,0.00024412,-0.00008796,0.00006981,-0.00008263,-0.00019893,0.00011
 288,0.00008737,-0.00010701,-0.00020953,0.00002754,-0.00096158,0.002108
 34,0.00085334,0.01678105,0.00376313,0.00135232,-0.09119645,-0.07891484
 ,-0.00849970,0.00048831,-0.00060622,-0.00066049,-0.00014010,0.00013024
 ,0.00004543,-0.00082078,0.00011115,0.00050090,0.00189980,-0.00067381,-
 0.00244070,-0.02881805,-0.00877211,-0.00333660,0.00572507,0.00099498,0
 .00029954,0.09681341,0.08254588,0.00015353,0.00042545,0.00005227,-0.00
 002529,-0.00009019,0.00004504,-0.00005905,-0.00003399,-0.00002890,0.00
 014972,-0.00045049,0.00015496,-0.00185729,0.00013862,0.00051884,0.0229
 2498,0.01108869,0.00196949,-0.02449664,-0.01046856,-0.04999903,0.00073
 530,-0.00026456,0.00022652,-0.00028899,0.00005714,-0.00002684,-0.00048
 114,0.00061898,0.00095595,0.00225367,-0.00286880,-0.00242320,0.0052794
 0,0.00156444,-0.00067532,-0.02629864,-0.01135292,-0.00086183,0.0221249
 4,0.01260581,0.05088669,0.00235946,-0.00172237,-0.00170427,-0.00029083
 ,0.00047778,0.00006881,-0.00064909,0.00029300,0.00052599,-0.00032547,0
 .00017291,0.00029135,-0.00198717,-0.01310234,-0.03327979,-0.00057254,0
 .00341036,-0.00165019,-0.00029050,-0.00049064,0.00027681,-0.08736106,0
 .01398394,0.10296205,-0.00077818,0.00169058,0.00570575,0.00025334,0.00
 017129,0.00075050,0.00003216,-0.00004435,-0.00000049,0.00025468,-0.000
 05850,-0.00002976,0.00006049,0.00006908,0.00005575,0.00024682,-0.00000
 776,-0.00003566,0.09364863,0.00207734,-0.00096393,0.00087626,-0.000047
 27,0.00046602,-0.00033671,-0.00021990,0.00009495,0.00024436,-0.0004116
 4,-0.00015491,-0.00010104,-0.00383281,-0.00747312,-0.02029834,-0.00003
 296,0.00330971,-0.00220024,0.00036404,-0.00041677,0.00009523,0.0107699
 2,-0.05258640,-0.01837930,-0.01072437,0.00363634,0.02913085,0.00010859
 ,-0.00050509,0.00062046,0.00003989,-0.00000288,0.00019782,0.00008429,-
 0.00005904,-0.00005299,-0.00013039,-0.00004756,0.00011443,-0.00015943,
 0.00002992,0.00007659,-0.00387720,0.05821947,0.00301063,-0.00250565,-0
 .00172696,-0.00047641,0.00052145,-0.00007749,0.00056461,0.00071620,0.0
 0158029,-0.00061638,0.00010230,0.00007916,-0.00710183,-0.00926268,-0.0
 1952445,-0.00021648,0.00246390,-0.00060982,0.00000270,-0.00029704,0.00
 033313,0.09428888,-0.01924050,-0.28177147,0.00532533,-0.00092908,-0.00
 910087,0.00010396,-0.00067669,0.00010122,0.00004597,-0.00023923,0.0001
 6578,0.00012715,-0.00008966,-0.00005801,-0.00003611,0.00012359,0.00006
 876,0.00006020,0.00003179,-0.00001743,-0.09583201,0.02596468,0.3075988
 9,0.00386693,-0.00412988,0.00071522,-0.00011446,0.00087773,-0.00056295
 ,-0.00041297,0.00049645,0.00028363,-0.00183781,-0.00041727,-0.00057469
 ,-0.03059247,0.00721491,-0.00811548,-0.00075780,0.00332065,-0.00075611
 ,0.00033537,-0.00026980,-0.00002417,-0.22207619,0.13266298,0.00636389,
 0.00840532,-0.00633679,0.00034997,-0.00047799,-0.00076760,0.00063913,0
 .00018410,-0.00007184,0.00040948,0.00015953,0.00002735,-0.00001400,0.0
 0007772,0.00012405,0.00009604,0.00064890,-0.00006883,-0.00011814,-0.00
 592521,0.00687190,0.00022449,0.24724215,0.00086326,-0.00286270,-0.0003
 5442,0.00005785,0.00065750,-0.00018466,0.00001729,0.00045464,0.0003349
 0,-0.00133302,-0.00008242,-0.00041601,-0.02302161,0.00655031,-0.005450
 93,-0.00266663,0.00044524,0.00000572,-0.00073796,-0.00028222,-0.000722
 39,0.14457547,-0.15178976,-0.00206988,0.02237266,-0.01902867,-0.001183
 17,-0.00117524,-0.00073987,-0.00008076,0.00009790,-0.00001158,0.000009
 68,0.00004921,0.00014306,0.00018224,0.00014665,0.00014331,0.00012401,0
 .00016478,-0.00074116,-0.00107222,0.00101216,-0.00014597,0.00144262,-0
 .13798760,0.16973234,0.00246771,-0.00342000,-0.00096329,-0.00009033,0.
 00050314,-0.00016841,0.00028442,0.00062031,0.00107831,-0.00146038,-0.0
 0011495,-0.00028273,-0.02667502,0.00833865,-0.00518969,-0.00018827,0.0
 0165159,0.00093482,-0.00066496,-0.00015183,-0.00021530,0.01335302,-0.0
 0766778,-0.05119833,-0.01138564,0.01000159,0.00063296,0.00060145,0.000
 18883,-0.00004159,-0.00000089,0.00004124,-0.00010010,0.00024745,0.0001
 3440,0.00009865,0.00013224,0.00011027,-0.00000232,0.00040687,-0.001040
 00,-0.00075666,0.02271710,-0.01708182,0.00206102,0.00002201,0.00655165
 ,0.05314843,0.00117491,0.00116503,-0.00001012,-0.00083939,-0.00059236,
 -0.00053162,-0.00043760,-0.00022593,0.00018904,-0.00021500,-0.00026763
 ,-0.00004232,0.00139861,-0.00134537,0.00119020,-0.00033716,0.00063193,
 -0.00016297,-0.00001509,-0.00010713,0.00004262,-0.00764975,-0.00086928
 ,-0.00483502,-0.20826611,-0.08060388,-0.10924539,0.00004117,0.00000739
 ,-0.00000568,0.00002427,-0.00014582,-0.00000185,0.00002668,-0.00002123
 ,-0.00003690,-0.00000274,0.00001581,-0.00001237,-0.00000382,0.00001837
 ,0.00000643,0.00020143,0.00019631,0.00024314,0.00062296,-0.00005502,0.
 00011278,0.22259952,0.00148103,-0.00175715,0.00064746,0.00060407,0.000
 82907,0.00010497,-0.00015376,0.00041930,0.00011545,-0.00036959,0.00012
 318,-0.00017449,-0.00278760,-0.00785144,0.00205425,-0.00162888,0.00116
 321,-0.00050161,0.00001143,-0.00015533,0.00008484,-0.02101912,-0.00839
 673,-0.01746520,-0.07847322,-0.08354724,-0.05082670,0.00002922,-0.0000
 8486,0.00007047,0.00005320,-0.00064333,0.00008111,0.00006314,-0.000045
 82,-0.00006037,-0.00000048,0.00002576,-0.00001644,0.00002654,0.0000165
 3,-0.00004059,0.00007635,0.00067678,0.00044701,0.00034222,0.00058613,-
 0.00077716,0.08822813,0.09174673,-0.00030683,0.00062586,-0.00067626,-0
 .00059726,-0.00033066,0.00029065,0.00017741,-0.00001974,0.00002807,0.0
 0011687,-0.00009001,0.00009332,0.00176800,0.00397267,0.00025897,0.0005
 1325,-0.00015487,0.00052117,0.00002268,0.00011463,-0.00005947,0.009975
 05,0.00334881,0.00529096,-0.11018882,-0.05311314,-0.11814777,-0.000022
 89,0.00001332,-0.00005308,-0.00001956,0.00022520,-0.00004658,-0.000037
 41,0.00002373,0.00004309,0.00000463,-0.00000569,0.00000257,-0.00001556
 ,0.00000309,0.00000845,-0.00015551,-0.00083470,-0.00002056,0.00004857,
 -0.00007375,0.00060497,0.11930948,0.05587562,0.12382362,-0.00054072,-0
 .00010213,0.00089766,0.00025997,0.00019607,-0.00020908,-0.00011924,-0.
 00025358,-0.00028995,0.00013282,0.00014728,-0.00003732,0.00076337,0.00
 130572,0.00043147,0.00021851,-0.00026548,0.00001722,-0.00002469,0.0000
 1948,-0.00003065,-0.00441657,-0.00073831,0.00746633,-0.06651931,0.0106
 0909,0.07301484,-0.00000101,0.00008860,-0.00005427,-0.00001219,0.00007
 087,-0.00002141,-0.00001840,0.00001582,-0.00000073,-0.00001760,-0.0000
 0411,-0.00000647,-0.00002023,-0.00000400,0.00001265,0.00076986,-0.0015
 4203,0.00074400,0.00014066,-0.00024339,-0.00070227,0.00775433,-0.00146
 618,-0.02343897,0.06717773,-0.00011558,-0.00018409,-0.00007415,-0.0003
 0355,-0.00005198,0.00006050,0.00006141,0.00010707,-0.00010685,-0.00005
 129,0.00000165,0.00003161,0.00075619,0.00234228,-0.00100273,0.00034732
 ,-0.00000749,0.00010854,-0.00005457,0.00004953,-0.00004566,-0.00898178
 ,0.00287219,0.03257177,0.01082626,-0.05099858,-0.03301912,0.00001114,0
 .00012557,-0.00006629,-0.00001550,0.00010186,-0.00001303,0.00000721,0.
 00001043,-0.00001668,0.00001936,-0.00002164,-0.00002011,0.00002785,-0.
 00000159,-0.00000413,-0.00154064,-0.00528458,0.00189622,0.00016955,0.0
 0116100,-0.00051018,0.00447262,-0.00201186,-0.01086321,-0.00893225,0.0
 5375245,-0.00038880,0.00039325,-0.00062123,-0.00062362,-0.00019323,0.0
 0035268,0.00016260,-0.00002366,0.00008867,0.00012388,-0.00001944,0.000
 09628,0.00064337,0.00007572,0.00158944,-0.00005138,-0.00039294,0.00013
 169,-0.00000706,0.00004964,-0.00003010,0.00220101,-0.00304995,-0.01333
 871,0.07451393,-0.02877439,-0.29814422,-0.00002096,-0.00010397,-0.0000
 0395,0.00002194,0.00002498,0.00003966,-0.00000983,0.00002681,0.0000160
 0,-0.00000020,-0.00000438,0.00002299,0.00001992,0.00001542,-0.00000522
 ,0.00000972,0.00250856,0.00045214,-0.00020801,0.00000974,0.00039694,0.
 00519333,-0.00072231,-0.01242493,-0.08045361,0.02982862,0.32141457,-0.
 00056588,-0.00062744,-0.00043805,-0.00234631,-0.00132504,-0.00165936,-
 0.00030687,-0.00010710,0.00012570,0.00007725,0.00008670,0.00009663,0.0
 0091234,0.00108277,0.00017838,0.00013925,-0.00022768,0.00010259,-0.000
 01338,0.00002424,-0.00000606,0.00805265,-0.00822663,-0.00085145,-0.212
 17176,0.14071217,0.01452498,-0.00003435,-0.00000883,-0.00004246,-0.000
 02513,0.00005744,-0.00003626,-0.00002145,0.00000685,0.00000669,-0.0000
 0320,-0.00000564,-0.00000317,-0.00001926,-0.00000390,0.00002023,0.0003
 5317,0.00046573,-0.00046183,0.00051124,-0.00213677,0.00082270,-0.01607
 721,0.01498350,0.00284685,-0.00552731,0.00329624,-0.00112624,0.2270662
 0,-0.00096906,-0.00326142,-0.00021252,0.00038660,0.00094295,0.00018987
 ,0.00071693,0.00081817,-0.00019305,0.00008822,0.00050017,0.00004395,-0
 .00044093,0.00153701,-0.00041116,-0.00012635,-0.00013592,0.00008862,0.
 00000223,0.00009120,0.00003025,0.02481764,-0.01918920,-0.00163269,0.13
 570215,-0.16039439,-0.01034660,0.00002588,0.00013780,-0.00012979,-0.00
 005035,-0.00004327,-0.00008181,-0.00003898,-0.00001704,-0.00000266,-0.
 00002659,-0.00002465,-0.00002321,-0.00006556,0.00007389,0.00007075,-0.
 00051367,0.00120705,-0.00046921,-0.00205816,-0.00418917,0.00262204,-0.
 01050193,0.00890708,0.00128284,0.00109853,-0.00196223,0.00035154,-0.14
 804661,0.17500198,-0.00080238,-0.00058972,0.00119840,-0.00037389,-0.00
 003889,-0.00083544,0.00012114,-0.00011608,-0.00048332,0.00026723,0.000
 19212,-0.00005188,0.00087594,-0.00054333,0.00041391,-0.00000504,-0.000
 24775,-0.00007941,-0.00003474,0.00004905,-0.00002346,-0.01359474,0.008
 38124,-0.00060934,0.01576148,-0.01070090,-0.04800924,-0.00002061,0.000
 01948,0.00005463,0.00001817,0.00000626,0.00003356,0.00001534,0.0000253
 0,0.00002230,0.00001152,-0.00000521,0.00001466,0.00005771,-0.00000657,
 -0.00002379,-0.00067615,-0.00054409,0.00046668,0.00122112,0.00294763,-
 0.00003770,-0.01140281,0.01110369,0.00046280,0.02266055,-0.01875510,-0
 .00003268,-0.01409985,0.00882285,0.04751932\\0.00000508,0.00000135,0.0
 0000153,0.00000052,0.00001406,-0.00000454,-0.00000570,-0.00000405,-0.0
 0000674,0.00000732,-0.00000491,-0.00000329,0.00000775,-0.00001521,0.00
 000593,-0.00000915,0.00001394,0.00000460,0.00000240,-0.00001263,0.0000
 0032,0.00000037,0.00000421,-0.00001292,0.00000172,0.00000818,0.0000026
 3,-0.00000746,-0.00000252,-0.00000237,-0.00000837,0.00000429,0.0000008
 8,-0.00000548,0.00000223,-0.00000010,0.00000178,0.00000162,-0.00000062
 ,-0.00000175,0.00000310,-0.00000003,0.00000176,-0.00000208,0.00000438,
 0.00000016,0.00000175,0.00000506,0.00000244,-0.00000907,0.00000532,0.0
 0000224,-0.00000048,0.00000009,0.00000438,-0.00000376,-0.00000014\\\@
 The archive entry for this job was punched.


 WE HAVE LEARNED THAT NOTHING IS SIMPLE AND
 RATIONAL EXCEPT WHAT WE OURSELVES HAVE INVENTED;
 THAT GOD THINKS IN TERMS NEITHER OF EUCLID OR RIEMANN; THAT SCIENCE HAS "EXPLAINED" NOTHING;
 THAT THE MORE WE KNOW THE MORE FANTASTIC THE WORLD BECOMES
 AND THE PROFOUNDER THE SURROUNDING DARKNESS.
   --  ALDOUS HUXLEY
 Job cpu time:       0 days  1 hours  4 minutes 36.2 seconds.
 Elapsed time:       0 days  0 hours  3 minutes 18.7 seconds.
 File lengths (MBytes):  RWF=   1440 Int=      0 D2E=      0 Chk=     32 Scr=     32
 Normal termination of Gaussian 16 at Sun May 24 17:29:23 2026.
